C  N  H  Pb I                           
   1.0000000000000000     
     9.0193899931757802    0.0000000000000000    0.0000000000000000
     0.0000000000000000    8.7777678445653162    0.0000000000000000
     0.0000000000000000    0.0000000000000000   12.7961868062944486
  C               N               H               Pb              I             
     4     8    20     4    12
Direct
     0.5173640547904554    0.9879320550186179    0.2277274845708845
     0.0038946831536890    0.4406021038097663    0.7152979643806461
     0.0458686839994371    0.4787317569660630    0.2248943514577633
     0.5397632368333944    0.0225940216278815    0.7341934707047528
     0.4644769143730301    0.0098634010940089    0.1334096891259762
     0.9667447374736753    0.5369192056523886    0.6414005646946279
     0.0857216745980480    0.5899630084233110    0.1622605204518877
     0.5173354658099427    0.9174438989570248    0.8054769667207893
     0.4670452437087604    0.0537331092091975    0.3128074767173246
     0.9761681053980809    0.4593495323425856    0.8152309182365300
     0.9295987398502845    0.4813269419131743    0.2864763864887507
     0.5032963562130277    0.0100857176363434    0.6353123097149336
     0.6099990658394461    0.9083939715700780    0.2363856478398176
     0.0629706381371520    0.3370603762018547    0.6921354649931075
     0.1146356536645428    0.3760060014545346    0.2253215126273318
     0.5934673330037512    0.1282713593321319    0.7592382851324970
     0.5161903197055295    0.9590732917741391    0.0714211369679489
     0.9867239039588966    0.5083177608174978    0.5652309845386725
     0.1741301151660295    0.5755729091835562    0.1131938579696410
     0.5556113869497707    0.9337428592303993    0.8798761349699689
     0.3790960528206426    0.0840842644612962    0.1194235775714390
     0.9097374686519757    0.6351615500871262    0.6573178036904466
     0.0271272875511954    0.6888096373368313    0.1561398004862298
     0.4695789175376746    0.8151330196551285    0.7886784579934627
     0.3801614987320008    0.1279191768049301    0.3119593442912461
     0.9232118501373421    0.5531472357168639    0.8436493876588713
     0.8614307090084168    0.5744502214536311    0.2909754723743134
     0.4511150195019056    0.9151512768101639    0.6067494918590057
     0.5102798005905953    0.0246268658491289    0.3839467774030965
     0.0152963517451639    0.3819018451063556    0.8681934468246624
     0.9121554054310153    0.3919795731643063    0.3362508099608164
     0.5186510586091657    0.1014884672823086    0.5869727622201992
     0.5023441722619779    0.4879288203356396    0.9810849892003191
     0.0023441785924945    0.0120711836670608    0.4810849868122489
     0.9976558244282359    0.9879288178551917    0.9810849914872719
     0.4976558298475950    0.5120711849063113    0.4810849885500943
     0.7958928941106862    0.7105293335369609    0.5032699314851357
     0.9606598229172718    0.9944623124655507    0.2320592544955247
     0.7060293635732506    0.1956508126848462    0.9614522052702341
     0.2041070863312058    0.2894707010478257    0.0032699320500740
     0.2060293779368507    0.3043491755398549    0.4614522129329686
     0.2939706246777973    0.8043491828284957    0.4614522154174097
     0.7939706408800902    0.6956508110307098    0.9614522100061293
     0.7041071043942750    0.2105293303375291    0.5032699287679776
     0.4606598128207438    0.5055376617516671    0.7320592563212429
     0.0393401777688851    0.0055376740307977    0.7320592521911493
     0.2958929104798855    0.7894706933117490    0.0032699289927791
     0.5393401671427824    0.4944623109760684    0.2320592517272502

  0.00000000E+00  0.00000000E+00  0.00000000E+00
  0.00000000E+00  0.00000000E+00  0.00000000E+00
  0.00000000E+00  0.00000000E+00  0.00000000E+00
  0.00000000E+00  0.00000000E+00  0.00000000E+00
  0.00000000E+00  0.00000000E+00  0.00000000E+00
  0.00000000E+00  0.00000000E+00  0.00000000E+00
  0.00000000E+00  0.00000000E+00  0.00000000E+00
  0.00000000E+00  0.00000000E+00  0.00000000E+00
  0.00000000E+00  0.00000000E+00  0.00000000E+00
  0.00000000E+00  0.00000000E+00  0.00000000E+00
  0.00000000E+00  0.00000000E+00  0.00000000E+00
  0.00000000E+00  0.00000000E+00  0.00000000E+00
  0.00000000E+00  0.00000000E+00  0.00000000E+00
  0.00000000E+00  0.00000000E+00  0.00000000E+00
  0.00000000E+00  0.00000000E+00  0.00000000E+00
  0.00000000E+00  0.00000000E+00  0.00000000E+00
  0.00000000E+00  0.00000000E+00  0.00000000E+00
  0.00000000E+00  0.00000000E+00  0.00000000E+00
  0.00000000E+00  0.00000000E+00  0.00000000E+00
  0.00000000E+00  0.00000000E+00  0.00000000E+00
  0.00000000E+00  0.00000000E+00  0.00000000E+00
  0.00000000E+00  0.00000000E+00  0.00000000E+00
  0.00000000E+00  0.00000000E+00  0.00000000E+00
  0.00000000E+00  0.00000000E+00  0.00000000E+00
  0.00000000E+00  0.00000000E+00  0.00000000E+00
  0.00000000E+00  0.00000000E+00  0.00000000E+00
  0.00000000E+00  0.00000000E+00  0.00000000E+00
  0.00000000E+00  0.00000000E+00  0.00000000E+00
  0.00000000E+00  0.00000000E+00  0.00000000E+00
  0.00000000E+00  0.00000000E+00  0.00000000E+00
  0.00000000E+00  0.00000000E+00  0.00000000E+00
  0.00000000E+00  0.00000000E+00  0.00000000E+00
  0.00000000E+00  0.00000000E+00  0.00000000E+00
  0.00000000E+00  0.00000000E+00  0.00000000E+00
  0.00000000E+00  0.00000000E+00  0.00000000E+00
  0.00000000E+00  0.00000000E+00  0.00000000E+00
  0.00000000E+00  0.00000000E+00  0.00000000E+00
  0.00000000E+00  0.00000000E+00  0.00000000E+00
  0.00000000E+00  0.00000000E+00  0.00000000E+00
  0.00000000E+00  0.00000000E+00  0.00000000E+00
  0.00000000E+00  0.00000000E+00  0.00000000E+00
  0.00000000E+00  0.00000000E+00  0.00000000E+00
  0.00000000E+00  0.00000000E+00  0.00000000E+00
  0.00000000E+00  0.00000000E+00  0.00000000E+00
  0.00000000E+00  0.00000000E+00  0.00000000E+00
  0.00000000E+00  0.00000000E+00  0.00000000E+00
  0.00000000E+00  0.00000000E+00  0.00000000E+00
  0.00000000E+00  0.00000000E+00  0.00000000E+00
