C  N  H  Pb I 
 1.0000000000000000
     9.0193899931757802    0.0000000000000000    0.0000000000000000
     0.0000000000000000    8.7777678445653162    0.0000000000000000
     0.0000000000000000    0.0000000000000000   12.7961868062944486
 C   N   H   Pb  I  
   4   8  20   4  12
Direct
  0.5173640547904577  0.9879320550186194  0.2277274845708867
  0.0038946831536896  0.4406021038097687  0.7152979643806432
  0.0458686839994358  0.4787317569660626  0.2248943514577605
  0.5397632368333950  0.0225940216278822  0.7341934707047522
  0.4644769143730273  0.0098634010940071  0.1334096891259750
  0.9667447374736774  0.5369192056523912  0.6414005646946291
  0.0857216745980472  0.5899630084233111  0.1622605204518878
  0.5173354658099393  0.9174438989570241  0.8054769667207866
  0.4670452437087629  0.0537331092091972  0.3128074767173241
  0.9761681053980822  0.4593495323425849  0.8152309182365299
  0.9295987398502845  0.4813269419131762  0.2864763864887519
  0.5032963562130265  0.0100857176363450  0.6353123097149347
  0.6099990658394426  0.9083939715700782  0.2363856478398150
  0.0629706381371516  0.3370603762018529  0.6921354649931107
  0.1146356536645444  0.3760060014545323  0.2253215126273318
  0.5934673330037511  0.1282713593321317  0.7592382851324972
  0.5161903197055260  0.9590732917741392  0.0714211369679511
  0.9867239039588966  0.5083177608174960  0.5652309845386759
  0.1741301151660271  0.5755729091835559  0.1131938579696432
  0.5556113869497692  0.9337428592304016  0.8798761349699673
  0.3790960528206405  0.0840842644612937  0.1194235775714386
  0.9097374686519772  0.6351615500871282  0.6573178036904440
  0.0271272875511935  0.6888096373368278  0.1561398004862309
  0.4695789175376713  0.8151330196551309  0.7886784579934633
  0.3801614987320036  0.1279191768049280  0.3119593442912461
  0.9232118501373398  0.5531472357168659  0.8436493876588688
  0.8614307090084166  0.5744502214536333  0.2909754723743105
  0.4511150195019069  0.9151512768101673  0.6067494918590056
  0.5102798005905932  0.0246268658491283  0.3839467774030997
  0.0152963517451673  0.3819018451063572  0.8681934468246647
  0.9121554054310125  0.3919795731643069  0.3362508099608176
  0.5186510586091667  0.1014884672823107  0.5869727622202012
  0.5023441722619808  0.4879288203356366  0.9810849892003165
  0.0023441785924915  0.0120711836670638  0.4810849868122521
  0.9976558244282330  0.9879288178551918  0.9810849914872694
  0.4976558298475982  0.5120711849063111  0.4810849885500975
  0.7958928941106866  0.7105293335369601  0.5032699314851331
  0.9606598229172731  0.9944623124655482  0.2320592544955259
  0.7060293635732524  0.1956508126848427  0.9614522052702348
  0.2041070863312036  0.2894707010478275  0.0032699320500760
  0.2060293779368493  0.3043491755398582  0.4614522129329701
  0.2939706246777947  0.8043491828284943  0.4614522154174112
  0.7939706408800884  0.6956508110307111  0.9614522100061302
  0.7041071043942746  0.2105293303375289  0.5032699287679750
  0.4606598128207440  0.5055376617516696  0.7320592563212425
  0.0393401777688836  0.0055376740307987  0.7320592521911489
  0.2958929104798871  0.7894706933117497  0.0032699289927811
  0.5393401671427811  0.4944623109760681  0.2320592517272514
Cartesian
  0.0000000000000000  0.0000000000000000  0.0000000000000000
  0.0000000000000000  0.0000000000000000  0.0000000000000000
  0.0000000000000000  0.0000000000000000  0.0000000000000000
  0.0000000000000000  0.0000000000000000  0.0000000000000000
  0.0000000000000000  0.0000000000000000  0.0000000000000000
  0.0000000000000000  0.0000000000000000  0.0000000000000000
  0.0000000000000000  0.0000000000000000  0.0000000000000000
  0.0000000000000000  0.0000000000000000  0.0000000000000000
  0.0000000000000000  0.0000000000000000  0.0000000000000000
  0.0000000000000000  0.0000000000000000  0.0000000000000000
  0.0000000000000000  0.0000000000000000  0.0000000000000000
  0.0000000000000000  0.0000000000000000  0.0000000000000000
  0.0000000000000000  0.0000000000000000  0.0000000000000000
  0.0000000000000000  0.0000000000000000  0.0000000000000000
  0.0000000000000000  0.0000000000000000  0.0000000000000000
  0.0000000000000000  0.0000000000000000  0.0000000000000000
  0.0000000000000000  0.0000000000000000  0.0000000000000000
  0.0000000000000000  0.0000000000000000  0.0000000000000000
  0.0000000000000000  0.0000000000000000  0.0000000000000000
  0.0000000000000000  0.0000000000000000  0.0000000000000000
  0.0000000000000000  0.0000000000000000  0.0000000000000000
  0.0000000000000000  0.0000000000000000  0.0000000000000000
  0.0000000000000000  0.0000000000000000  0.0000000000000000
  0.0000000000000000  0.0000000000000000  0.0000000000000000
  0.0000000000000000  0.0000000000000000  0.0000000000000000
  0.0000000000000000  0.0000000000000000  0.0000000000000000
  0.0000000000000000  0.0000000000000000  0.0000000000000000
  0.0000000000000000  0.0000000000000000  0.0000000000000000
  0.0000000000000000  0.0000000000000000  0.0000000000000000
  0.0000000000000000  0.0000000000000000  0.0000000000000000
  0.0000000000000000  0.0000000000000000  0.0000000000000000
  0.0000000000000000  0.0000000000000000  0.0000000000000000
  0.0000000000000000  0.0000000000000000  0.0000000000000000
  0.0000000000000000  0.0000000000000000  0.0000000000000000
  0.0000000000000000  0.0000000000000000  0.0000000000000000
  0.0000000000000000  0.0000000000000000  0.0000000000000000
  0.0000000000000000  0.0000000000000000  0.0000000000000000
  0.0000000000000000  0.0000000000000000  0.0000000000000000
  0.0000000000000000  0.0000000000000000  0.0000000000000000
  0.0000000000000000  0.0000000000000000  0.0000000000000000
  0.0000000000000000  0.0000000000000000  0.0000000000000000
  0.0000000000000000  0.0000000000000000  0.0000000000000000
  0.0000000000000000  0.0000000000000000  0.0000000000000000
  0.0000000000000000  0.0000000000000000  0.0000000000000000
  0.0000000000000000  0.0000000000000000  0.0000000000000000
  0.0000000000000000  0.0000000000000000  0.0000000000000000
  0.0000000000000000  0.0000000000000000  0.0000000000000000
  0.0000000000000000  0.0000000000000000  0.0000000000000000
