C  N  H  Pb I                           
   1.0000000000000000     
     8.9515839677080429    0.0000000000000000    0.0000000000000000
     0.0000000000000000    8.9515839677080429    0.0000000000000000
     0.0000000000000000    0.0000000000000000    6.3289724258144924
  C               N               H               Pb              I             
     2     4    10     2     6
Direct
     0.5024462162499219    0.5056099292892995    0.5694957246164165
     0.9977537393067664    0.0064030788728857    0.5716500945625782
     0.5915411800446790    0.5832278736979930    0.4782013356875510
     0.4135530732656250    0.4021566794210187    0.4709926233195034
     0.1013509559442625    0.9034033460323272    0.4725057956271002
     0.9057019674158369    0.0870363948646329    0.4730655132242916
     0.4980812875257072    0.4991226487736995    0.7313680255079547
     0.6587464380937291    0.6535913076587505    0.5692150461363070
     0.6039344819920487    0.5992930354603772    0.3123843306133764
     0.3949536200515382    0.3947096315351502    0.3203655959772220
     0.3418974257064207    0.3384549299973187    0.5692401868367725
     0.9957168997134360    0.9978799869695649    0.7455678401620389
     0.1622550881898164    0.8403907018596826    0.5559595222844038
     0.1031136548821294    0.8979997827836854    0.3191081601604608
     0.9011530888798944    0.1050253281843325    0.3230928617502258
     0.8405783788458621    0.1658759253075459    0.5540518392808806
     0.0021694402075383    0.5056208385839085    0.9971199922716991
     0.5042330725344542    0.0017561844749707    0.0014077904067520
     0.0052227729114946    0.5021835626615712    0.4828765118180485
     0.4991915579998363    0.0080027102242894    0.4859326735982137
     0.2144092885329130    0.2183407238317727    0.9818753079362494
     0.2825497641176113    0.7145769658165619    0.9940587760023192
     0.7217554871514693    0.2762318910495907    0.9872046544685915
     0.7788426835535702    0.7852156781927491    0.9820545887879391

  0.00000000E+00  0.00000000E+00  0.00000000E+00
  0.00000000E+00  0.00000000E+00  0.00000000E+00
  0.00000000E+00  0.00000000E+00  0.00000000E+00
  0.00000000E+00  0.00000000E+00  0.00000000E+00
  0.00000000E+00  0.00000000E+00  0.00000000E+00
  0.00000000E+00  0.00000000E+00  0.00000000E+00
  0.00000000E+00  0.00000000E+00  0.00000000E+00
  0.00000000E+00  0.00000000E+00  0.00000000E+00
  0.00000000E+00  0.00000000E+00  0.00000000E+00
  0.00000000E+00  0.00000000E+00  0.00000000E+00
  0.00000000E+00  0.00000000E+00  0.00000000E+00
  0.00000000E+00  0.00000000E+00  0.00000000E+00
  0.00000000E+00  0.00000000E+00  0.00000000E+00
  0.00000000E+00  0.00000000E+00  0.00000000E+00
  0.00000000E+00  0.00000000E+00  0.00000000E+00
  0.00000000E+00  0.00000000E+00  0.00000000E+00
  0.00000000E+00  0.00000000E+00  0.00000000E+00
  0.00000000E+00  0.00000000E+00  0.00000000E+00
  0.00000000E+00  0.00000000E+00  0.00000000E+00
  0.00000000E+00  0.00000000E+00  0.00000000E+00
  0.00000000E+00  0.00000000E+00  0.00000000E+00
  0.00000000E+00  0.00000000E+00  0.00000000E+00
  0.00000000E+00  0.00000000E+00  0.00000000E+00
  0.00000000E+00  0.00000000E+00  0.00000000E+00
