C  N  H  Pb I 
 1.0000000000000000
     8.9515839677080429    0.0000000000000000    0.0000000000000000
     0.0000000000000000    8.9515839677080429    0.0000000000000000
     0.0000000000000000    0.0000000000000000    6.3289724258144924
 C   N   H   Pb  I  
   2   4  10   2   6
Direct
  0.5024462162499229  0.5056099292892972  0.5694957246164178
  0.9977537393067659  0.0064030788728871  0.5716500945625793
  0.5915411800446781  0.5832278736979901  0.4782013356875491
  0.4135530732656273  0.4021566794210175  0.4709926233195006
  0.1013509559442634  0.9034033460323246  0.4725057956271013
  0.9057019674158402  0.0870363948646298  0.4730655132242911
  0.4980812875257104  0.4991226487736982  0.7313680255079567
  0.6587464380937325  0.6535913076587536  0.5692150461363079
  0.6039344819920487  0.5992930354603742  0.3123843306133799
  0.3949536200515405  0.3947096315351484  0.3203655959772190
  0.3418974257064226  0.3384549299973179  0.5692401868367707
  0.9957168997134334  0.9978799869695653  0.7455678401620360
  0.1622550881898189  0.8403907018596819  0.5559595222844036
  0.1031136548821301  0.8979997827836848  0.3191081601604587
  0.9011530888798936  0.1050253281843358  0.3230928617502287
  0.8405783788458586  0.1658759253075429  0.5540518392808804
  0.0021694402075372  0.5056208385839085  0.9971199922717006
  0.5042330725344550  0.0017561844749692  0.0014077904067512
  0.0052227729114956  0.5021835626615733  0.4828765118180462
  0.4991915579998371  0.0080027102242869  0.4859326735982130
  0.2144092885329109  0.2183407238317703  0.9818753079362528
  0.2825497641176111  0.7145769658165589  0.9940587760023178
  0.7217554871514690  0.2762318910495881  0.9872046544685902
  0.7788426835535717  0.7852156781927465  0.9820545887879421
Cartesian
  0.0000000000000000  0.0000000000000000  0.0000000000000000
  0.0000000000000000  0.0000000000000000  0.0000000000000000
  0.0000000000000000  0.0000000000000000  0.0000000000000000
  0.0000000000000000  0.0000000000000000  0.0000000000000000
  0.0000000000000000  0.0000000000000000  0.0000000000000000
  0.0000000000000000  0.0000000000000000  0.0000000000000000
  0.0000000000000000  0.0000000000000000  0.0000000000000000
  0.0000000000000000  0.0000000000000000  0.0000000000000000
  0.0000000000000000  0.0000000000000000  0.0000000000000000
  0.0000000000000000  0.0000000000000000  0.0000000000000000
  0.0000000000000000  0.0000000000000000  0.0000000000000000
  0.0000000000000000  0.0000000000000000  0.0000000000000000
  0.0000000000000000  0.0000000000000000  0.0000000000000000
  0.0000000000000000  0.0000000000000000  0.0000000000000000
  0.0000000000000000  0.0000000000000000  0.0000000000000000
  0.0000000000000000  0.0000000000000000  0.0000000000000000
  0.0000000000000000  0.0000000000000000  0.0000000000000000
  0.0000000000000000  0.0000000000000000  0.0000000000000000
  0.0000000000000000  0.0000000000000000  0.0000000000000000
  0.0000000000000000  0.0000000000000000  0.0000000000000000
  0.0000000000000000  0.0000000000000000  0.0000000000000000
  0.0000000000000000  0.0000000000000000  0.0000000000000000
  0.0000000000000000  0.0000000000000000  0.0000000000000000
  0.0000000000000000  0.0000000000000000  0.0000000000000000
