C  N  H  Pb I                           
   1.0000000000000000     
     8.9520242539998982   -0.0385663226133179   -0.0306105537444501
    -0.0385663226133179    8.8658794247477637    0.0663317973746841
    -0.0216423541673084    0.0468980817309563    6.3814833871765781
  C               N               H               Pb              I             
     2     4    10     2     6
Direct
     0.5000018554397698    0.5000022537173052    0.5710180843918664
     0.0000007410375673    0.9999987646105950    0.5710173459562427
     0.5923581034953997    0.5923585163879750    0.4765803103999318
     0.4076407503633774    0.4076411399921014    0.4765811169345113
     0.0923596624104022    0.9076399465760616    0.4765807909973105
     0.9076407520067917    0.0923588334847736    0.4765810251555322
     0.5000002811686741    0.5000006754111794    0.7434031870421904
     0.6592043223743005    0.6592047228670168    0.5661117567204812
     0.6020540182597998    0.6020543629609065    0.3166118097023158
     0.3979460835827382    0.3979464056777431    0.3166130108747680
     0.3407963330843771    0.3407967026589489    0.5661133888189624
     0.0000003891983269    0.9999991386351894    0.7434028011510989
     0.1592037642541229    0.8407958108961822    0.5661101690442578
     0.1020541224786768    0.8979456517450188    0.3166108718828013
     0.8979457520127525    0.1020539951781174    0.3166116306627345
     0.8407959940430487    0.1592035362748234    0.5661129987487641
     0.9952808645094748    0.5045912668462478    0.9872165082997100
     0.4981230048051017    0.9986714248279185    0.9941407354244873
     0.9964464466021781    0.4967075181071792    0.4914377638579808
     0.5037380042546786    0.9990716351237054    0.4939392282675996
     0.2165320977229399    0.2192601462408845    0.9949567512328912
     0.2830367790480679    0.7173963025246906    0.9959843407975271
     0.7195466791750036    0.2842835870527338    0.9896660398041632
     0.7781893078376783    0.7794127555140378    0.9866808314904958

  0.00000000E+00  0.00000000E+00  0.00000000E+00
  0.00000000E+00  0.00000000E+00  0.00000000E+00
  0.00000000E+00  0.00000000E+00  0.00000000E+00
  0.00000000E+00  0.00000000E+00  0.00000000E+00
  0.00000000E+00  0.00000000E+00  0.00000000E+00
  0.00000000E+00  0.00000000E+00  0.00000000E+00
  0.00000000E+00  0.00000000E+00  0.00000000E+00
  0.00000000E+00  0.00000000E+00  0.00000000E+00
  0.00000000E+00  0.00000000E+00  0.00000000E+00
  0.00000000E+00  0.00000000E+00  0.00000000E+00
  0.00000000E+00  0.00000000E+00  0.00000000E+00
  0.00000000E+00  0.00000000E+00  0.00000000E+00
  0.00000000E+00  0.00000000E+00  0.00000000E+00
  0.00000000E+00  0.00000000E+00  0.00000000E+00
  0.00000000E+00  0.00000000E+00  0.00000000E+00
  0.00000000E+00  0.00000000E+00  0.00000000E+00
  0.00000000E+00  0.00000000E+00  0.00000000E+00
  0.00000000E+00  0.00000000E+00  0.00000000E+00
  0.00000000E+00  0.00000000E+00  0.00000000E+00
  0.00000000E+00  0.00000000E+00  0.00000000E+00
  0.00000000E+00  0.00000000E+00  0.00000000E+00
  0.00000000E+00  0.00000000E+00  0.00000000E+00
  0.00000000E+00  0.00000000E+00  0.00000000E+00
  0.00000000E+00  0.00000000E+00  0.00000000E+00
