C  N  H  Pb I 
 1.0000000000000000
     8.9520242539998982   -0.0385663226133179   -0.0306105537444501
    -0.0385663226133179    8.8658794247477637    0.0663317973746841
    -0.0216423541673084    0.0468980817309563    6.3814833871765781
 C   N   H   Pb  I  
   2   4  10   2   6
Direct
  0.5000018554397699  0.5000022537173052  0.5710180843918636
  0.0000007410375673  0.9999987646105948  0.5710173459562398
  0.5923581034953975  0.5923585163879727  0.4765803103999292
  0.4076407503633792  0.4076411399921031  0.4765811169345087
  0.0923596624104001  0.9076399465760633  0.4765807909973080
  0.9076407520067941  0.0923588334847715  0.4765810251555295
  0.5000002811686741  0.5000006754111794  0.7434031870421923
  0.6592043223742975  0.6592047228670135  0.5661117567204834
  0.6020540182598020  0.6020543629609085  0.3166118097023156
  0.3979460835827361  0.3979464056777410  0.3166130108747678
  0.3407963330843803  0.3407967026589520  0.5661133888189644
  0.0000003891983269  0.9999991386351892  0.7434028011511008
  0.1592037642541199  0.8407958108961853  0.5661101690442600
  0.1020541224786791  0.8979456517450164  0.3166108718828011
  0.8979457520127502  0.1020539951781196  0.3166116306627341
  0.8407959940430518  0.1592035362748205  0.5661129987487662
  0.9952808645094765  0.5045912668462471  0.9872165082997094
  0.4981230048051045  0.9986714248279193  0.9941407354244869
  0.9964464466021795  0.4967075181071776  0.4914377638579781
  0.5037380042546793  0.9990716351237077  0.4939392282675997
  0.2165320977229382  0.2192601462408856  0.9949567512328925
  0.2830367790480685  0.7173963025246879  0.9959843407975284
  0.7195466791750043  0.2842835870527365  0.9896660398041655
  0.7781893078376776  0.7794127555140359  0.9866808314904950
Cartesian
  0.0000000000000000  0.0000000000000000  0.0000000000000000
  0.0000000000000000  0.0000000000000000  0.0000000000000000
  0.0000000000000000  0.0000000000000000  0.0000000000000000
  0.0000000000000000  0.0000000000000000  0.0000000000000000
  0.0000000000000000  0.0000000000000000  0.0000000000000000
  0.0000000000000000  0.0000000000000000  0.0000000000000000
  0.0000000000000000  0.0000000000000000  0.0000000000000000
  0.0000000000000000  0.0000000000000000  0.0000000000000000
  0.0000000000000000  0.0000000000000000  0.0000000000000000
  0.0000000000000000  0.0000000000000000  0.0000000000000000
  0.0000000000000000  0.0000000000000000  0.0000000000000000
  0.0000000000000000  0.0000000000000000  0.0000000000000000
  0.0000000000000000  0.0000000000000000  0.0000000000000000
  0.0000000000000000  0.0000000000000000  0.0000000000000000
  0.0000000000000000  0.0000000000000000  0.0000000000000000
  0.0000000000000000  0.0000000000000000  0.0000000000000000
  0.0000000000000000  0.0000000000000000  0.0000000000000000
  0.0000000000000000  0.0000000000000000  0.0000000000000000
  0.0000000000000000  0.0000000000000000  0.0000000000000000
  0.0000000000000000  0.0000000000000000  0.0000000000000000
  0.0000000000000000  0.0000000000000000  0.0000000000000000
  0.0000000000000000  0.0000000000000000  0.0000000000000000
  0.0000000000000000  0.0000000000000000  0.0000000000000000
  0.0000000000000000  0.0000000000000000  0.0000000000000000
