C  N  H  Pb I                           
   1.0000000000000000     
     9.0193899931757802    0.0000000000000000    0.0000000000000000
     0.0000000000000000    8.7777678445653162    0.0000000000000000
     0.0000000000000000    0.0000000000000000   12.7961868062944486
  C               N               H               Pb              I             
     4     8    20     4    12
Direct
     0.5033213485522907    0.0384289008363297    0.2442022348724606
     0.0229848640248633    0.4518769114817118    0.7538561253052123
     0.9862167387478422    0.5313524470474320    0.2490799416979002
     0.4929434183386334    0.9584206368647585    0.7399738840346544
     0.5775208882721401    0.9388699840005685    0.1882576507969205
     0.0849949046712553    0.5676900238567555    0.6843268812795174
     0.1274614220924306    0.5840374077502162    0.2433871499041231
     0.6279956917368565    0.9255133901406793    0.7364531281853601
     0.3688772740471009    0.0785409703419475    0.2435374452307428
     0.8584168082006869    0.4314432869365561    0.7443651065976908
     0.9242558123252778    0.4168185402255915    0.1833177396688868
     0.4298579997853196    0.0502710485340074    0.6880674069198989
     0.5769679964315060    0.1074665276669080    0.2989733805343704
     0.0836079855260436    0.4008758822207596    0.8146468074562918
     0.9271734441876447    0.6008175897183321    0.3071063307614565
     0.4187407075394347    0.9027143423486095    0.8080419449902863
     0.6804707036411060    0.9149399591608116    0.1983610947899663
     0.1794699952513383    0.5958378467969965    0.7042638523858926
     0.1678768861992381    0.6718669549751795    0.2873835605330015
     0.6619412140207785    0.8457457644571917    0.7981802498573458
     0.5119156488610841    0.8766338426475855    0.1320416771882691
     0.0149786949922870    0.6328645318245805    0.6324699434486050
     0.2052452634579183    0.5433917609873049    0.1910638747252165
     0.7118558510136310    0.9674905808043945    0.6920577436264281
     0.3041294209095255    0.0280369378218523    0.1844623463351098
     0.7928596394906720    0.4665782763743778    0.6822574052628241
     0.9825405121748076    0.3931073507119862    0.1194375640264838
     0.5041214345493614    0.1150974404073395    0.6224456052600189
     0.3340221111996868    0.1560950025893888    0.2951339696373907
     0.8316347929278862    0.3372876265391440    0.7966051076042149
     0.8293721324504162    0.4131066337325109    0.1964875557905614
     0.3161319591940668    0.0838595391026544    0.6972064982295052
     0.5063903883630161    0.4880221393376800    0.9819382998697463
     0.9931278450247447    0.0237187932541048    0.4937792301448098
     0.9849499407984084    0.0034645503979505    0.9847895801423618
     0.4973782882966091    0.5126543179483249    0.4917111841927877
     0.7956294196065699    0.7101984425115617    0.5134438848320286
     0.9468587967030402    0.9790508082810874    0.2347280152777742
     0.6986299029066956    0.1933635138474585    0.9593459882357109
     0.2024180541201375    0.2973909009994742    0.0028552747035420
     0.2035825832642288    0.3034317298786533    0.4608403244414205
     0.2935955020239618    0.8030432475993692    0.4536007936960544
     0.7900483022616882    0.7021737348617663    0.9525788441469771
     0.7082125449637999    0.2103060111445743    0.5005774415339985
     0.4576528344252537    0.4862513454980188    0.7359324071273434
     0.0495432121485067    0.9927648542275236    0.7424290198337005
     0.2821914494317497    0.7807423081342222    0.0031945601731991
     0.5701805006869520    0.4947254716294154    0.2321526287521891

  0.00000000E+00  0.00000000E+00  0.00000000E+00
  0.00000000E+00  0.00000000E+00  0.00000000E+00
  0.00000000E+00  0.00000000E+00  0.00000000E+00
  0.00000000E+00  0.00000000E+00  0.00000000E+00
  0.00000000E+00  0.00000000E+00  0.00000000E+00
  0.00000000E+00  0.00000000E+00  0.00000000E+00
  0.00000000E+00  0.00000000E+00  0.00000000E+00
  0.00000000E+00  0.00000000E+00  0.00000000E+00
  0.00000000E+00  0.00000000E+00  0.00000000E+00
  0.00000000E+00  0.00000000E+00  0.00000000E+00
  0.00000000E+00  0.00000000E+00  0.00000000E+00
  0.00000000E+00  0.00000000E+00  0.00000000E+00
  0.00000000E+00  0.00000000E+00  0.00000000E+00
  0.00000000E+00  0.00000000E+00  0.00000000E+00
  0.00000000E+00  0.00000000E+00  0.00000000E+00
  0.00000000E+00  0.00000000E+00  0.00000000E+00
  0.00000000E+00  0.00000000E+00  0.00000000E+00
  0.00000000E+00  0.00000000E+00  0.00000000E+00
  0.00000000E+00  0.00000000E+00  0.00000000E+00
  0.00000000E+00  0.00000000E+00  0.00000000E+00
  0.00000000E+00  0.00000000E+00  0.00000000E+00
  0.00000000E+00  0.00000000E+00  0.00000000E+00
  0.00000000E+00  0.00000000E+00  0.00000000E+00
  0.00000000E+00  0.00000000E+00  0.00000000E+00
  0.00000000E+00  0.00000000E+00  0.00000000E+00
  0.00000000E+00  0.00000000E+00  0.00000000E+00
  0.00000000E+00  0.00000000E+00  0.00000000E+00
  0.00000000E+00  0.00000000E+00  0.00000000E+00
  0.00000000E+00  0.00000000E+00  0.00000000E+00
  0.00000000E+00  0.00000000E+00  0.00000000E+00
  0.00000000E+00  0.00000000E+00  0.00000000E+00
  0.00000000E+00  0.00000000E+00  0.00000000E+00
  0.00000000E+00  0.00000000E+00  0.00000000E+00
  0.00000000E+00  0.00000000E+00  0.00000000E+00
  0.00000000E+00  0.00000000E+00  0.00000000E+00
  0.00000000E+00  0.00000000E+00  0.00000000E+00
  0.00000000E+00  0.00000000E+00  0.00000000E+00
  0.00000000E+00  0.00000000E+00  0.00000000E+00
  0.00000000E+00  0.00000000E+00  0.00000000E+00
  0.00000000E+00  0.00000000E+00  0.00000000E+00
  0.00000000E+00  0.00000000E+00  0.00000000E+00
  0.00000000E+00  0.00000000E+00  0.00000000E+00
  0.00000000E+00  0.00000000E+00  0.00000000E+00
  0.00000000E+00  0.00000000E+00  0.00000000E+00
  0.00000000E+00  0.00000000E+00  0.00000000E+00
  0.00000000E+00  0.00000000E+00  0.00000000E+00
  0.00000000E+00  0.00000000E+00  0.00000000E+00
  0.00000000E+00  0.00000000E+00  0.00000000E+00
