C  N  H  Pb I 
 1.0000000000000000
     9.0193899931757802    0.0000000000000000    0.0000000000000000
     0.0000000000000000    8.7777678445653162    0.0000000000000000
     0.0000000000000000    0.0000000000000000   12.7961868062944486
 C   N   H   Pb  I  
   4   8  20   4  12
Direct
  0.5033213485522909  0.0384289008363314  0.2442022348724621
  0.0229848640248628  0.4518769114817136  0.7538561253052143
  0.9862167387478427  0.5313524470474316  0.2490799416979001
  0.4929434183386363  0.9584206368647583  0.7399738840346577
  0.5775208882721389  0.9388699840005678  0.1882576507969211
  0.0849949046712534  0.5676900238567534  0.6843268812795156
  0.1274614220924273  0.5840374077502194  0.2433871499041221
  0.6279956917368541  0.9255133901406829  0.7364531281853637
  0.3688772740470987  0.0785409703419452  0.2435374452307409
  0.8584168082006870  0.4314432869365538  0.7443651065976935
  0.9242558123252770  0.4168185402255885  0.1833177396688871
  0.4298579997853194  0.0502710485340061  0.6880674069198979
  0.5769679964315061  0.1074665276669068  0.2989733805343699
  0.0836079855260402  0.4008758822207569  0.8146468074562891
  0.9271734441876446  0.6008175897183334  0.3071063307614530
  0.4187407075394324  0.9027143423486088  0.8080419449902881
  0.6804707036411085  0.9149399591608098  0.1983610947899672
  0.1794699952513396  0.5958378467969947  0.7042638523858954
  0.1678768861992364  0.6718669549751775  0.2873835605330009
  0.6619412140207803  0.8457457644571947  0.7981802498573474
  0.5119156488610856  0.8766338426475886  0.1320416771882673
  0.0149786949922875  0.6328645318245789  0.6324699434486019
  0.2052452634579174  0.5433917609873055  0.1910638747252155
  0.7118558510136279  0.9674905808043913  0.6920577436264257
  0.3041294209095274  0.0280369378218509  0.1844623463351105
  0.7928596394906712  0.4665782763743772  0.6822574052628240
  0.9825405121748075  0.3931073507119837  0.1194375640264809
  0.5041214345493579  0.1150974404073395  0.6224456052600194
  0.3340221111996855  0.1560950025893899  0.2951339696373941
  0.8316347929278892  0.3372876265391451  0.7966051076042160
  0.8293721324504141  0.4131066337325139  0.1964875557905628
  0.3161319591940674  0.0838595391026544  0.6972064982295056
  0.5063903883630176  0.4880221393376777  0.9819382998697433
  0.9931278450247436  0.0237187932541072  0.4937792301448077
  0.9849499407984049  0.0034645503979512  0.9847895801423638
  0.4973782882966107  0.5126543179483229  0.4917111841927883
  0.7956294196065673  0.7101984425115602  0.5134438848320274
  0.9468587967030395  0.9790508082810897  0.2347280152777763
  0.6986299029066924  0.1933635138474561  0.9593459882357113
  0.2024180541201341  0.2973909009994707  0.0028552747035414
  0.2035825832642265  0.3034317298786537  0.4608403244414214
  0.2935955020239613  0.8030432475993674  0.4536007936960525
  0.7900483022616900  0.7021737348617633  0.9525788441469795
  0.7082125449638034  0.2103060111445762  0.5005774415340020
  0.4576528344252503  0.4862513454980202  0.7359324071273409
  0.0495432121485073  0.9927648542275226  0.7424290198336982
  0.2821914494317529  0.7807423081342211  0.0031945601731981
  0.5701805006869499  0.4947254716294144  0.2321526287521919
Cartesian
  0.0000000000000000  0.0000000000000000  0.0000000000000000
  0.0000000000000000  0.0000000000000000  0.0000000000000000
  0.0000000000000000  0.0000000000000000  0.0000000000000000
  0.0000000000000000  0.0000000000000000  0.0000000000000000
  0.0000000000000000  0.0000000000000000  0.0000000000000000
  0.0000000000000000  0.0000000000000000  0.0000000000000000
  0.0000000000000000  0.0000000000000000  0.0000000000000000
  0.0000000000000000  0.0000000000000000  0.0000000000000000
  0.0000000000000000  0.0000000000000000  0.0000000000000000
  0.0000000000000000  0.0000000000000000  0.0000000000000000
  0.0000000000000000  0.0000000000000000  0.0000000000000000
  0.0000000000000000  0.0000000000000000  0.0000000000000000
  0.0000000000000000  0.0000000000000000  0.0000000000000000
  0.0000000000000000  0.0000000000000000  0.0000000000000000
  0.0000000000000000  0.0000000000000000  0.0000000000000000
  0.0000000000000000  0.0000000000000000  0.0000000000000000
  0.0000000000000000  0.0000000000000000  0.0000000000000000
  0.0000000000000000  0.0000000000000000  0.0000000000000000
  0.0000000000000000  0.0000000000000000  0.0000000000000000
  0.0000000000000000  0.0000000000000000  0.0000000000000000
  0.0000000000000000  0.0000000000000000  0.0000000000000000
  0.0000000000000000  0.0000000000000000  0.0000000000000000
  0.0000000000000000  0.0000000000000000  0.0000000000000000
  0.0000000000000000  0.0000000000000000  0.0000000000000000
  0.0000000000000000  0.0000000000000000  0.0000000000000000
  0.0000000000000000  0.0000000000000000  0.0000000000000000
  0.0000000000000000  0.0000000000000000  0.0000000000000000
  0.0000000000000000  0.0000000000000000  0.0000000000000000
  0.0000000000000000  0.0000000000000000  0.0000000000000000
  0.0000000000000000  0.0000000000000000  0.0000000000000000
  0.0000000000000000  0.0000000000000000  0.0000000000000000
  0.0000000000000000  0.0000000000000000  0.0000000000000000
  0.0000000000000000  0.0000000000000000  0.0000000000000000
  0.0000000000000000  0.0000000000000000  0.0000000000000000
  0.0000000000000000  0.0000000000000000  0.0000000000000000
  0.0000000000000000  0.0000000000000000  0.0000000000000000
  0.0000000000000000  0.0000000000000000  0.0000000000000000
  0.0000000000000000  0.0000000000000000  0.0000000000000000
  0.0000000000000000  0.0000000000000000  0.0000000000000000
  0.0000000000000000  0.0000000000000000  0.0000000000000000
  0.0000000000000000  0.0000000000000000  0.0000000000000000
  0.0000000000000000  0.0000000000000000  0.0000000000000000
  0.0000000000000000  0.0000000000000000  0.0000000000000000
  0.0000000000000000  0.0000000000000000  0.0000000000000000
  0.0000000000000000  0.0000000000000000  0.0000000000000000
  0.0000000000000000  0.0000000000000000  0.0000000000000000
  0.0000000000000000  0.0000000000000000  0.0000000000000000
  0.0000000000000000  0.0000000000000000  0.0000000000000000
