C  N  H  Pb I                           
   1.0000000000000000     
     8.8741520616286405    0.0164571011366073    0.0414031946892107
     0.0164571011366073    8.8345791488791363    0.0060896201391002
     0.0292729955362007    0.0043054992371275    6.3978621921076693
  C               N               H               Pb              I             
     2     4    10     2     6
Direct
     0.4983311273089086    0.4979392070534061    0.5726002312530625
     0.0008170363598197    0.9930583804278612    0.5710599186180900
     0.5931171893206937    0.5946044924336107    0.4737081011545712
     0.4079361957873502    0.4060136203284088    0.4760307610107475
     0.1079498890428923    0.9321080117606613    0.4601540776765702
     0.8885260341226129    0.0772911647616894    0.4951435945264606
     0.5033373903499978    0.4994863568482302    0.7439401434591844
     0.6597642796445840    0.6580170537411618    0.5633906849676151
     0.5989614616644729    0.6013975216892931    0.3137697521643332
     0.3971426319739848    0.3980200704218220    0.3147334974140392
     0.3403902798965674    0.3422614398297483    0.5686744681271350
     0.9973487759245643    0.9673729031448204    0.7433511390675562
     0.1841923172183897    0.8658211019874287    0.5373953676499141
     0.1221888428329549    0.9492380918305869    0.3020268003050006
     0.8813584937901027    0.1048997119364472    0.3393822560838657
     0.8143138055881280    0.1149284398750794    0.5961492512962465
     0.0008585507716248    0.5004361770012977    0.9918445000682752
     0.5011188224674825    0.0005592582742935    0.9956147481352602
     0.0006517185777568    0.5013848725991821    0.4939579015643432
     0.4980975120996121    0.0014143707095684    0.4926361865433933
     0.2196776716502811    0.2188961105633211    0.9921928938572648
     0.2788903288870586    0.7203278578213386    0.9924749120916161
     0.7178065002856897    0.2806077653347216    0.9890799858112089
     0.7811971426169251    0.7821117296202331    0.9889947814737639

  0.00000000E+00  0.00000000E+00  0.00000000E+00
  0.00000000E+00  0.00000000E+00  0.00000000E+00
  0.00000000E+00  0.00000000E+00  0.00000000E+00
  0.00000000E+00  0.00000000E+00  0.00000000E+00
  0.00000000E+00  0.00000000E+00  0.00000000E+00
  0.00000000E+00  0.00000000E+00  0.00000000E+00
  0.00000000E+00  0.00000000E+00  0.00000000E+00
  0.00000000E+00  0.00000000E+00  0.00000000E+00
  0.00000000E+00  0.00000000E+00  0.00000000E+00
  0.00000000E+00  0.00000000E+00  0.00000000E+00
  0.00000000E+00  0.00000000E+00  0.00000000E+00
  0.00000000E+00  0.00000000E+00  0.00000000E+00
  0.00000000E+00  0.00000000E+00  0.00000000E+00
  0.00000000E+00  0.00000000E+00  0.00000000E+00
  0.00000000E+00  0.00000000E+00  0.00000000E+00
  0.00000000E+00  0.00000000E+00  0.00000000E+00
  0.00000000E+00  0.00000000E+00  0.00000000E+00
  0.00000000E+00  0.00000000E+00  0.00000000E+00
  0.00000000E+00  0.00000000E+00  0.00000000E+00
  0.00000000E+00  0.00000000E+00  0.00000000E+00
  0.00000000E+00  0.00000000E+00  0.00000000E+00
  0.00000000E+00  0.00000000E+00  0.00000000E+00
  0.00000000E+00  0.00000000E+00  0.00000000E+00
  0.00000000E+00  0.00000000E+00  0.00000000E+00
