C  N  H  Pb I 
 1.0000000000000000
     8.8741520616286405    0.0164571011366073    0.0414031946892107
     0.0164571011366073    8.8345791488791363    0.0060896201391002
     0.0292729955362007    0.0043054992371275    6.3978621921076693
 C   N   H   Pb  I  
   2   4  10   2   6
Direct
  0.4983311273089059  0.4979392070534066  0.5726002312530646
  0.0008170363598215  0.9930583804278615  0.5710599186180882
  0.5931171893206922  0.5946044924336079  0.4737081011545687
  0.4079361957873515  0.4060136203284120  0.4760307610107450
  0.1079498890428944  0.9321080117606607  0.4601540776765737
  0.8885260341226111  0.0772911647616910  0.4951435945264575
  0.5033373903499959  0.4994863568482280  0.7439401434591810
  0.6597642796445844  0.6580170537411648  0.5633906849676177
  0.5989614616644756  0.6013975216892944  0.3137697521643364
  0.3971426319739834  0.3980200704218199  0.3147334974140416
  0.3403902798965693  0.3422614398297490  0.5686744681271382
  0.9973487759245678  0.9673729031448220  0.7433511390675555
  0.1841923172183872  0.8658211019874311  0.5373953676499168
  0.1221888428329540  0.9492380918305851  0.3020268003050016
  0.8813584937900997  0.1048997119364444  0.3393822560838655
  0.8143138055881304  0.1149284398750759  0.5961492512962486
  0.0008585507716228  0.5004361770012966  0.9918445000682782
  0.5011188224674794  0.0005592582742911  0.9956147481352596
  0.0006517185777595  0.5013848725991801  0.4939579015643418
  0.4980975120996087  0.0014143707095712  0.4926361865433964
  0.2196776716502807  0.2188961105633194  0.9921928938572668
  0.2788903288870581  0.7203278578213362  0.9924749120916134
  0.7178065002856892  0.2806077653347203  0.9890799858112083
  0.7811971426169237  0.7821117296202330  0.9889947814737654
Cartesian
  0.0000000000000000  0.0000000000000000  0.0000000000000000
  0.0000000000000000  0.0000000000000000  0.0000000000000000
  0.0000000000000000  0.0000000000000000  0.0000000000000000
  0.0000000000000000  0.0000000000000000  0.0000000000000000
  0.0000000000000000  0.0000000000000000  0.0000000000000000
  0.0000000000000000  0.0000000000000000  0.0000000000000000
  0.0000000000000000  0.0000000000000000  0.0000000000000000
  0.0000000000000000  0.0000000000000000  0.0000000000000000
  0.0000000000000000  0.0000000000000000  0.0000000000000000
  0.0000000000000000  0.0000000000000000  0.0000000000000000
  0.0000000000000000  0.0000000000000000  0.0000000000000000
  0.0000000000000000  0.0000000000000000  0.0000000000000000
  0.0000000000000000  0.0000000000000000  0.0000000000000000
  0.0000000000000000  0.0000000000000000  0.0000000000000000
  0.0000000000000000  0.0000000000000000  0.0000000000000000
  0.0000000000000000  0.0000000000000000  0.0000000000000000
  0.0000000000000000  0.0000000000000000  0.0000000000000000
  0.0000000000000000  0.0000000000000000  0.0000000000000000
  0.0000000000000000  0.0000000000000000  0.0000000000000000
  0.0000000000000000  0.0000000000000000  0.0000000000000000
  0.0000000000000000  0.0000000000000000  0.0000000000000000
  0.0000000000000000  0.0000000000000000  0.0000000000000000
  0.0000000000000000  0.0000000000000000  0.0000000000000000
  0.0000000000000000  0.0000000000000000  0.0000000000000000
