C  N  H  Pb I                           
   1.0000000000000000     
     8.8903868093963965   -0.0421343144488190   -0.0367902938629898
    -0.0410055703103512    8.8052882059151933    0.0806690056440661
    -0.0521959326834168    0.1175988798038905   12.5539792953000493
  C               N               H               Pb              I             
     4     8    20     4    12
Direct
     0.5079545620594885    0.0406959883747646    0.2475946235704427
     0.0079545554343809    0.4593040156808073    0.7475946208954554
     0.9920454334685047    0.5406959860585872    0.2475946299923706
     0.4920454478785175    0.9593040127881096    0.7475946256013870
     0.5705946771768495    0.9354362274290722    0.1897252141182122
     0.0705946740239369    0.5645637727658510    0.6897252201605895
     0.1310336582348199    0.5838994807281068    0.2399588818968326
     0.6310336640152769    0.9161005167449332    0.7399588856927721
     0.3689663406760957    0.0838994856595292    0.2399588837149906
     0.8689663414621833    0.4161005194902572    0.7399588873068410
     0.9294053217315223    0.4354362199708675    0.1897252216917167
     0.4294053329446612    0.0645637684645806    0.6897252229388684
     0.5763163080256462    0.0964013618091926    0.3070350010383294
     0.0763163041439370    0.4035986538439502    0.8070350065760294
     0.9236836942065167    0.5964013535599975    0.3070350101048547
     0.4236837047439721    0.9035986570811900    0.8070350168177995
     0.6816203964682259    0.9153350004290033    0.1981420696355372
     0.1816203953774504    0.5846650008662735    0.6981420678013563
     0.1727440398663802    0.6618424652955213    0.2915835922463330
     0.6727440483713281    0.8381575300147404    0.7915835946568777
     0.5137159496301180    0.8799864858485265    0.1317994637689637
     0.0137159530701183    0.6200135182310191    0.6317994618654623
     0.2027680669080070    0.5368550561063330    0.1875867459194609
     0.7027680811919126    0.9631449364772280    0.6875867437071861
     0.2972319239003340    0.0368550498131768    0.1875867509889702
     0.7972319185576211    0.4631449498156996    0.6875867489999621
     0.9862840415021594    0.3799864786952014    0.1317994707683496
     0.4862840485959765    0.1200135117898071    0.6317994631872494
     0.3272559576570444    0.1618424731988952    0.2915835925839971
     0.8272559591671822    0.3381575261065066    0.7915835908767335
     0.8183796010724720    0.4153349919539693    0.1981420818729518
     0.3183796102733396    0.0846649986020438    0.6981420736952373
     0.5032511734276355    0.4909345854808222    0.9806859726190424
     0.0003850930814977    0.0132719642810599    0.4814324836800097
     0.9999605536104568    0.9899894986888000    0.9785458665612694
     0.4983584780956818    0.5134710787206700    0.4816356687956471
     0.7972774878065252    0.7099867834785130    0.5028873378424450
     0.9572857841054656    0.9967819326609941    0.2321806110710156
     0.7032431440936548    0.1951563041487319    0.9587701345776267
     0.2051616759334252    0.2921276694420527    0.0042532759055049
     0.2092761597857020    0.3045995411668159    0.4623337289260405
     0.2953180774026478    0.8049984808934028    0.4629165991338198
     0.7971885122169695    0.6978461140032479    0.9600843438528557
     0.7007489817996557    0.2106578793344411    0.5026993626042042
     0.4615665232131150    0.5012062071229053    0.7332956891020217
     0.0410714088567445    0.0062766375807257    0.7317902640472482
     0.2960414678170977    0.7904828895853271    0.0019925854161897
     0.5395744647171128    0.4942907305850923    0.2321968325742603

  0.00000000E+00  0.00000000E+00  0.00000000E+00
  0.00000000E+00  0.00000000E+00  0.00000000E+00
  0.00000000E+00  0.00000000E+00  0.00000000E+00
  0.00000000E+00  0.00000000E+00  0.00000000E+00
  0.00000000E+00  0.00000000E+00  0.00000000E+00
  0.00000000E+00  0.00000000E+00  0.00000000E+00
  0.00000000E+00  0.00000000E+00  0.00000000E+00
  0.00000000E+00  0.00000000E+00  0.00000000E+00
  0.00000000E+00  0.00000000E+00  0.00000000E+00
  0.00000000E+00  0.00000000E+00  0.00000000E+00
  0.00000000E+00  0.00000000E+00  0.00000000E+00
  0.00000000E+00  0.00000000E+00  0.00000000E+00
  0.00000000E+00  0.00000000E+00  0.00000000E+00
  0.00000000E+00  0.00000000E+00  0.00000000E+00
  0.00000000E+00  0.00000000E+00  0.00000000E+00
  0.00000000E+00  0.00000000E+00  0.00000000E+00
  0.00000000E+00  0.00000000E+00  0.00000000E+00
  0.00000000E+00  0.00000000E+00  0.00000000E+00
  0.00000000E+00  0.00000000E+00  0.00000000E+00
  0.00000000E+00  0.00000000E+00  0.00000000E+00
  0.00000000E+00  0.00000000E+00  0.00000000E+00
  0.00000000E+00  0.00000000E+00  0.00000000E+00
  0.00000000E+00  0.00000000E+00  0.00000000E+00
  0.00000000E+00  0.00000000E+00  0.00000000E+00
  0.00000000E+00  0.00000000E+00  0.00000000E+00
  0.00000000E+00  0.00000000E+00  0.00000000E+00
  0.00000000E+00  0.00000000E+00  0.00000000E+00
  0.00000000E+00  0.00000000E+00  0.00000000E+00
  0.00000000E+00  0.00000000E+00  0.00000000E+00
  0.00000000E+00  0.00000000E+00  0.00000000E+00
  0.00000000E+00  0.00000000E+00  0.00000000E+00
  0.00000000E+00  0.00000000E+00  0.00000000E+00
  0.00000000E+00  0.00000000E+00  0.00000000E+00
  0.00000000E+00  0.00000000E+00  0.00000000E+00
  0.00000000E+00  0.00000000E+00  0.00000000E+00
  0.00000000E+00  0.00000000E+00  0.00000000E+00
  0.00000000E+00  0.00000000E+00  0.00000000E+00
  0.00000000E+00  0.00000000E+00  0.00000000E+00
  0.00000000E+00  0.00000000E+00  0.00000000E+00
  0.00000000E+00  0.00000000E+00  0.00000000E+00
  0.00000000E+00  0.00000000E+00  0.00000000E+00
  0.00000000E+00  0.00000000E+00  0.00000000E+00
  0.00000000E+00  0.00000000E+00  0.00000000E+00
  0.00000000E+00  0.00000000E+00  0.00000000E+00
  0.00000000E+00  0.00000000E+00  0.00000000E+00
  0.00000000E+00  0.00000000E+00  0.00000000E+00
  0.00000000E+00  0.00000000E+00  0.00000000E+00
  0.00000000E+00  0.00000000E+00  0.00000000E+00
