C  N  H  Pb I 
 1.0000000000000000
     8.8903868093963965   -0.0421343144488190   -0.0367902938629898
    -0.0410055703103512    8.8052882059151933    0.0806690056440661
    -0.0521959326834168    0.1175988798038905   12.5539792953000493
 C   N   H   Pb  I  
   4   8  20   4  12
Direct
  0.5079545620594851  0.0406959883747638  0.2475946235704423
  0.0079545554343785  0.4593040156808086  0.7475946208954545
  0.9920454334685080  0.5406959860585880  0.2475946299923701
  0.4920454478785191  0.9593040127881087  0.7475946256013861
  0.5705946771768488  0.9354362274290711  0.1897252141182125
  0.0705946740239366  0.5645637727658526  0.6897252201605892
  0.1310336582348178  0.5838994807281047  0.2399588818968307
  0.6310336640152745  0.9161005167449352  0.7399588856927698
  0.3689663406760989  0.0838994856595276  0.2399588837149887
  0.8689663414621858  0.4161005194902583  0.7399588873068388
  0.9294053217315232  0.4354362199708706  0.1897252216917171
  0.4294053329446625  0.0645637684645837  0.6897252229388682
  0.5763163080256496  0.0964013618091920  0.3070350010383274
  0.0763163041439384  0.4035986538439507  0.8070350065760274
  0.9236836942065133  0.5964013535599980  0.3070350101048527
  0.4236837047439705  0.9035986570811894  0.8070350168177975
  0.6816203964682236  0.9153350004290040  0.1981420696355345
  0.1816203953774488  0.5846650008662723  0.6981420678013573
  0.1727440398663828  0.6618424652955209  0.2915835922463332
  0.6727440483713267  0.8381575300147408  0.7915835946568777
  0.5137159496301194  0.8799864858485239  0.1317994637689628
  0.0137159530701184  0.6200135182310216  0.6317994618654601
  0.2027680669080062  0.5368550561063355  0.1875867459194599
  0.7027680811919139  0.9631449364772252  0.6875867437071861
  0.2972319239003343  0.0368550498131778  0.1875867509889692
  0.7972319185576198  0.4631449498156998  0.6875867489999619
  0.9862840415021581  0.3799864786951984  0.1317994707683489
  0.4862840485959767  0.1200135117898101  0.6317994631872472
  0.3272559576570426  0.1618424731988938  0.2915835925839974
  0.8272559591671836  0.3381575261065086  0.7915835908767332
  0.8183796010724744  0.4153349919539673  0.1981420818729492
  0.3183796102733418  0.0846649986020452  0.6981420736952384
  0.5032511734276383  0.4909345854808250  0.9806859726190416
  0.0003850930815001  0.0132719642810587  0.4814324836800127
  0.9999605536104562  0.9899894986888023  0.9785458665612677
  0.4983584780956798  0.5134710787206700  0.4816356687956503
  0.7972774878065240  0.7099867834785114  0.5028873378424453
  0.9572857841054641  0.9967819326609966  0.2321806110710130
  0.7032431440936521  0.1951563041487306  0.9587701345776292
  0.2051616759334256  0.2921276694420500  0.0042532759055020
  0.2092761597857009  0.3045995411668185  0.4623337289260412
  0.2953180774026493  0.8049984808934034  0.4629165991338225
  0.7971885122169710  0.6978461140032508  0.9600843438528565
  0.7007489817996562  0.2106578793344395  0.5026993626042074
  0.4615665232131139  0.5012062071229031  0.7332956891020238
  0.0410714088567453  0.0062766375807262  0.7317902640472500
  0.2960414678171010  0.7904828895853281  0.0019925854161888
  0.5395744647171119  0.4942907305850940  0.2321968325742570
Cartesian
  0.0000000000000000  0.0000000000000000  0.0000000000000000
  0.0000000000000000  0.0000000000000000  0.0000000000000000
  0.0000000000000000  0.0000000000000000  0.0000000000000000
  0.0000000000000000  0.0000000000000000  0.0000000000000000
  0.0000000000000000  0.0000000000000000  0.0000000000000000
  0.0000000000000000  0.0000000000000000  0.0000000000000000
  0.0000000000000000  0.0000000000000000  0.0000000000000000
  0.0000000000000000  0.0000000000000000  0.0000000000000000
  0.0000000000000000  0.0000000000000000  0.0000000000000000
  0.0000000000000000  0.0000000000000000  0.0000000000000000
  0.0000000000000000  0.0000000000000000  0.0000000000000000
  0.0000000000000000  0.0000000000000000  0.0000000000000000
  0.0000000000000000  0.0000000000000000  0.0000000000000000
  0.0000000000000000  0.0000000000000000  0.0000000000000000
  0.0000000000000000  0.0000000000000000  0.0000000000000000
  0.0000000000000000  0.0000000000000000  0.0000000000000000
  0.0000000000000000  0.0000000000000000  0.0000000000000000
  0.0000000000000000  0.0000000000000000  0.0000000000000000
  0.0000000000000000  0.0000000000000000  0.0000000000000000
  0.0000000000000000  0.0000000000000000  0.0000000000000000
  0.0000000000000000  0.0000000000000000  0.0000000000000000
  0.0000000000000000  0.0000000000000000  0.0000000000000000
  0.0000000000000000  0.0000000000000000  0.0000000000000000
  0.0000000000000000  0.0000000000000000  0.0000000000000000
  0.0000000000000000  0.0000000000000000  0.0000000000000000
  0.0000000000000000  0.0000000000000000  0.0000000000000000
  0.0000000000000000  0.0000000000000000  0.0000000000000000
  0.0000000000000000  0.0000000000000000  0.0000000000000000
  0.0000000000000000  0.0000000000000000  0.0000000000000000
  0.0000000000000000  0.0000000000000000  0.0000000000000000
  0.0000000000000000  0.0000000000000000  0.0000000000000000
  0.0000000000000000  0.0000000000000000  0.0000000000000000
  0.0000000000000000  0.0000000000000000  0.0000000000000000
  0.0000000000000000  0.0000000000000000  0.0000000000000000
  0.0000000000000000  0.0000000000000000  0.0000000000000000
  0.0000000000000000  0.0000000000000000  0.0000000000000000
  0.0000000000000000  0.0000000000000000  0.0000000000000000
  0.0000000000000000  0.0000000000000000  0.0000000000000000
  0.0000000000000000  0.0000000000000000  0.0000000000000000
  0.0000000000000000  0.0000000000000000  0.0000000000000000
  0.0000000000000000  0.0000000000000000  0.0000000000000000
  0.0000000000000000  0.0000000000000000  0.0000000000000000
  0.0000000000000000  0.0000000000000000  0.0000000000000000
  0.0000000000000000  0.0000000000000000  0.0000000000000000
  0.0000000000000000  0.0000000000000000  0.0000000000000000
  0.0000000000000000  0.0000000000000000  0.0000000000000000
  0.0000000000000000  0.0000000000000000  0.0000000000000000
  0.0000000000000000  0.0000000000000000  0.0000000000000000
