C  N  H  Pb I 
 1.0000000000000000
     9.1928245505469377    0.0797879444679978   -0.0639218193193115
     0.0776504900957890    8.6652107831136984    0.0571488446007362
    -0.0906885655933484    0.0833113046761293   12.8284655560884246
 C   N   H   Pb  I  
   4   8  20   4  12
Direct
  0.5079545620594851  0.0406959883747638  0.2475946235704422
  0.0079545554343785  0.4593040156808086  0.7475946208954547
  0.9920454334685080  0.5406959860585878  0.2475946299923702
  0.4920454478785191  0.9593040127881086  0.7475946256013861
  0.5705946771768488  0.9354362274290701  0.1897252141182125
  0.0705946740239366  0.5645637727658522  0.6897252201605891
  0.1310336582348178  0.5838994807281044  0.2399588818968307
  0.6310336640152745  0.9161005167449351  0.7399588856927698
  0.3689663406760990  0.0838994856595276  0.2399588837149888
  0.8689663414621859  0.4161005194902583  0.7399588873068389
  0.9294053217315232  0.4354362199708705  0.1897252216917171
  0.4294053329446625  0.0645637684645837  0.6897252229388684
  0.5763163080256496  0.0964013618091920  0.3070350010383274
  0.0763163041439384  0.4035986538439505  0.8070350065760274
  0.9236836942065133  0.5964013535599979  0.3070350101048527
  0.4236837047439705  0.9035986570811895  0.8070350168177975
  0.6816203964682236  0.9153350004290041  0.1981420696355346
  0.1816203953774488  0.5846650008662724  0.6981420678013575
  0.1727440398663828  0.6618424652955207  0.2915835922463332
  0.6727440483713267  0.8381575300147405  0.7915835946568776
  0.5137159496301194  0.8799864858485236  0.1317994637689628
  0.0137159530701184  0.6200135182310211  0.6317994618654603
  0.2027680669080062  0.5368550561063354  0.1875867459194599
  0.7027680811919139  0.9631449364772252  0.6875867437071862
  0.2972319239003343  0.0368550498131778  0.1875867509889693
  0.7972319185576199  0.4631449498156998  0.6875867489999621
  0.9862840415021580  0.3799864786951982  0.1317994707683488
  0.4862840485959766  0.1200135117898101  0.6317994631872472
  0.3272559576570426  0.1618424731988937  0.2915835925839974
  0.8272559591671836  0.3381575261065085  0.7915835908767336
  0.8183796010724745  0.4153349919539672  0.1981420818729491
  0.3183796102733418  0.0846649986020452  0.6981420736952382
  0.5063680064205348  0.4927087617277170  0.9849412561594995
  0.0021505530781978  0.0160659276898427  0.4775730105138909
  0.9995061953762726  0.9880922442536593  0.9825828884072377
  0.4973283319848028  0.5140310177017582  0.4822512335897852
  0.7957945562021270  0.7101939606334433  0.5012527847067780
  0.9642028006045027  0.9935166489322046  0.2341253823405237
  0.7084283980189716  0.1989320609508331  0.9623777815154426
  0.2020517029201584  0.2907139607102368  0.0034831890814238
  0.2082344036822522  0.3033787077162360  0.4622790512004682
  0.2917150314421602  0.8030403932335808  0.4629388690883465
  0.7889381801031552  0.6944322772938113  0.9648657759301865
  0.7032174577504187  0.2114929376577538  0.5034213798173294
  0.4606130501567002  0.5045824320868258  0.7315236026322112
  0.0362962252920426  0.0050451067144852  0.7331880366132961
  0.2970456391009471  0.7875117485526507  0.0048070307856249
  0.5419556322907918  0.4961099868908032  0.2319135214099569
Cartesian
  0.0000000000000000  0.0000000000000000  0.0000000000000000
  0.0000000000000000  0.0000000000000000  0.0000000000000000
  0.0000000000000000  0.0000000000000000  0.0000000000000000
  0.0000000000000000  0.0000000000000000  0.0000000000000000
  0.0000000000000000  0.0000000000000000  0.0000000000000000
  0.0000000000000000  0.0000000000000000  0.0000000000000000
  0.0000000000000000  0.0000000000000000  0.0000000000000000
  0.0000000000000000  0.0000000000000000  0.0000000000000000
  0.0000000000000000  0.0000000000000000  0.0000000000000000
  0.0000000000000000  0.0000000000000000  0.0000000000000000
  0.0000000000000000  0.0000000000000000  0.0000000000000000
  0.0000000000000000  0.0000000000000000  0.0000000000000000
  0.0000000000000000  0.0000000000000000  0.0000000000000000
  0.0000000000000000  0.0000000000000000  0.0000000000000000
  0.0000000000000000  0.0000000000000000  0.0000000000000000
  0.0000000000000000  0.0000000000000000  0.0000000000000000
  0.0000000000000000  0.0000000000000000  0.0000000000000000
  0.0000000000000000  0.0000000000000000  0.0000000000000000
  0.0000000000000000  0.0000000000000000  0.0000000000000000
  0.0000000000000000  0.0000000000000000  0.0000000000000000
  0.0000000000000000  0.0000000000000000  0.0000000000000000
  0.0000000000000000  0.0000000000000000  0.0000000000000000
  0.0000000000000000  0.0000000000000000  0.0000000000000000
  0.0000000000000000  0.0000000000000000  0.0000000000000000
  0.0000000000000000  0.0000000000000000  0.0000000000000000
  0.0000000000000000  0.0000000000000000  0.0000000000000000
  0.0000000000000000  0.0000000000000000  0.0000000000000000
  0.0000000000000000  0.0000000000000000  0.0000000000000000
  0.0000000000000000  0.0000000000000000  0.0000000000000000
  0.0000000000000000  0.0000000000000000  0.0000000000000000
  0.0000000000000000  0.0000000000000000  0.0000000000000000
  0.0000000000000000  0.0000000000000000  0.0000000000000000
  0.0000000000000000  0.0000000000000000  0.0000000000000000
  0.0000000000000000  0.0000000000000000  0.0000000000000000
  0.0000000000000000  0.0000000000000000  0.0000000000000000
  0.0000000000000000  0.0000000000000000  0.0000000000000000
  0.0000000000000000  0.0000000000000000  0.0000000000000000
  0.0000000000000000  0.0000000000000000  0.0000000000000000
  0.0000000000000000  0.0000000000000000  0.0000000000000000
  0.0000000000000000  0.0000000000000000  0.0000000000000000
  0.0000000000000000  0.0000000000000000  0.0000000000000000
  0.0000000000000000  0.0000000000000000  0.0000000000000000
  0.0000000000000000  0.0000000000000000  0.0000000000000000
  0.0000000000000000  0.0000000000000000  0.0000000000000000
  0.0000000000000000  0.0000000000000000  0.0000000000000000
  0.0000000000000000  0.0000000000000000  0.0000000000000000
  0.0000000000000000  0.0000000000000000  0.0000000000000000
  0.0000000000000000  0.0000000000000000  0.0000000000000000
