C  N  H  Pb I                           
   1.0000000000000000     
     9.0193899931757802    0.0000000000000000    0.0000000000000000
     0.0000000000000000    8.7777678445653162    0.0000000000000000
     0.0000000000000000    0.0000000000000000   12.7961868062944486
  C               N               H               Pb              I             
     4     8    20     4    12
Direct
     0.5109722873067781    0.0390974996212847    0.2464007783994475
     0.0098088048341509    0.4623176868483370    0.7477296905574562
     0.9917118524674251    0.5419342589672027    0.2468207456703695
     0.4922495462296368    0.9624342269807045    0.7489640619493727
     0.5641756913377307    0.9342021779122476    0.1837269024053469
     0.0594217407273376    0.5784021366494514    0.6934347101317044
     0.1307294511426704    0.5849428269601233    0.2389368859863481
     0.6311649477748702    0.9183168434783155    0.7434136499016404
     0.3728532411373706    0.0864695052879156    0.2469491973506592
     0.8785644710959133    0.3997516063288913    0.7361416025689564
     0.9299891460840968    0.4333556724611469    0.1913986897210407
     0.4291031174285678    0.0597252017810490    0.6851147420287731
     0.5870941402671974    0.0907159362989347    0.3028146353188390
     0.0828905116388654    0.4142199579203378    0.8075049009903026
     0.9224918549682144    0.6008302956852418    0.3042875639991180
     0.4244133285683347    0.9147861099641332    0.8118971089325839
     0.6751671118554228    0.9106787475869709    0.1858190025562507
     0.1661691171654311    0.6140097938785374    0.7047149838978370
     0.1716458690144691    0.6658310300013710    0.2887122069887553
     0.6733281612902928    0.8474271311696384    0.7994511944755658
     0.4996691649252867    0.8824608906728955    0.1282071554386306
     0.9976793266377797    0.6278412117301713    0.6354224379476747
     0.2032165158732013    0.5351079573584840    0.1883235989282142
     0.7024359949537455    0.9582630769140721    0.6880393199270358
     0.2943776310155215    0.0433494962453409    0.1978954370426393
     0.8030748765648426    0.4384433669030585    0.6831779259576010
     0.9877064180076047    0.3747785147236868    0.1353643399396205
     0.4854699529870672    0.1073244924182504    0.6237562840479214
     0.3390596919257760    0.1636979541293186    0.3018514248578867
     0.8461152750605194    0.3140415677771031    0.7852150792981334
     0.8188881135067660    0.4135304668813191    0.1996277968329423
     0.3181553250377789    0.0809184190490839    0.6927448734296675
     0.5023441722619779    0.4879288203356396    0.9810849892003191
     0.0023441785924945    0.0120711836670608    0.4810849868122489
     0.9976558244282359    0.9879288178551917    0.9810849914872719
     0.4976558298475950    0.5120711849063113    0.4810849885500943
     0.7958928941106862    0.7105293335369609    0.5032699314851357
     0.9606598229172718    0.9944623124655507    0.2320592544955247
     0.7060293635732506    0.1956508126848462    0.9614522052702341
     0.2041070863312058    0.2894707010478257    0.0032699320500740
     0.2060293779368507    0.3043491755398549    0.4614522129329686
     0.2939706246777973    0.8043491828284957    0.4614522154174097
     0.7939706408800902    0.6956508110307098    0.9614522100061293
     0.7041071043942750    0.2105293303375291    0.5032699287679776
     0.4606598128207438    0.5055376617516671    0.7320592563212429
     0.0393401777688851    0.0055376740307977    0.7320592521911493
     0.2958929104798855    0.7894706933117490    0.0032699289927791
     0.5393401671427824    0.4944623109760684    0.2320592517272502

  0.00000000E+00  0.00000000E+00  0.00000000E+00
  0.00000000E+00  0.00000000E+00  0.00000000E+00
  0.00000000E+00  0.00000000E+00  0.00000000E+00
  0.00000000E+00  0.00000000E+00  0.00000000E+00
  0.00000000E+00  0.00000000E+00  0.00000000E+00
  0.00000000E+00  0.00000000E+00  0.00000000E+00
  0.00000000E+00  0.00000000E+00  0.00000000E+00
  0.00000000E+00  0.00000000E+00  0.00000000E+00
  0.00000000E+00  0.00000000E+00  0.00000000E+00
  0.00000000E+00  0.00000000E+00  0.00000000E+00
  0.00000000E+00  0.00000000E+00  0.00000000E+00
  0.00000000E+00  0.00000000E+00  0.00000000E+00
  0.00000000E+00  0.00000000E+00  0.00000000E+00
  0.00000000E+00  0.00000000E+00  0.00000000E+00
  0.00000000E+00  0.00000000E+00  0.00000000E+00
  0.00000000E+00  0.00000000E+00  0.00000000E+00
  0.00000000E+00  0.00000000E+00  0.00000000E+00
  0.00000000E+00  0.00000000E+00  0.00000000E+00
  0.00000000E+00  0.00000000E+00  0.00000000E+00
  0.00000000E+00  0.00000000E+00  0.00000000E+00
  0.00000000E+00  0.00000000E+00  0.00000000E+00
  0.00000000E+00  0.00000000E+00  0.00000000E+00
  0.00000000E+00  0.00000000E+00  0.00000000E+00
  0.00000000E+00  0.00000000E+00  0.00000000E+00
  0.00000000E+00  0.00000000E+00  0.00000000E+00
  0.00000000E+00  0.00000000E+00  0.00000000E+00
  0.00000000E+00  0.00000000E+00  0.00000000E+00
  0.00000000E+00  0.00000000E+00  0.00000000E+00
  0.00000000E+00  0.00000000E+00  0.00000000E+00
  0.00000000E+00  0.00000000E+00  0.00000000E+00
  0.00000000E+00  0.00000000E+00  0.00000000E+00
  0.00000000E+00  0.00000000E+00  0.00000000E+00
  0.00000000E+00  0.00000000E+00  0.00000000E+00
  0.00000000E+00  0.00000000E+00  0.00000000E+00
  0.00000000E+00  0.00000000E+00  0.00000000E+00
  0.00000000E+00  0.00000000E+00  0.00000000E+00
  0.00000000E+00  0.00000000E+00  0.00000000E+00
  0.00000000E+00  0.00000000E+00  0.00000000E+00
  0.00000000E+00  0.00000000E+00  0.00000000E+00
  0.00000000E+00  0.00000000E+00  0.00000000E+00
  0.00000000E+00  0.00000000E+00  0.00000000E+00
  0.00000000E+00  0.00000000E+00  0.00000000E+00
  0.00000000E+00  0.00000000E+00  0.00000000E+00
  0.00000000E+00  0.00000000E+00  0.00000000E+00
  0.00000000E+00  0.00000000E+00  0.00000000E+00
  0.00000000E+00  0.00000000E+00  0.00000000E+00
  0.00000000E+00  0.00000000E+00  0.00000000E+00
  0.00000000E+00  0.00000000E+00  0.00000000E+00
