C  N  H  Pb I 
 1.0000000000000000
     9.0193899931757802    0.0000000000000000    0.0000000000000000
     0.0000000000000000    8.7777678445653162    0.0000000000000000
     0.0000000000000000    0.0000000000000000   12.7961868062944486
 C   N   H   Pb  I  
   4   8  20   4  12
Direct
  0.5109722873067778  0.0390974996212845  0.2464007783994440
  0.0098088048341474  0.4623176868483356  0.7477296905574585
  0.9917118524674229  0.5419342589672060  0.2468207456703707
  0.4922495462296395  0.9624342269807045  0.7489640619493724
  0.5641756913377320  0.9342021779122464  0.1837269024053503
  0.0594217407273408  0.5784021366494546  0.6934347101317022
  0.1307294511426709  0.5849428269601245  0.2389368859863465
  0.6311649477748673  0.9183168434783134  0.7434136499016389
  0.3728532411373672  0.0864695052879170  0.2469491973506618
  0.8785644710959161  0.3997516063288891  0.7361416025689576
  0.9299891460840967  0.4333556724611457  0.1913986897210433
  0.4291031174285713  0.0597252017810488  0.6851147420287725
  0.5870941402671939  0.0907159362989313  0.3028146353188356
  0.0828905116388629  0.4142199579203348  0.8075049009902999
  0.9224918549682174  0.6008302956852445  0.3042875639991152
  0.4244133285683313  0.9147861099641319  0.8118971089325868
  0.6751671118554199  0.9106787475869722  0.1858190025562542
  0.1661691171654296  0.6140097938785393  0.7047149838978387
  0.1716458690144658  0.6658310300013744  0.2887122069887583
  0.6733281612902897  0.8474271311696384  0.7994511944755663
  0.4996691649252840  0.8824608906728930  0.1282071554386315
  0.9976793266377775  0.6278412117301709  0.6354224379476758
  0.2032165158732041  0.5351079573584818  0.1883235989282150
  0.7024359949537440  0.9582630769140743  0.6880393199270353
  0.2943776310155245  0.0433494962453421  0.1978954370426411
  0.8030748765648427  0.4384433669030554  0.6831779259576021
  0.9877064180076068  0.3747785147236888  0.1353643399396176
  0.4854699529870654  0.1073244924182513  0.6237562840479226
  0.3390596919257742  0.1636979541293194  0.3018514248578881
  0.8461152750605209  0.3140415677771065  0.7852150792981354
  0.8188881135067634  0.4135304668813197  0.1996277968329389
  0.3181553250377794  0.0809184190490844  0.6927448734296664
  0.5023441722619808  0.4879288203356366  0.9810849892003165
  0.0023441785924915  0.0120711836670638  0.4810849868122521
  0.9976558244282330  0.9879288178551918  0.9810849914872694
  0.4976558298475982  0.5120711849063111  0.4810849885500975
  0.7958928941106866  0.7105293335369601  0.5032699314851331
  0.9606598229172731  0.9944623124655482  0.2320592544955259
  0.7060293635732524  0.1956508126848427  0.9614522052702348
  0.2041070863312036  0.2894707010478275  0.0032699320500760
  0.2060293779368493  0.3043491755398582  0.4614522129329701
  0.2939706246777947  0.8043491828284943  0.4614522154174112
  0.7939706408800884  0.6956508110307111  0.9614522100061302
  0.7041071043942746  0.2105293303375289  0.5032699287679750
  0.4606598128207440  0.5055376617516696  0.7320592563212425
  0.0393401777688836  0.0055376740307987  0.7320592521911489
  0.2958929104798871  0.7894706933117497  0.0032699289927811
  0.5393401671427811  0.4944623109760681  0.2320592517272514
Cartesian
  0.0000000000000000  0.0000000000000000  0.0000000000000000
  0.0000000000000000  0.0000000000000000  0.0000000000000000
  0.0000000000000000  0.0000000000000000  0.0000000000000000
  0.0000000000000000  0.0000000000000000  0.0000000000000000
  0.0000000000000000  0.0000000000000000  0.0000000000000000
  0.0000000000000000  0.0000000000000000  0.0000000000000000
  0.0000000000000000  0.0000000000000000  0.0000000000000000
  0.0000000000000000  0.0000000000000000  0.0000000000000000
  0.0000000000000000  0.0000000000000000  0.0000000000000000
  0.0000000000000000  0.0000000000000000  0.0000000000000000
  0.0000000000000000  0.0000000000000000  0.0000000000000000
  0.0000000000000000  0.0000000000000000  0.0000000000000000
  0.0000000000000000  0.0000000000000000  0.0000000000000000
  0.0000000000000000  0.0000000000000000  0.0000000000000000
  0.0000000000000000  0.0000000000000000  0.0000000000000000
  0.0000000000000000  0.0000000000000000  0.0000000000000000
  0.0000000000000000  0.0000000000000000  0.0000000000000000
  0.0000000000000000  0.0000000000000000  0.0000000000000000
  0.0000000000000000  0.0000000000000000  0.0000000000000000
  0.0000000000000000  0.0000000000000000  0.0000000000000000
  0.0000000000000000  0.0000000000000000  0.0000000000000000
  0.0000000000000000  0.0000000000000000  0.0000000000000000
  0.0000000000000000  0.0000000000000000  0.0000000000000000
  0.0000000000000000  0.0000000000000000  0.0000000000000000
  0.0000000000000000  0.0000000000000000  0.0000000000000000
  0.0000000000000000  0.0000000000000000  0.0000000000000000
  0.0000000000000000  0.0000000000000000  0.0000000000000000
  0.0000000000000000  0.0000000000000000  0.0000000000000000
  0.0000000000000000  0.0000000000000000  0.0000000000000000
  0.0000000000000000  0.0000000000000000  0.0000000000000000
  0.0000000000000000  0.0000000000000000  0.0000000000000000
  0.0000000000000000  0.0000000000000000  0.0000000000000000
  0.0000000000000000  0.0000000000000000  0.0000000000000000
  0.0000000000000000  0.0000000000000000  0.0000000000000000
  0.0000000000000000  0.0000000000000000  0.0000000000000000
  0.0000000000000000  0.0000000000000000  0.0000000000000000
  0.0000000000000000  0.0000000000000000  0.0000000000000000
  0.0000000000000000  0.0000000000000000  0.0000000000000000
  0.0000000000000000  0.0000000000000000  0.0000000000000000
  0.0000000000000000  0.0000000000000000  0.0000000000000000
  0.0000000000000000  0.0000000000000000  0.0000000000000000
  0.0000000000000000  0.0000000000000000  0.0000000000000000
  0.0000000000000000  0.0000000000000000  0.0000000000000000
  0.0000000000000000  0.0000000000000000  0.0000000000000000
  0.0000000000000000  0.0000000000000000  0.0000000000000000
  0.0000000000000000  0.0000000000000000  0.0000000000000000
  0.0000000000000000  0.0000000000000000  0.0000000000000000
  0.0000000000000000  0.0000000000000000  0.0000000000000000
