C  N  H  Pb I                           
   1.0000000000000000     
     8.9889487101663637    0.0431315797229048    0.0073216951003579
     0.0431315797229048    8.8630772663221702   -0.0376221969017969
     0.0051766041147074   -0.0265997445423060    6.4530229171405784
  C               N               H               Pb              I             
     2     4    10     2     6
Direct
     0.5000018554397698    0.5000022537173052    0.5710180843918664
     0.0000007410375673    0.9999987646105950    0.5710173459562427
     0.5923581034953997    0.5923585163879750    0.4765803103999318
     0.4076407503633774    0.4076411399921014    0.4765811169345113
     0.0923596624104022    0.9076399465760616    0.4765807909973105
     0.9076407520067917    0.0923588334847736    0.4765810251555322
     0.5000002811686741    0.5000006754111794    0.7434031870421904
     0.6592043223743005    0.6592047228670168    0.5661117567204812
     0.6020540182597998    0.6020543629609065    0.3166118097023158
     0.3979460835827382    0.3979464056777431    0.3166130108747680
     0.3407963330843771    0.3407967026589489    0.5661133888189624
     0.0000003891983269    0.9999991386351894    0.7434028011510989
     0.1592037642541229    0.8407958108961822    0.5661101690442578
     0.1020541224786768    0.8979456517450188    0.3166108718828013
     0.8979457520127525    0.1020539951781174    0.3166116306627345
     0.8407959940430487    0.1592035362748234    0.5661129987487641
     0.9996551884109834    0.4992292867774921    0.9944689495542391
     0.5013749049435603    0.9990647485301096    0.9934150393607126
     0.9988122211322690    0.4996282099946114    0.4897656155608132
     0.4999090198557496    0.0016609151841678    0.4941079658237015
     0.2212539976626573    0.2166895099541861    0.9896230894643026
     0.2832741776588463    0.7186822811829359    0.9905565442950675
     0.7175406865408789    0.2811663495567203    0.9897935656810546
     0.7816455902836452    0.7786571237604250    0.9886532126533965

  0.00000000E+00  0.00000000E+00  0.00000000E+00
  0.00000000E+00  0.00000000E+00  0.00000000E+00
  0.00000000E+00  0.00000000E+00  0.00000000E+00
  0.00000000E+00  0.00000000E+00  0.00000000E+00
  0.00000000E+00  0.00000000E+00  0.00000000E+00
  0.00000000E+00  0.00000000E+00  0.00000000E+00
  0.00000000E+00  0.00000000E+00  0.00000000E+00
  0.00000000E+00  0.00000000E+00  0.00000000E+00
  0.00000000E+00  0.00000000E+00  0.00000000E+00
  0.00000000E+00  0.00000000E+00  0.00000000E+00
  0.00000000E+00  0.00000000E+00  0.00000000E+00
  0.00000000E+00  0.00000000E+00  0.00000000E+00
  0.00000000E+00  0.00000000E+00  0.00000000E+00
  0.00000000E+00  0.00000000E+00  0.00000000E+00
  0.00000000E+00  0.00000000E+00  0.00000000E+00
  0.00000000E+00  0.00000000E+00  0.00000000E+00
  0.00000000E+00  0.00000000E+00  0.00000000E+00
  0.00000000E+00  0.00000000E+00  0.00000000E+00
  0.00000000E+00  0.00000000E+00  0.00000000E+00
  0.00000000E+00  0.00000000E+00  0.00000000E+00
  0.00000000E+00  0.00000000E+00  0.00000000E+00
  0.00000000E+00  0.00000000E+00  0.00000000E+00
  0.00000000E+00  0.00000000E+00  0.00000000E+00
  0.00000000E+00  0.00000000E+00  0.00000000E+00
