C  N  H  Pb I 
 1.0000000000000000
     8.9889487101663637    0.0431315797229048    0.0073216951003579
     0.0431315797229048    8.8630772663221702   -0.0376221969017969
     0.0051766041147074   -0.0265997445423060    6.4530229171405784
 C   N   H   Pb  I  
   2   4  10   2   6
Direct
  0.5000018554397698  0.5000022537173052  0.5710180843918636
  0.0000007410375673  0.9999987646105949  0.5710173459562399
  0.5923581034953975  0.5923585163879725  0.4765803103999292
  0.4076407503633792  0.4076411399921031  0.4765811169345087
  0.0923596624104001  0.9076399465760633  0.4765807909973078
  0.9076407520067939  0.0923588334847715  0.4765810251555296
  0.5000002811686740  0.5000006754111794  0.7434031870421924
  0.6592043223742974  0.6592047228670139  0.5661117567204832
  0.6020540182598019  0.6020543629609086  0.3166118097023156
  0.3979460835827360  0.3979464056777410  0.3166130108747678
  0.3407963330843802  0.3407967026589520  0.5661133888189646
  0.0000003891983269  0.9999991386351896  0.7434028011511009
  0.1592037642541199  0.8407958108961852  0.5661101690442600
  0.1020541224786791  0.8979456517450165  0.3166108718828010
  0.8979457520127501  0.1020539951781196  0.3166116306627341
  0.8407959940430517  0.1592035362748205  0.5661129987487663
  0.9996551884109854  0.4992292867774896  0.9944689495542416
  0.5013749049435632  0.9990647485301110  0.9934150393607111
  0.9988122211322674  0.4996282099946108  0.4897656155608142
  0.4999090198557511  0.0016609151841694  0.4941079658237018
  0.2212539976626541  0.2166895099541870  0.9896230894643050
  0.2832741776588469  0.7186822811829355  0.9905565442950641
  0.7175406865408760  0.2811663495567213  0.9897935656810524
  0.7816455902836482  0.7786571237604234  0.9886532126533993
Cartesian
  0.0000000000000000  0.0000000000000000  0.0000000000000000
  0.0000000000000000  0.0000000000000000  0.0000000000000000
  0.0000000000000000  0.0000000000000000  0.0000000000000000
  0.0000000000000000  0.0000000000000000  0.0000000000000000
  0.0000000000000000  0.0000000000000000  0.0000000000000000
  0.0000000000000000  0.0000000000000000  0.0000000000000000
  0.0000000000000000  0.0000000000000000  0.0000000000000000
  0.0000000000000000  0.0000000000000000  0.0000000000000000
  0.0000000000000000  0.0000000000000000  0.0000000000000000
  0.0000000000000000  0.0000000000000000  0.0000000000000000
  0.0000000000000000  0.0000000000000000  0.0000000000000000
  0.0000000000000000  0.0000000000000000  0.0000000000000000
  0.0000000000000000  0.0000000000000000  0.0000000000000000
  0.0000000000000000  0.0000000000000000  0.0000000000000000
  0.0000000000000000  0.0000000000000000  0.0000000000000000
  0.0000000000000000  0.0000000000000000  0.0000000000000000
  0.0000000000000000  0.0000000000000000  0.0000000000000000
  0.0000000000000000  0.0000000000000000  0.0000000000000000
  0.0000000000000000  0.0000000000000000  0.0000000000000000
  0.0000000000000000  0.0000000000000000  0.0000000000000000
  0.0000000000000000  0.0000000000000000  0.0000000000000000
  0.0000000000000000  0.0000000000000000  0.0000000000000000
  0.0000000000000000  0.0000000000000000  0.0000000000000000
  0.0000000000000000  0.0000000000000000  0.0000000000000000
