C  N  H  Pb I                           
   1.0000000000000000     
     9.0193899931757802    0.0000000000000000    0.0000000000000000
     0.0000000000000000    8.7777678445653162    0.0000000000000000
     0.0000000000000000    0.0000000000000000   12.7961868062944486
  C               N               H               Pb              I             
     4     8    20     4    12
Direct
     0.5147477837471612    0.0383892075959054    0.2472560487320621
     0.0089949245580172    0.4567712070023049    0.7556111634627811
     0.9907718677161839    0.5312441293546613    0.2483236886358284
     0.4938296554225019    0.9573230795113261    0.7495398135402311
     0.5657896828151721    0.9386806214525336    0.1895514923080768
     0.0644562375375841    0.5682221858533580    0.6894311523857297
     0.1426286866916584    0.5892600056297610    0.2352279374665756
     0.6352383284723047    0.9156118520625611    0.7382315759367870
     0.3680333317376565    0.0867925633043996    0.2366166665174489
     0.8667632066710453    0.4204185360745001    0.7431654177901663
     0.9331234559831074    0.4350036169999782    0.1887056930866819
     0.4280380040531853    0.0589540691769201    0.6868194439604025
     0.5722183317388740    0.0971936102972393    0.3078720533572152
     0.0768287387498177    0.4068082400989894    0.8087667513925609
     0.9234678222694939    0.5868592982611034    0.3136713439605430
     0.4254702504694237    0.9011096308813293    0.8079018441761718
     0.6837329892332136    0.9153007676802147    0.2003264344729629
     0.1824024848065164    0.5840705088409806    0.6955385565268131
     0.1714769912866885    0.6737746622082241    0.2886241077999685
     0.6702674559494426    0.8357134158436921    0.7815478455740958
     0.5120646757456413    0.8748383840472869    0.1329137681131982
     0.0082477086214254    0.6139504090821930    0.6373631828603408
     0.2020112372865270    0.5326818939950400    0.1890480428274017
     0.6968266281846454    0.9556560655553525    0.6868254111472325
     0.2976599973337244    0.0360982958998761    0.1864691446861499
     0.7882667869968927    0.4583643612759047    0.6864669552796983
     0.9878188714100631    0.3843326122222379    0.1316374350842793
     0.4796749606091453    0.1195938156224088    0.6272841506423816
     0.3203734106361935    0.1624072440770945    0.2975080120708995
     0.8255508546297960    0.3375751908853317    0.7826424994086452
     0.8291815442436601    0.4141358058525455    0.1943182187355390
     0.3159226679685432    0.0813955239427173    0.7008813449819655
     0.5010265503714137    0.4868786015455555    0.9803178033275373
     0.0062574230563115    0.0130643805347930    0.4831892046305413
     0.9983034638576882    0.9859784465971089    0.9814218001330346
     0.5013753413013049    0.5192307591466303    0.4803435538071312
     0.7962341071463683    0.7049533357530819    0.5019017768814606
     0.9647078548000394    0.9884795754256004    0.2283405639752019
     0.7023146817890407    0.1938628430538927    0.9583121605957601
     0.2004116019176223    0.2947569128164957    0.0070528656165152
     0.2143156192222904    0.3079855924856076    0.4572430084716217
     0.3063414325081979    0.8143024238412906    0.4618502555868957
     0.7852618243501084    0.6928112974527281    0.9635036361937850
     0.7081551993160744    0.2063691270925929    0.5078352228020364
     0.4567105988708278    0.5071858645528522    0.7319495398134137
     0.0453847448424796    0.9972387350999341    0.7324182936335646
     0.2978485271678153    0.7972169566218952    0.0014373350978119
     0.5386414462547151    0.4884109927842246    0.2337460113788836

  0.00000000E+00  0.00000000E+00  0.00000000E+00
  0.00000000E+00  0.00000000E+00  0.00000000E+00
  0.00000000E+00  0.00000000E+00  0.00000000E+00
  0.00000000E+00  0.00000000E+00  0.00000000E+00
  0.00000000E+00  0.00000000E+00  0.00000000E+00
  0.00000000E+00  0.00000000E+00  0.00000000E+00
  0.00000000E+00  0.00000000E+00  0.00000000E+00
  0.00000000E+00  0.00000000E+00  0.00000000E+00
  0.00000000E+00  0.00000000E+00  0.00000000E+00
  0.00000000E+00  0.00000000E+00  0.00000000E+00
  0.00000000E+00  0.00000000E+00  0.00000000E+00
  0.00000000E+00  0.00000000E+00  0.00000000E+00
  0.00000000E+00  0.00000000E+00  0.00000000E+00
  0.00000000E+00  0.00000000E+00  0.00000000E+00
  0.00000000E+00  0.00000000E+00  0.00000000E+00
  0.00000000E+00  0.00000000E+00  0.00000000E+00
  0.00000000E+00  0.00000000E+00  0.00000000E+00
  0.00000000E+00  0.00000000E+00  0.00000000E+00
  0.00000000E+00  0.00000000E+00  0.00000000E+00
  0.00000000E+00  0.00000000E+00  0.00000000E+00
  0.00000000E+00  0.00000000E+00  0.00000000E+00
  0.00000000E+00  0.00000000E+00  0.00000000E+00
  0.00000000E+00  0.00000000E+00  0.00000000E+00
  0.00000000E+00  0.00000000E+00  0.00000000E+00
  0.00000000E+00  0.00000000E+00  0.00000000E+00
  0.00000000E+00  0.00000000E+00  0.00000000E+00
  0.00000000E+00  0.00000000E+00  0.00000000E+00
  0.00000000E+00  0.00000000E+00  0.00000000E+00
  0.00000000E+00  0.00000000E+00  0.00000000E+00
  0.00000000E+00  0.00000000E+00  0.00000000E+00
  0.00000000E+00  0.00000000E+00  0.00000000E+00
  0.00000000E+00  0.00000000E+00  0.00000000E+00
  0.00000000E+00  0.00000000E+00  0.00000000E+00
  0.00000000E+00  0.00000000E+00  0.00000000E+00
  0.00000000E+00  0.00000000E+00  0.00000000E+00
  0.00000000E+00  0.00000000E+00  0.00000000E+00
  0.00000000E+00  0.00000000E+00  0.00000000E+00
  0.00000000E+00  0.00000000E+00  0.00000000E+00
  0.00000000E+00  0.00000000E+00  0.00000000E+00
  0.00000000E+00  0.00000000E+00  0.00000000E+00
  0.00000000E+00  0.00000000E+00  0.00000000E+00
  0.00000000E+00  0.00000000E+00  0.00000000E+00
  0.00000000E+00  0.00000000E+00  0.00000000E+00
  0.00000000E+00  0.00000000E+00  0.00000000E+00
  0.00000000E+00  0.00000000E+00  0.00000000E+00
  0.00000000E+00  0.00000000E+00  0.00000000E+00
  0.00000000E+00  0.00000000E+00  0.00000000E+00
  0.00000000E+00  0.00000000E+00  0.00000000E+00
