C  N  H  Pb I 
 1.0000000000000000
     9.0193899931757802    0.0000000000000000    0.0000000000000000
     0.0000000000000000    8.7777678445653162    0.0000000000000000
     0.0000000000000000    0.0000000000000000   12.7961868062944486
 C   N   H   Pb  I  
   4   8  20   4  12
Direct
  0.5147477837471623  0.0383892075959080  0.2472560487320618
  0.0089949245580164  0.4567712070023076  0.7556111634627777
  0.9907718677161866  0.5312441293546589  0.2483236886358318
  0.4938296554225015  0.9573230795113256  0.7495398135402336
  0.5657896828151737  0.9386806214525368  0.1895514923080798
  0.0644562375375864  0.5682221858533592  0.6894311523857283
  0.1426286866916605  0.5892600056297630  0.2352279374665744
  0.6352383284723075  0.9156118520625636  0.7382315759367902
  0.3680333317376553  0.0867925633043967  0.2366166665174471
  0.8667632066710452  0.4204185360744977  0.7431654177901665
  0.9331234559831073  0.4350036169999780  0.1887056930866789
  0.4280380040531827  0.0589540691769209  0.6868194439603993
  0.5722183317388773  0.0971936102972374  0.3078720533572122
  0.0768287387498192  0.4068082400989919  0.8087667513925578
  0.9234678222694946  0.5868592982611045  0.3136713439605423
  0.4254702504694222  0.9011096308813270  0.8079018441761702
  0.6837329892332168  0.9153007676802144  0.2003264344729623
  0.1824024848065134  0.5840705088409783  0.6955385565268122
  0.1714769912866904  0.6737746622082254  0.2886241077999679
  0.6702674559494401  0.8357134158436936  0.7815478455740973
  0.5120646757456403  0.8748383840472863  0.1329137681131981
  0.0082477086214260  0.6139504090821926  0.6373631828603434
  0.2020112372865250  0.5326818939950420  0.1890480428274004
  0.6968266281846426  0.9556560655553522  0.6868254111472302
  0.2976599973337251  0.0360982958998783  0.1864691446861527
  0.7882667869968923  0.4583643612759041  0.6864669552797006
  0.9878188714100608  0.3843326122222393  0.1316374350842812
  0.4796749606091431  0.1195938156224079  0.6272841506423844
  0.3203734106361906  0.1624072440770930  0.2975080120708994
  0.8255508546297943  0.3375751908853343  0.7826424994086481
  0.8291815442436619  0.4141358058525462  0.1943182187355385
  0.3159226679685438  0.0813955239427160  0.7008813449819667
  0.5010265503714166  0.4868786015455567  0.9803178033275392
  0.0062574230563136  0.0130643805347963  0.4831892046305438
  0.9983034638576886  0.9859784465971110  0.9814218001330324
  0.5013753413013035  0.5192307591466301  0.4803435538071341
  0.7962341071463653  0.7049533357530837  0.5019017768814584
  0.9647078548000380  0.9884795754256007  0.2283405639752039
  0.7023146817890419  0.1938628430538931  0.9583121605957610
  0.2004116019176196  0.2947569128164955  0.0070528656165119
  0.2143156192222918  0.3079855924856104  0.4572430084716245
  0.3063414325081977  0.8143024238412924  0.4618502555868960
  0.7852618243501069  0.6928112974527277  0.9635036361937871
  0.7081551993160777  0.2063691270925926  0.5078352228020374
  0.4567105988708284  0.5071858645528534  0.7319495398134129
  0.0453847448424824  0.9972387350999374  0.7324182936335671
  0.2978485271678183  0.7972169566218982  0.0014373350978088
  0.5386414462547187  0.4884109927842232  0.2337460113788825
Cartesian
  0.0000000000000000  0.0000000000000000  0.0000000000000000
  0.0000000000000000  0.0000000000000000  0.0000000000000000
  0.0000000000000000  0.0000000000000000  0.0000000000000000
  0.0000000000000000  0.0000000000000000  0.0000000000000000
  0.0000000000000000  0.0000000000000000  0.0000000000000000
  0.0000000000000000  0.0000000000000000  0.0000000000000000
  0.0000000000000000  0.0000000000000000  0.0000000000000000
  0.0000000000000000  0.0000000000000000  0.0000000000000000
  0.0000000000000000  0.0000000000000000  0.0000000000000000
  0.0000000000000000  0.0000000000000000  0.0000000000000000
  0.0000000000000000  0.0000000000000000  0.0000000000000000
  0.0000000000000000  0.0000000000000000  0.0000000000000000
  0.0000000000000000  0.0000000000000000  0.0000000000000000
  0.0000000000000000  0.0000000000000000  0.0000000000000000
  0.0000000000000000  0.0000000000000000  0.0000000000000000
  0.0000000000000000  0.0000000000000000  0.0000000000000000
  0.0000000000000000  0.0000000000000000  0.0000000000000000
  0.0000000000000000  0.0000000000000000  0.0000000000000000
  0.0000000000000000  0.0000000000000000  0.0000000000000000
  0.0000000000000000  0.0000000000000000  0.0000000000000000
  0.0000000000000000  0.0000000000000000  0.0000000000000000
  0.0000000000000000  0.0000000000000000  0.0000000000000000
  0.0000000000000000  0.0000000000000000  0.0000000000000000
  0.0000000000000000  0.0000000000000000  0.0000000000000000
  0.0000000000000000  0.0000000000000000  0.0000000000000000
  0.0000000000000000  0.0000000000000000  0.0000000000000000
  0.0000000000000000  0.0000000000000000  0.0000000000000000
  0.0000000000000000  0.0000000000000000  0.0000000000000000
  0.0000000000000000  0.0000000000000000  0.0000000000000000
  0.0000000000000000  0.0000000000000000  0.0000000000000000
  0.0000000000000000  0.0000000000000000  0.0000000000000000
  0.0000000000000000  0.0000000000000000  0.0000000000000000
  0.0000000000000000  0.0000000000000000  0.0000000000000000
  0.0000000000000000  0.0000000000000000  0.0000000000000000
  0.0000000000000000  0.0000000000000000  0.0000000000000000
  0.0000000000000000  0.0000000000000000  0.0000000000000000
  0.0000000000000000  0.0000000000000000  0.0000000000000000
  0.0000000000000000  0.0000000000000000  0.0000000000000000
  0.0000000000000000  0.0000000000000000  0.0000000000000000
  0.0000000000000000  0.0000000000000000  0.0000000000000000
  0.0000000000000000  0.0000000000000000  0.0000000000000000
  0.0000000000000000  0.0000000000000000  0.0000000000000000
  0.0000000000000000  0.0000000000000000  0.0000000000000000
  0.0000000000000000  0.0000000000000000  0.0000000000000000
  0.0000000000000000  0.0000000000000000  0.0000000000000000
  0.0000000000000000  0.0000000000000000  0.0000000000000000
  0.0000000000000000  0.0000000000000000  0.0000000000000000
  0.0000000000000000  0.0000000000000000  0.0000000000000000
