C  N  H  Pb I                           
   1.0000000000000000     
     9.0193899931757802    0.0000000000000000    0.0000000000000000
     0.0000000000000000    8.7777678445653162    0.0000000000000000
     0.0000000000000000    0.0000000000000000   12.7961868062944486
  C               N               H               Pb              I             
     4     8    20     4    12
Direct
     0.5079545620594885    0.0406959883747646    0.2475946235704427
     0.0079545554343809    0.4593040156808073    0.7475946208954554
     0.9920454334685047    0.5406959860585872    0.2475946299923706
     0.4920454478785175    0.9593040127881096    0.7475946256013870
     0.5705946771768495    0.9354362274290722    0.1897252141182122
     0.0705946740239369    0.5645637727658510    0.6897252201605895
     0.1310336582348199    0.5838994807281068    0.2399588818968326
     0.6310336640152769    0.9161005167449332    0.7399588856927721
     0.3689663406760957    0.0838994856595292    0.2399588837149906
     0.8689663414621833    0.4161005194902572    0.7399588873068410
     0.9294053217315223    0.4354362199708675    0.1897252216917167
     0.4294053329446612    0.0645637684645806    0.6897252229388684
     0.5763163080256462    0.0964013618091926    0.3070350010383294
     0.0763163041439370    0.4035986538439502    0.8070350065760294
     0.9236836942065167    0.5964013535599975    0.3070350101048547
     0.4236837047439721    0.9035986570811900    0.8070350168177995
     0.6816203964682259    0.9153350004290033    0.1981420696355372
     0.1816203953774504    0.5846650008662735    0.6981420678013563
     0.1727440398663802    0.6618424652955213    0.2915835922463330
     0.6727440483713281    0.8381575300147404    0.7915835946568777
     0.5137159496301180    0.8799864858485265    0.1317994637689637
     0.0137159530701183    0.6200135182310191    0.6317994618654623
     0.2027680669080070    0.5368550561063330    0.1875867459194609
     0.7027680811919126    0.9631449364772280    0.6875867437071861
     0.2972319239003340    0.0368550498131768    0.1875867509889702
     0.7972319185576211    0.4631449498156996    0.6875867489999621
     0.9862840415021594    0.3799864786952014    0.1317994707683496
     0.4862840485959765    0.1200135117898071    0.6317994631872494
     0.3272559576570444    0.1618424731988952    0.2915835925839971
     0.8272559591671822    0.3381575261065066    0.7915835908767335
     0.8183796010724720    0.4153349919539693    0.1981420818729518
     0.3183796102733396    0.0846649986020438    0.6981420736952373
     0.5065045957018270    0.4847335919245666    0.9813911744112929
     0.0058393765000773    0.0102857996728929    0.4807875669229560
     0.9930422204176850    0.9870619257781428    0.9797028197380229
     0.4921748769159677    0.5090257989709386    0.4847856028840312
     0.7914039535384276    0.7094024925495432    0.5015109353859657
     0.9681024312406592    0.9968366066335008    0.2307145848915511
     0.7068787225854578    0.1993338570010508    0.9640863143711726
     0.2031431090256035    0.2874287674633607    0.0017069940597665
     0.2059757190834333    0.3054355573560130    0.4666613075193666
     0.2923065539446696    0.8126776738793282    0.4643322608583986
     0.7971812655248698    0.6906993052877723    0.9605732264796671
     0.7096341230984393    0.2105746324531523    0.5021985564758396
     0.4640556426062687    0.5107375868261954    0.7287914388306902
     0.0368399592583586    0.0024947365899877    0.7321588147416165
     0.2955593944673183    0.7856766896271594    0.0059510480404867
     0.5415670078494372    0.4951906045911940    0.2296056507083861

  0.00000000E+00  0.00000000E+00  0.00000000E+00
  0.00000000E+00  0.00000000E+00  0.00000000E+00
  0.00000000E+00  0.00000000E+00  0.00000000E+00
  0.00000000E+00  0.00000000E+00  0.00000000E+00
  0.00000000E+00  0.00000000E+00  0.00000000E+00
  0.00000000E+00  0.00000000E+00  0.00000000E+00
  0.00000000E+00  0.00000000E+00  0.00000000E+00
  0.00000000E+00  0.00000000E+00  0.00000000E+00
  0.00000000E+00  0.00000000E+00  0.00000000E+00
  0.00000000E+00  0.00000000E+00  0.00000000E+00
  0.00000000E+00  0.00000000E+00  0.00000000E+00
  0.00000000E+00  0.00000000E+00  0.00000000E+00
  0.00000000E+00  0.00000000E+00  0.00000000E+00
  0.00000000E+00  0.00000000E+00  0.00000000E+00
  0.00000000E+00  0.00000000E+00  0.00000000E+00
  0.00000000E+00  0.00000000E+00  0.00000000E+00
  0.00000000E+00  0.00000000E+00  0.00000000E+00
  0.00000000E+00  0.00000000E+00  0.00000000E+00
  0.00000000E+00  0.00000000E+00  0.00000000E+00
  0.00000000E+00  0.00000000E+00  0.00000000E+00
  0.00000000E+00  0.00000000E+00  0.00000000E+00
  0.00000000E+00  0.00000000E+00  0.00000000E+00
  0.00000000E+00  0.00000000E+00  0.00000000E+00
  0.00000000E+00  0.00000000E+00  0.00000000E+00
  0.00000000E+00  0.00000000E+00  0.00000000E+00
  0.00000000E+00  0.00000000E+00  0.00000000E+00
  0.00000000E+00  0.00000000E+00  0.00000000E+00
  0.00000000E+00  0.00000000E+00  0.00000000E+00
  0.00000000E+00  0.00000000E+00  0.00000000E+00
  0.00000000E+00  0.00000000E+00  0.00000000E+00
  0.00000000E+00  0.00000000E+00  0.00000000E+00
  0.00000000E+00  0.00000000E+00  0.00000000E+00
  0.00000000E+00  0.00000000E+00  0.00000000E+00
  0.00000000E+00  0.00000000E+00  0.00000000E+00
  0.00000000E+00  0.00000000E+00  0.00000000E+00
  0.00000000E+00  0.00000000E+00  0.00000000E+00
  0.00000000E+00  0.00000000E+00  0.00000000E+00
  0.00000000E+00  0.00000000E+00  0.00000000E+00
  0.00000000E+00  0.00000000E+00  0.00000000E+00
  0.00000000E+00  0.00000000E+00  0.00000000E+00
  0.00000000E+00  0.00000000E+00  0.00000000E+00
  0.00000000E+00  0.00000000E+00  0.00000000E+00
  0.00000000E+00  0.00000000E+00  0.00000000E+00
  0.00000000E+00  0.00000000E+00  0.00000000E+00
  0.00000000E+00  0.00000000E+00  0.00000000E+00
  0.00000000E+00  0.00000000E+00  0.00000000E+00
  0.00000000E+00  0.00000000E+00  0.00000000E+00
  0.00000000E+00  0.00000000E+00  0.00000000E+00
