C  N  H  Pb I 
 1.0000000000000000
     9.0193899931757802    0.0000000000000000    0.0000000000000000
     0.0000000000000000    8.7777678445653162    0.0000000000000000
     0.0000000000000000    0.0000000000000000   12.7961868062944486
 C   N   H   Pb  I  
   4   8  20   4  12
Direct
  0.5079545620594851  0.0406959883747638  0.2475946235704422
  0.0079545554343785  0.4593040156808086  0.7475946208954544
  0.9920454334685082  0.5406959860585880  0.2475946299923702
  0.4920454478785191  0.9593040127881087  0.7475946256013861
  0.5705946771768488  0.9354362274290704  0.1897252141182125
  0.0705946740239366  0.5645637727658527  0.6897252201605891
  0.1310336582348178  0.5838994807281044  0.2399588818968306
  0.6310336640152745  0.9161005167449353  0.7399588856927697
  0.3689663406760989  0.0838994856595276  0.2399588837149887
  0.8689663414621858  0.4161005194902583  0.7399588873068387
  0.9294053217315231  0.4354362199708706  0.1897252216917170
  0.4294053329446625  0.0645637684645837  0.6897252229388682
  0.5763163080256496  0.0964013618091920  0.3070350010383274
  0.0763163041439384  0.4035986538439506  0.8070350065760273
  0.9236836942065133  0.5964013535599978  0.3070350101048526
  0.4236837047439705  0.9035986570811895  0.8070350168177974
  0.6816203964682235  0.9153350004290041  0.1981420696355345
  0.1816203953774488  0.5846650008662724  0.6981420678013572
  0.1727440398663828  0.6618424652955209  0.2915835922463332
  0.6727440483713266  0.8381575300147407  0.7915835946568774
  0.5137159496301194  0.8799864858485240  0.1317994637689628
  0.0137159530701184  0.6200135182310215  0.6317994618654601
  0.2027680669080062  0.5368550561063354  0.1875867459194599
  0.7027680811919139  0.9631449364772252  0.6875867437071860
  0.2972319239003343  0.0368550498131778  0.1875867509889692
  0.7972319185576198  0.4631449498156998  0.6875867489999620
  0.9862840415021580  0.3799864786951983  0.1317994707683488
  0.4862840485959766  0.1200135117898101  0.6317994631872471
  0.3272559576570426  0.1618424731988938  0.2915835925839973
  0.8272559591671836  0.3381575261065085  0.7915835908767332
  0.8183796010724744  0.4153349919539673  0.1981420818729491
  0.3183796102733418  0.0846649986020452  0.6981420736952382
  0.5065045957018304  0.4847335919245633  0.9813911744112904
  0.0058393765000782  0.0102857996728915  0.4807875669229557
  0.9930422204176862  0.9870619257781417  0.9797028197380218
  0.4921748769159689  0.5090257989709382  0.4847856028840276
  0.7914039535384297  0.7094024925495447  0.5015109353859623
  0.9681024312406572  0.9968366066334985  0.2307145848915482
  0.7068787225854568  0.1993338570010514  0.9640863143711740
  0.2031431090256029  0.2874287674633576  0.0017069940597647
  0.2059757190834338  0.3054355573560100  0.4666613075193701
  0.2923065539446678  0.8126776738793254  0.4643322608583965
  0.7971812655248675  0.6906993052877705  0.9605732264796647
  0.7096341230984390  0.2105746324531557  0.5021985564758419
  0.4640556426062675  0.5107375868261965  0.7287914388306874
  0.0368399592583621  0.0024947365899873  0.7321588147416186
  0.2955593944673164  0.7856766896271610  0.0059510480404856
  0.5415670078494347  0.4951906045911966  0.2296056507083893
Cartesian
  0.0000000000000000  0.0000000000000000  0.0000000000000000
  0.0000000000000000  0.0000000000000000  0.0000000000000000
  0.0000000000000000  0.0000000000000000  0.0000000000000000
  0.0000000000000000  0.0000000000000000  0.0000000000000000
  0.0000000000000000  0.0000000000000000  0.0000000000000000
  0.0000000000000000  0.0000000000000000  0.0000000000000000
  0.0000000000000000  0.0000000000000000  0.0000000000000000
  0.0000000000000000  0.0000000000000000  0.0000000000000000
  0.0000000000000000  0.0000000000000000  0.0000000000000000
  0.0000000000000000  0.0000000000000000  0.0000000000000000
  0.0000000000000000  0.0000000000000000  0.0000000000000000
  0.0000000000000000  0.0000000000000000  0.0000000000000000
  0.0000000000000000  0.0000000000000000  0.0000000000000000
  0.0000000000000000  0.0000000000000000  0.0000000000000000
  0.0000000000000000  0.0000000000000000  0.0000000000000000
  0.0000000000000000  0.0000000000000000  0.0000000000000000
  0.0000000000000000  0.0000000000000000  0.0000000000000000
  0.0000000000000000  0.0000000000000000  0.0000000000000000
  0.0000000000000000  0.0000000000000000  0.0000000000000000
  0.0000000000000000  0.0000000000000000  0.0000000000000000
  0.0000000000000000  0.0000000000000000  0.0000000000000000
  0.0000000000000000  0.0000000000000000  0.0000000000000000
  0.0000000000000000  0.0000000000000000  0.0000000000000000
  0.0000000000000000  0.0000000000000000  0.0000000000000000
  0.0000000000000000  0.0000000000000000  0.0000000000000000
  0.0000000000000000  0.0000000000000000  0.0000000000000000
  0.0000000000000000  0.0000000000000000  0.0000000000000000
  0.0000000000000000  0.0000000000000000  0.0000000000000000
  0.0000000000000000  0.0000000000000000  0.0000000000000000
  0.0000000000000000  0.0000000000000000  0.0000000000000000
  0.0000000000000000  0.0000000000000000  0.0000000000000000
  0.0000000000000000  0.0000000000000000  0.0000000000000000
  0.0000000000000000  0.0000000000000000  0.0000000000000000
  0.0000000000000000  0.0000000000000000  0.0000000000000000
  0.0000000000000000  0.0000000000000000  0.0000000000000000
  0.0000000000000000  0.0000000000000000  0.0000000000000000
  0.0000000000000000  0.0000000000000000  0.0000000000000000
  0.0000000000000000  0.0000000000000000  0.0000000000000000
  0.0000000000000000  0.0000000000000000  0.0000000000000000
  0.0000000000000000  0.0000000000000000  0.0000000000000000
  0.0000000000000000  0.0000000000000000  0.0000000000000000
  0.0000000000000000  0.0000000000000000  0.0000000000000000
  0.0000000000000000  0.0000000000000000  0.0000000000000000
  0.0000000000000000  0.0000000000000000  0.0000000000000000
  0.0000000000000000  0.0000000000000000  0.0000000000000000
  0.0000000000000000  0.0000000000000000  0.0000000000000000
  0.0000000000000000  0.0000000000000000  0.0000000000000000
  0.0000000000000000  0.0000000000000000  0.0000000000000000
