C  N  H  Pb I                           
   1.0000000000000000     
     9.0502086869810974   -0.0322458317771372    0.0166656136678457
    -0.0313819920758250    8.6576330431131812   -0.0111295423226410
     0.0236442049735782   -0.0162245920775007   12.8280769271312440
  C               N               H               Pb              I             
     4     8    20     4    12
Direct
     0.5071280616945657    0.0418584069146064    0.2514266269404430
     0.0102107766655379    0.4584560353724498    0.7455146474064804
     0.9851882354293622    0.5113097328871632    0.2521573037249780
     0.4963139492756028    0.9340233547541459    0.7277600327514691
     0.5704939302156546    0.9369450682018226    0.1861976148555939
     0.0533236598012365    0.5535898676056661    0.6718369686985568
     0.1284179803116672    0.5365210168984405    0.2683451622766100
     0.6421421619471275    0.9426705435718432    0.7434577461247471
     0.3685834330109259    0.0864920733678005    0.2382275663810631
     0.8849229710992574    0.4206639056181345    0.7624345977463776
     0.9287502216550436    0.5011355274343856    0.1571089546282280
     0.4190983116707159    0.0575886543161417    0.7023728009177432
     0.5754203660947468    0.0953939569149469    0.3083956967650678
     0.1017938229413531    0.4182523399034608    0.7950196937418710
     0.9130034604071895    0.5226894315067412    0.3196800123396741
     0.4379526069736457    0.8321973485033212    0.7400150609703005
     0.6789381845801614    0.9156058747262676    0.1981997859147810
     0.1625534623170353    0.5776052629114758    0.6598376785245534
     0.1711426548027646    0.5417232423048830    0.3453675136322758
     0.6862978480885431    0.8379687736330155    0.7677623268773814
     0.5157171830529776    0.8834266555671491    0.1318694526325714
     0.9820472521843655    0.6134803510824014    0.6187689539120882
     0.2096907936387069    0.5332726329501583    0.2138344547359168
     0.7029954480493217    0.0406482255523599    0.7370287557890620
     0.2963969242803515    0.0327812823477984    0.1879220021173680
     0.7870170213805423    0.4588959882964687    0.7192338732153729
     0.9955370432216029    0.5057918466092772    0.0951289513484923
     0.4650100095211016    0.1622121679330206    0.6864584076774207
     0.3281035717822576    0.1614878542474756    0.2907751465869026
     0.8606376775989943    0.3493523246114663    0.8265152520500223
     0.8196435480419737    0.4932445895579889    0.1521136540320924
     0.3073681380317126    0.0398732586591279    0.6884355354575717
     0.4976557442382799    0.4900323606715133    0.9816522893269806
     0.9994640882489207    0.0154371353991181    0.4840524411715279
     0.9954115929643521    0.9815059599676061    0.9811347090439853
     0.4959012390038708    0.5064067714532499    0.4806389164039047
     0.7936247225518969    0.7161786116901752    0.5055544490022967
     0.9641057023227546    0.9952043411111049    0.2298315782232834
     0.7054738824427744    0.1894818422245237    0.9577362082282690
     0.1994359047853749    0.2890688152308627    0.0042614529241902
     0.2055546607743963    0.3014692404499328    0.4601913699312590
     0.2883713185718335    0.8065625243234820    0.4643552618673326
     0.7928076653742195    0.6951265895397398    0.9594085127951644
     0.7036886625563739    0.2102052232237597    0.5003773119564272
     0.4584540556288204    0.5027752117352833    0.7299383137638742
     0.0375585775147016    0.0001145597513030    0.7328391495911077
     0.2952480488164113    0.7877735665635370    0.0050317352855345
     0.5400618566543400    0.4970791724314481    0.2321668649165929

  0.00000000E+00  0.00000000E+00  0.00000000E+00
  0.00000000E+00  0.00000000E+00  0.00000000E+00
  0.00000000E+00  0.00000000E+00  0.00000000E+00
  0.00000000E+00  0.00000000E+00  0.00000000E+00
  0.00000000E+00  0.00000000E+00  0.00000000E+00
  0.00000000E+00  0.00000000E+00  0.00000000E+00
  0.00000000E+00  0.00000000E+00  0.00000000E+00
  0.00000000E+00  0.00000000E+00  0.00000000E+00
  0.00000000E+00  0.00000000E+00  0.00000000E+00
  0.00000000E+00  0.00000000E+00  0.00000000E+00
  0.00000000E+00  0.00000000E+00  0.00000000E+00
  0.00000000E+00  0.00000000E+00  0.00000000E+00
  0.00000000E+00  0.00000000E+00  0.00000000E+00
  0.00000000E+00  0.00000000E+00  0.00000000E+00
  0.00000000E+00  0.00000000E+00  0.00000000E+00
  0.00000000E+00  0.00000000E+00  0.00000000E+00
  0.00000000E+00  0.00000000E+00  0.00000000E+00
  0.00000000E+00  0.00000000E+00  0.00000000E+00
  0.00000000E+00  0.00000000E+00  0.00000000E+00
  0.00000000E+00  0.00000000E+00  0.00000000E+00
  0.00000000E+00  0.00000000E+00  0.00000000E+00
  0.00000000E+00  0.00000000E+00  0.00000000E+00
  0.00000000E+00  0.00000000E+00  0.00000000E+00
  0.00000000E+00  0.00000000E+00  0.00000000E+00
  0.00000000E+00  0.00000000E+00  0.00000000E+00
  0.00000000E+00  0.00000000E+00  0.00000000E+00
  0.00000000E+00  0.00000000E+00  0.00000000E+00
  0.00000000E+00  0.00000000E+00  0.00000000E+00
  0.00000000E+00  0.00000000E+00  0.00000000E+00
  0.00000000E+00  0.00000000E+00  0.00000000E+00
  0.00000000E+00  0.00000000E+00  0.00000000E+00
  0.00000000E+00  0.00000000E+00  0.00000000E+00
  0.00000000E+00  0.00000000E+00  0.00000000E+00
  0.00000000E+00  0.00000000E+00  0.00000000E+00
  0.00000000E+00  0.00000000E+00  0.00000000E+00
  0.00000000E+00  0.00000000E+00  0.00000000E+00
  0.00000000E+00  0.00000000E+00  0.00000000E+00
  0.00000000E+00  0.00000000E+00  0.00000000E+00
  0.00000000E+00  0.00000000E+00  0.00000000E+00
  0.00000000E+00  0.00000000E+00  0.00000000E+00
  0.00000000E+00  0.00000000E+00  0.00000000E+00
  0.00000000E+00  0.00000000E+00  0.00000000E+00
  0.00000000E+00  0.00000000E+00  0.00000000E+00
  0.00000000E+00  0.00000000E+00  0.00000000E+00
  0.00000000E+00  0.00000000E+00  0.00000000E+00
  0.00000000E+00  0.00000000E+00  0.00000000E+00
  0.00000000E+00  0.00000000E+00  0.00000000E+00
  0.00000000E+00  0.00000000E+00  0.00000000E+00
