C  N  H  Pb I 
 1.0000000000000000
     9.0502086869810974   -0.0322458317771372    0.0166656136678457
    -0.0313819920758250    8.6576330431131812   -0.0111295423226410
     0.0236442049735782   -0.0162245920775007   12.8280769271312440
 C   N   H   Pb  I  
   4   8  20   4  12
Direct
  0.5071280616945623  0.0418584069146083  0.2514266269404448
  0.0102107766655388  0.4584560353724490  0.7455146474064779
  0.9851882354293655  0.5113097328871661  0.2521573037249750
  0.4963139492756044  0.9340233547541483  0.7277600327514719
  0.5704939302156563  0.9369450682018237  0.1861976148555922
  0.0533236598012385  0.5535898676056655  0.6718369686985555
  0.1284179803116643  0.5365210168984398  0.2683451622766079
  0.6421421619471305  0.9426705435718451  0.7434577461247441
  0.3685834330109234  0.0864920733678030  0.2382275663810650
  0.8849229710992602  0.4206639056181349  0.7624345977463803
  0.9287502216550410  0.5011355274343878  0.1571089546282248
  0.4190983116707140  0.0575886543161400  0.7023728009177433
  0.5754203660947497  0.0953939569149504  0.3083956967650693
  0.1017938229413526  0.4182523399034636  0.7950196937418744
  0.9130034604071880  0.5226894315067385  0.3196800123396714
  0.4379526069736479  0.8321973485033216  0.7400150609703036
  0.6789381845801644  0.9156058747262678  0.1981997859147837
  0.1625534623170388  0.5776052629114768  0.6598376785245557
  0.1711426548027675  0.5417232423048810  0.3453675136322779
  0.6862978480885397  0.8379687736330187  0.7677623268773812
  0.5157171830529751  0.8834266555671499  0.1318694526325700
  0.9820472521843661  0.6134803510824040  0.6187689539120896
  0.2096907936387090  0.5332726329501603  0.2138344547359156
  0.7029954480493229  0.0406482255523584  0.7370287557890646
  0.2963969242803486  0.0327812823478006  0.1879220021173681
  0.7870170213805403  0.4588959882964661  0.7192338732153705
  0.9955370432216041  0.5057918466092762  0.0951289513484918
  0.4650100095211022  0.1622121679330207  0.6864584076774234
  0.3281035717822571  0.1614878542474783  0.2907751465869060
  0.8606376775989946  0.3493523246114665  0.8265152520500210
  0.8196435480419716  0.4932445895579881  0.1521136540320912
  0.3073681380317101  0.0398732586591271  0.6884355354575687
  0.4976557442382764  0.4900323606715166  0.9816522893269806
  0.9994640882489179  0.0154371353991197  0.4840524411715247
  0.9954115929643512  0.9815059599676047  0.9811347090439829
  0.4959012390038743  0.5064067714532533  0.4806389164039055
  0.7936247225518986  0.7161786116901772  0.5055544490023002
  0.9641057023227563  0.9952043411111035  0.2298315782232815
  0.7054738824427773  0.1894818422245234  0.9577362082282672
  0.1994359047853714  0.2890688152308616  0.0042614529241907
  0.2055546607743982  0.3014692404499349  0.4601913699312593
  0.2883713185718305  0.8065625243234824  0.4643552618673357
  0.7928076653742210  0.6951265895397415  0.9594085127951648
  0.7036886625563706  0.2102052232237615  0.5003773119564284
  0.4584540556288175  0.5027752117352866  0.7299383137638713
  0.0375585775147033  0.0001145597513053  0.7328391495911101
  0.2952480488164128  0.7877735665635344  0.0050317352855313
  0.5400618566543425  0.4970791724314451  0.2321668649165901
Cartesian
  0.0000000000000000  0.0000000000000000  0.0000000000000000
  0.0000000000000000  0.0000000000000000  0.0000000000000000
  0.0000000000000000  0.0000000000000000  0.0000000000000000
  0.0000000000000000  0.0000000000000000  0.0000000000000000
  0.0000000000000000  0.0000000000000000  0.0000000000000000
  0.0000000000000000  0.0000000000000000  0.0000000000000000
  0.0000000000000000  0.0000000000000000  0.0000000000000000
  0.0000000000000000  0.0000000000000000  0.0000000000000000
  0.0000000000000000  0.0000000000000000  0.0000000000000000
  0.0000000000000000  0.0000000000000000  0.0000000000000000
  0.0000000000000000  0.0000000000000000  0.0000000000000000
  0.0000000000000000  0.0000000000000000  0.0000000000000000
  0.0000000000000000  0.0000000000000000  0.0000000000000000
  0.0000000000000000  0.0000000000000000  0.0000000000000000
  0.0000000000000000  0.0000000000000000  0.0000000000000000
  0.0000000000000000  0.0000000000000000  0.0000000000000000
  0.0000000000000000  0.0000000000000000  0.0000000000000000
  0.0000000000000000  0.0000000000000000  0.0000000000000000
  0.0000000000000000  0.0000000000000000  0.0000000000000000
  0.0000000000000000  0.0000000000000000  0.0000000000000000
  0.0000000000000000  0.0000000000000000  0.0000000000000000
  0.0000000000000000  0.0000000000000000  0.0000000000000000
  0.0000000000000000  0.0000000000000000  0.0000000000000000
  0.0000000000000000  0.0000000000000000  0.0000000000000000
  0.0000000000000000  0.0000000000000000  0.0000000000000000
  0.0000000000000000  0.0000000000000000  0.0000000000000000
  0.0000000000000000  0.0000000000000000  0.0000000000000000
  0.0000000000000000  0.0000000000000000  0.0000000000000000
  0.0000000000000000  0.0000000000000000  0.0000000000000000
  0.0000000000000000  0.0000000000000000  0.0000000000000000
  0.0000000000000000  0.0000000000000000  0.0000000000000000
  0.0000000000000000  0.0000000000000000  0.0000000000000000
  0.0000000000000000  0.0000000000000000  0.0000000000000000
  0.0000000000000000  0.0000000000000000  0.0000000000000000
  0.0000000000000000  0.0000000000000000  0.0000000000000000
  0.0000000000000000  0.0000000000000000  0.0000000000000000
  0.0000000000000000  0.0000000000000000  0.0000000000000000
  0.0000000000000000  0.0000000000000000  0.0000000000000000
  0.0000000000000000  0.0000000000000000  0.0000000000000000
  0.0000000000000000  0.0000000000000000  0.0000000000000000
  0.0000000000000000  0.0000000000000000  0.0000000000000000
  0.0000000000000000  0.0000000000000000  0.0000000000000000
  0.0000000000000000  0.0000000000000000  0.0000000000000000
  0.0000000000000000  0.0000000000000000  0.0000000000000000
  0.0000000000000000  0.0000000000000000  0.0000000000000000
  0.0000000000000000  0.0000000000000000  0.0000000000000000
  0.0000000000000000  0.0000000000000000  0.0000000000000000
  0.0000000000000000  0.0000000000000000  0.0000000000000000
