C  N  H  Pb I                           
   1.0000000000000000     
     8.9515839677080429    0.0000000000000000    0.0000000000000000
     0.0000000000000000    8.9515839677080429    0.0000000000000000
     0.0000000000000000    0.0000000000000000    6.3289724258144924
  C               N               H               Pb              I             
     2     4    10     2     6
Direct
     0.4919977091286825    0.4983327988697965    0.5727996902050592
     0.9959698692007493    0.0061801762455715    0.5768781567138603
     0.5919382564300406    0.5998570636031317    0.4683028765755068
     0.4045294716352785    0.4024956703954885    0.4812027691546135
     0.0925693499018152    0.8937138430219704    0.4721602024919846
     0.9103694785771665    0.0947917788785588    0.4753761653678765
     0.4970477704020482    0.5008395712591636    0.7463652957785953
     0.6563788306586531    0.6558185463030526    0.5787985131239992
     0.6013875954801762    0.6094136420891090    0.3188389581582385
     0.3953240600321521    0.3985436273389240    0.3175171436731006
     0.3491104692665132    0.3482137646028605    0.5626535809810775
     0.0021447805284183    0.0008731133129061    0.7421865670752155
     0.1583869977990631    0.8417544435139490    0.5561172081249879
     0.0969828482120505    0.8936933930130166    0.3258395267621950
     0.8895782918472364    0.1047392832693106    0.3030959591416291
     0.8476422866279236    0.1625024060688887    0.5617047261800892
     0.9972160708615974    0.4973941365554566    0.0045310816013782
     0.5088347169661205    0.0079023306897525    0.9897386395621410
     0.0024857153206881    0.5014673496023008    0.4956721216409932
     0.4969019576559504    0.9959517673140397    0.4946744798329021
     0.2233662408358015    0.2195020199030964    0.9976195800915661
     0.2808516237887062    0.7234188542644233    0.9970881562286849
     0.7129734764584938    0.2820048675340701    0.9827371941025191
     0.7711383767376319    0.7708818707717739    0.0065094898146967

  0.00000000E+00  0.00000000E+00  0.00000000E+00
  0.00000000E+00  0.00000000E+00  0.00000000E+00
  0.00000000E+00  0.00000000E+00  0.00000000E+00
  0.00000000E+00  0.00000000E+00  0.00000000E+00
  0.00000000E+00  0.00000000E+00  0.00000000E+00
  0.00000000E+00  0.00000000E+00  0.00000000E+00
  0.00000000E+00  0.00000000E+00  0.00000000E+00
  0.00000000E+00  0.00000000E+00  0.00000000E+00
  0.00000000E+00  0.00000000E+00  0.00000000E+00
  0.00000000E+00  0.00000000E+00  0.00000000E+00
  0.00000000E+00  0.00000000E+00  0.00000000E+00
  0.00000000E+00  0.00000000E+00  0.00000000E+00
  0.00000000E+00  0.00000000E+00  0.00000000E+00
  0.00000000E+00  0.00000000E+00  0.00000000E+00
  0.00000000E+00  0.00000000E+00  0.00000000E+00
  0.00000000E+00  0.00000000E+00  0.00000000E+00
  0.00000000E+00  0.00000000E+00  0.00000000E+00
  0.00000000E+00  0.00000000E+00  0.00000000E+00
  0.00000000E+00  0.00000000E+00  0.00000000E+00
  0.00000000E+00  0.00000000E+00  0.00000000E+00
  0.00000000E+00  0.00000000E+00  0.00000000E+00
  0.00000000E+00  0.00000000E+00  0.00000000E+00
  0.00000000E+00  0.00000000E+00  0.00000000E+00
  0.00000000E+00  0.00000000E+00  0.00000000E+00
