C  N  H  Pb I 
 1.0000000000000000
     8.9515839677080429    0.0000000000000000    0.0000000000000000
     0.0000000000000000    8.9515839677080429    0.0000000000000000
     0.0000000000000000    0.0000000000000000    6.3289724258144924
 C   N   H   Pb  I  
   2   4  10   2   6
Direct
  0.4919977091286789  0.4983327988697998  0.5727996902050611
  0.9959698692007520  0.0061801762455729  0.5768781567138598
  0.5919382564300388  0.5998570636031307  0.4683028765755085
  0.4045294716352751  0.4024956703954912  0.4812027691546157
  0.0925693499018126  0.8937138430219675  0.4721602024919874
  0.9103694785771695  0.0947917788785599  0.4753761653678762
  0.4970477704020496  0.5008395712591623  0.7463652957785932
  0.6563788306586531  0.6558185463030524  0.5787985131239975
  0.6013875954801771  0.6094136420891109  0.3188389581582396
  0.3953240600321505  0.3985436273389236  0.3175171436731029
  0.3491104692665136  0.3482137646028585  0.5626535809810790
  0.0021447805284214  0.0008731133129090  0.7421865670752135
  0.1583869977990625  0.8417544435139497  0.5561172081249899
  0.0969828482120515  0.8936933930130153  0.3258395267621939
  0.8895782918472349  0.1047392832693086  0.3030959591416323
  0.8476422866279258  0.1625024060688905  0.5617047261800906
  0.9972160708615967  0.4973941365554564  0.0045310816013760
  0.5088347169661220  0.0079023306897490  0.9897386395621390
  0.0024857153206846  0.5014673496023000  0.4956721216409958
  0.4969019576559509  0.9959517673140412  0.4946744798329011
  0.2233662408358029  0.2195020199030990  0.9976195800915637
  0.2808516237887039  0.7234188542644269  0.9970881562286859
  0.7129734764584967  0.2820048675340666  0.9827371941025207
  0.7711383767376336  0.7708818707717705  0.0065094898146996
Cartesian
  0.0000000000000000  0.0000000000000000  0.0000000000000000
  0.0000000000000000  0.0000000000000000  0.0000000000000000
  0.0000000000000000  0.0000000000000000  0.0000000000000000
  0.0000000000000000  0.0000000000000000  0.0000000000000000
  0.0000000000000000  0.0000000000000000  0.0000000000000000
  0.0000000000000000  0.0000000000000000  0.0000000000000000
  0.0000000000000000  0.0000000000000000  0.0000000000000000
  0.0000000000000000  0.0000000000000000  0.0000000000000000
  0.0000000000000000  0.0000000000000000  0.0000000000000000
  0.0000000000000000  0.0000000000000000  0.0000000000000000
  0.0000000000000000  0.0000000000000000  0.0000000000000000
  0.0000000000000000  0.0000000000000000  0.0000000000000000
  0.0000000000000000  0.0000000000000000  0.0000000000000000
  0.0000000000000000  0.0000000000000000  0.0000000000000000
  0.0000000000000000  0.0000000000000000  0.0000000000000000
  0.0000000000000000  0.0000000000000000  0.0000000000000000
  0.0000000000000000  0.0000000000000000  0.0000000000000000
  0.0000000000000000  0.0000000000000000  0.0000000000000000
  0.0000000000000000  0.0000000000000000  0.0000000000000000
  0.0000000000000000  0.0000000000000000  0.0000000000000000
  0.0000000000000000  0.0000000000000000  0.0000000000000000
  0.0000000000000000  0.0000000000000000  0.0000000000000000
  0.0000000000000000  0.0000000000000000  0.0000000000000000
  0.0000000000000000  0.0000000000000000  0.0000000000000000
