C  N  H  Pb I 
 1.0000000000000000
     9.0697133394671674    0.0836681856163876    0.0035608947825656
     0.0814267827283578    8.9473369018102780   -0.0438593407985293
     0.0050519907521179   -0.0639379313735661   12.7296485857947044
 C   N   H   Pb  I  
   4   8  20   4  12
Direct
  0.5079545620594850  0.0406959883747638  0.2475946235704422
  0.0079545554343785  0.4593040156808087  0.7475946208954541
  0.9920454334685080  0.5406959860585880  0.2475946299923701
  0.4920454478785191  0.9593040127881092  0.7475946256013861
  0.5705946771768486  0.9354362274290708  0.1897252141182125
  0.0705946740239366  0.5645637727658526  0.6897252201605892
  0.1310336582348178  0.5838994807281044  0.2399588818968306
  0.6310336640152745  0.9161005167449358  0.7399588856927697
  0.3689663406760989  0.0838994856595276  0.2399588837149887
  0.8689663414621858  0.4161005194902584  0.7399588873068389
  0.9294053217315231  0.4354362199708707  0.1897252216917170
  0.4294053329446624  0.0645637684645837  0.6897252229388682
  0.5763163080256496  0.0964013618091920  0.3070350010383274
  0.0763163041439384  0.4035986538439505  0.8070350065760276
  0.9236836942065134  0.5964013535599980  0.3070350101048526
  0.4236837047439705  0.9035986570811896  0.8070350168177975
  0.6816203964682235  0.9153350004290042  0.1981420696355345
  0.1816203953774488  0.5846650008662726  0.6981420678013572
  0.1727440398663828  0.6618424652955209  0.2915835922463332
  0.6727440483713266  0.8381575300147408  0.7915835946568773
  0.5137159496301194  0.8799864858485243  0.1317994637689628
  0.0137159530701184  0.6200135182310218  0.6317994618654601
  0.2027680669080062  0.5368550561063357  0.1875867459194598
  0.7027680811919138  0.9631449364772254  0.6875867437071859
  0.2972319239003343  0.0368550498131778  0.1875867509889692
  0.7972319185576198  0.4631449498156999  0.6875867489999619
  0.9862840415021580  0.3799864786951983  0.1317994707683488
  0.4862840485959766  0.1200135117898101  0.6317994631872471
  0.3272559576570425  0.1618424731988939  0.2915835925839973
  0.8272559591671835  0.3381575261065085  0.7915835908767332
  0.8183796010724744  0.4153349919539673  0.1981420818729491
  0.3183796102733418  0.0846649986020452  0.6981420736952382
  0.4995693136866954  0.4891212141938482  0.9785115657270462
  0.0047471564781058  0.0131008631133258  0.4791859918995350
  0.9977244410770190  0.9916118182925268  0.9803365329323811
  0.4975567749447834  0.5155182483961123  0.4806013867832603
  0.7935302129839906  0.7095208281930847  0.5055227876757057
  0.9553375093634201  0.9953701620740653  0.2313338712739141
  0.7074136134481002  0.1928454602025864  0.9609747087899315
  0.2042148534970922  0.2888424867295016  0.0040942723891050
  0.2064480615064816  0.3066591725789056  0.4631737368673412
  0.2973742429826909  0.8062556336103043  0.4594312808476340
  0.7967851782432132  0.6975257032573512  0.9607797418146885
  0.7042769862837206  0.2073075227048745  0.5017590020391469
  0.4596592184079152  0.5057903972209393  0.7307150953104370
  0.0385791934052994  0.0059680812121914  0.7310057428625396
  0.2955897432712015  0.7898039690240629  0.0059523883872271
  0.5381061628753145  0.4938190133042309  0.2295794210145669
Cartesian
  0.0000000000000000  0.0000000000000000  0.0000000000000000
  0.0000000000000000  0.0000000000000000  0.0000000000000000
  0.0000000000000000  0.0000000000000000  0.0000000000000000
  0.0000000000000000  0.0000000000000000  0.0000000000000000
  0.0000000000000000  0.0000000000000000  0.0000000000000000
  0.0000000000000000  0.0000000000000000  0.0000000000000000
  0.0000000000000000  0.0000000000000000  0.0000000000000000
  0.0000000000000000  0.0000000000000000  0.0000000000000000
  0.0000000000000000  0.0000000000000000  0.0000000000000000
  0.0000000000000000  0.0000000000000000  0.0000000000000000
  0.0000000000000000  0.0000000000000000  0.0000000000000000
  0.0000000000000000  0.0000000000000000  0.0000000000000000
  0.0000000000000000  0.0000000000000000  0.0000000000000000
  0.0000000000000000  0.0000000000000000  0.0000000000000000
  0.0000000000000000  0.0000000000000000  0.0000000000000000
  0.0000000000000000  0.0000000000000000  0.0000000000000000
  0.0000000000000000  0.0000000000000000  0.0000000000000000
  0.0000000000000000  0.0000000000000000  0.0000000000000000
  0.0000000000000000  0.0000000000000000  0.0000000000000000
  0.0000000000000000  0.0000000000000000  0.0000000000000000
  0.0000000000000000  0.0000000000000000  0.0000000000000000
  0.0000000000000000  0.0000000000000000  0.0000000000000000
  0.0000000000000000  0.0000000000000000  0.0000000000000000
  0.0000000000000000  0.0000000000000000  0.0000000000000000
  0.0000000000000000  0.0000000000000000  0.0000000000000000
  0.0000000000000000  0.0000000000000000  0.0000000000000000
  0.0000000000000000  0.0000000000000000  0.0000000000000000
  0.0000000000000000  0.0000000000000000  0.0000000000000000
  0.0000000000000000  0.0000000000000000  0.0000000000000000
  0.0000000000000000  0.0000000000000000  0.0000000000000000
  0.0000000000000000  0.0000000000000000  0.0000000000000000
  0.0000000000000000  0.0000000000000000  0.0000000000000000
  0.0000000000000000  0.0000000000000000  0.0000000000000000
  0.0000000000000000  0.0000000000000000  0.0000000000000000
  0.0000000000000000  0.0000000000000000  0.0000000000000000
  0.0000000000000000  0.0000000000000000  0.0000000000000000
  0.0000000000000000  0.0000000000000000  0.0000000000000000
  0.0000000000000000  0.0000000000000000  0.0000000000000000
  0.0000000000000000  0.0000000000000000  0.0000000000000000
  0.0000000000000000  0.0000000000000000  0.0000000000000000
  0.0000000000000000  0.0000000000000000  0.0000000000000000
  0.0000000000000000  0.0000000000000000  0.0000000000000000
  0.0000000000000000  0.0000000000000000  0.0000000000000000
  0.0000000000000000  0.0000000000000000  0.0000000000000000
  0.0000000000000000  0.0000000000000000  0.0000000000000000
  0.0000000000000000  0.0000000000000000  0.0000000000000000
  0.0000000000000000  0.0000000000000000  0.0000000000000000
  0.0000000000000000  0.0000000000000000  0.0000000000000000
