C  N  H  Pb I 
 1.0000000000000000
     8.9309689299813364   -0.0504232141106386   -0.0311576436685503
    -0.0490724170675485    8.8489255963651487   -0.0529546527139256
    -0.0442046556505916   -0.0771970323650540   12.6471714158055129
 C   N   H   Pb  I  
   4   8  20   4  12
Direct
  0.5079545620594851  0.0406959883747638  0.2475946235704422
  0.0079545554343785  0.4593040156808084  0.7475946208954545
  0.9920454334685082  0.5406959860585878  0.2475946299923702
  0.4920454478785191  0.9593040127881082  0.7475946256013863
  0.5705946771768488  0.9354362274290700  0.1897252141182126
  0.0705946740239366  0.5645637727658526  0.6897252201605895
  0.1310336582348178  0.5838994807281045  0.2399588818968307
  0.6310336640152746  0.9161005167449353  0.7399588856927698
  0.3689663406760990  0.0838994856595276  0.2399588837149887
  0.8689663414621859  0.4161005194902583  0.7399588873068389
  0.9294053217315231  0.4354362199708706  0.1897252216917170
  0.4294053329446625  0.0645637684645837  0.6897252229388682
  0.5763163080256496  0.0964013618091920  0.3070350010383275
  0.0763163041439384  0.4035986538439504  0.8070350065760277
  0.9236836942065134  0.5964013535599977  0.3070350101048527
  0.4236837047439705  0.9035986570811892  0.8070350168177975
  0.6816203964682236  0.9153350004290038  0.1981420696355345
  0.1816203953774488  0.5846650008662725  0.6981420678013575
  0.1727440398663828  0.6618424652955208  0.2915835922463332
  0.6727440483713267  0.8381575300147408  0.7915835946568774
  0.5137159496301194  0.8799864858485239  0.1317994637689628
  0.0137159530701184  0.6200135182310212  0.6317994618654602
  0.2027680669080062  0.5368550561063355  0.1875867459194599
  0.7027680811919139  0.9631449364772248  0.6875867437071861
  0.2972319239003344  0.0368550498131778  0.1875867509889692
  0.7972319185576198  0.4631449498156997  0.6875867489999620
  0.9862840415021581  0.3799864786951982  0.1317994707683488
  0.4862840485959767  0.1200135117898101  0.6317994631872472
  0.3272559576570426  0.1618424731988937  0.2915835925839974
  0.8272559591671838  0.3381575261065085  0.7915835908767335
  0.8183796010724745  0.4153349919539672  0.1981420818729492
  0.3183796102733418  0.0846649986020452  0.6981420736952383
  0.4997367943710800  0.4851229030843326  0.9805375984758858
  0.0014494488500353  0.0119286528768370  0.4799933948426724
  0.9991992519873891  0.9912105949263968  0.9822297892141268
  0.4987926959718010  0.5144458020976125  0.4808593050854159
  0.7986041067366357  0.7114611688952325  0.5039340171199299
  0.9565393804886584  0.9911387198949847  0.2330481425450183
  0.7017736876938110  0.1932896843956150  0.9603070825625000
  0.2019565629374566  0.2895465374017996  0.0020951724178440
  0.2082208079397730  0.3041803576790985  0.4591507257174403
  0.2917249634232449  0.8024176636140276  0.4641432046619585
  0.7948847945879284  0.6923365404485124  0.9639307543043186
  0.7047727204320772  0.2086853935478258  0.5009590633109323
  0.4609791335606216  0.5052339830172170  0.7306577838459131
  0.0435911428747507  0.0067539955022418  0.7319289597712779
  0.2990244941375502  0.7855147590337812  0.0026025589458833
  0.5381306082114596  0.4926813020954119  0.2338789942217525
Cartesian
  0.0000000000000000  0.0000000000000000  0.0000000000000000
  0.0000000000000000  0.0000000000000000  0.0000000000000000
  0.0000000000000000  0.0000000000000000  0.0000000000000000
  0.0000000000000000  0.0000000000000000  0.0000000000000000
  0.0000000000000000  0.0000000000000000  0.0000000000000000
  0.0000000000000000  0.0000000000000000  0.0000000000000000
  0.0000000000000000  0.0000000000000000  0.0000000000000000
  0.0000000000000000  0.0000000000000000  0.0000000000000000
  0.0000000000000000  0.0000000000000000  0.0000000000000000
  0.0000000000000000  0.0000000000000000  0.0000000000000000
  0.0000000000000000  0.0000000000000000  0.0000000000000000
  0.0000000000000000  0.0000000000000000  0.0000000000000000
  0.0000000000000000  0.0000000000000000  0.0000000000000000
  0.0000000000000000  0.0000000000000000  0.0000000000000000
  0.0000000000000000  0.0000000000000000  0.0000000000000000
  0.0000000000000000  0.0000000000000000  0.0000000000000000
  0.0000000000000000  0.0000000000000000  0.0000000000000000
  0.0000000000000000  0.0000000000000000  0.0000000000000000
  0.0000000000000000  0.0000000000000000  0.0000000000000000
  0.0000000000000000  0.0000000000000000  0.0000000000000000
  0.0000000000000000  0.0000000000000000  0.0000000000000000
  0.0000000000000000  0.0000000000000000  0.0000000000000000
  0.0000000000000000  0.0000000000000000  0.0000000000000000
  0.0000000000000000  0.0000000000000000  0.0000000000000000
  0.0000000000000000  0.0000000000000000  0.0000000000000000
  0.0000000000000000  0.0000000000000000  0.0000000000000000
  0.0000000000000000  0.0000000000000000  0.0000000000000000
  0.0000000000000000  0.0000000000000000  0.0000000000000000
  0.0000000000000000  0.0000000000000000  0.0000000000000000
  0.0000000000000000  0.0000000000000000  0.0000000000000000
  0.0000000000000000  0.0000000000000000  0.0000000000000000
  0.0000000000000000  0.0000000000000000  0.0000000000000000
  0.0000000000000000  0.0000000000000000  0.0000000000000000
  0.0000000000000000  0.0000000000000000  0.0000000000000000
  0.0000000000000000  0.0000000000000000  0.0000000000000000
  0.0000000000000000  0.0000000000000000  0.0000000000000000
  0.0000000000000000  0.0000000000000000  0.0000000000000000
  0.0000000000000000  0.0000000000000000  0.0000000000000000
  0.0000000000000000  0.0000000000000000  0.0000000000000000
  0.0000000000000000  0.0000000000000000  0.0000000000000000
  0.0000000000000000  0.0000000000000000  0.0000000000000000
  0.0000000000000000  0.0000000000000000  0.0000000000000000
  0.0000000000000000  0.0000000000000000  0.0000000000000000
  0.0000000000000000  0.0000000000000000  0.0000000000000000
  0.0000000000000000  0.0000000000000000  0.0000000000000000
  0.0000000000000000  0.0000000000000000  0.0000000000000000
  0.0000000000000000  0.0000000000000000  0.0000000000000000
  0.0000000000000000  0.0000000000000000  0.0000000000000000
