C  N  H  Pb I 
 1.0000000000000000
     8.9635562090699281   -0.0559264992569637    0.0291874796626195
    -0.0544282736646617    8.7467175105035952    0.0478729146681882
     0.0414095013576735    0.0697888996272794   13.0190186631835569
 C   N   H   Pb  I  
   4   8  20   4  12
Direct
  0.5079545620594851  0.0406959883747638  0.2475946235704422
  0.0079545554343785  0.4593040156808086  0.7475946208954546
  0.9920454334685079  0.5406959860585878  0.2475946299923702
  0.4920454478785191  0.9593040127881087  0.7475946256013861
  0.5705946771768488  0.9354362274290701  0.1897252141182126
  0.0705946740239366  0.5645637727658527  0.6897252201605891
  0.1310336582348178  0.5838994807281044  0.2399588818968306
  0.6310336640152745  0.9161005167449353  0.7399588856927697
  0.3689663406760989  0.0838994856595276  0.2399588837149887
  0.8689663414621858  0.4161005194902583  0.7399588873068389
  0.9294053217315231  0.4354362199708704  0.1897252216917170
  0.4294053329446624  0.0645637684645837  0.6897252229388682
  0.5763163080256496  0.0964013618091920  0.3070350010383274
  0.0763163041439384  0.4035986538439505  0.8070350065760276
  0.9236836942065133  0.5964013535599979  0.3070350101048527
  0.4236837047439704  0.9035986570811892  0.8070350168177977
  0.6816203964682235  0.9153350004290036  0.1981420696355345
  0.1816203953774488  0.5846650008662724  0.6981420678013575
  0.1727440398663828  0.6618424652955207  0.2915835922463332
  0.6727440483713266  0.8381575300147407  0.7915835946568777
  0.5137159496301194  0.8799864858485239  0.1317994637689628
  0.0137159530701184  0.6200135182310214  0.6317994618654601
  0.2027680669080062  0.5368550561063355  0.1875867459194600
  0.7027680811919139  0.9631449364772253  0.6875867437071860
  0.2972319239003343  0.0368550498131778  0.1875867509889692
  0.7972319185576198  0.4631449498156999  0.6875867489999620
  0.9862840415021580  0.3799864786951984  0.1317994707683489
  0.4862840485959766  0.1200135117898100  0.6317994631872471
  0.3272559576570425  0.1618424731988937  0.2915835925839973
  0.8272559591671836  0.3381575261065085  0.7915835908767331
  0.8183796010724743  0.4153349919539672  0.1981420818729491
  0.3183796102733418  0.0846649986020452  0.6981420736952381
  0.5060416307424995  0.4887452237676010  0.9797748827114026
  0.0036881085980705  0.0163867051806774  0.4789540038074336
  0.9961800879214395  0.9928329910640548  0.9807374024350449
  0.4986745024409506  0.5157723817110416  0.4783330803187044
  0.7932621136454200  0.7077533692866101  0.5069963494428567
  0.9661808577864586  0.9874710924569982  0.2351151690663036
  0.7045280361630029  0.1976736905660358  0.9593457354859716
  0.1983159105424180  0.2964789562452988  0.0044216238576721
  0.2039489181106930  0.3033534497290142  0.4651474303676943
  0.2931208948239433  0.7983201859652670  0.4628383328178983
  0.7978625874984675  0.6907463298778828  0.9619280324375596
  0.7044137050323723  0.2104800419166510  0.5007528355350824
  0.4562326896226496  0.5009534185534767  0.7291500227682851
  0.0492018579929641  0.0047685812945285  0.7369556997845761
  0.2939831795030486  0.7885358813433399  0.0047532808507781
  0.5353506070334184  0.4998390440823051  0.2317506919562723
Cartesian
  0.0000000000000000  0.0000000000000000  0.0000000000000000
  0.0000000000000000  0.0000000000000000  0.0000000000000000
  0.0000000000000000  0.0000000000000000  0.0000000000000000
  0.0000000000000000  0.0000000000000000  0.0000000000000000
  0.0000000000000000  0.0000000000000000  0.0000000000000000
  0.0000000000000000  0.0000000000000000  0.0000000000000000
  0.0000000000000000  0.0000000000000000  0.0000000000000000
  0.0000000000000000  0.0000000000000000  0.0000000000000000
  0.0000000000000000  0.0000000000000000  0.0000000000000000
  0.0000000000000000  0.0000000000000000  0.0000000000000000
  0.0000000000000000  0.0000000000000000  0.0000000000000000
  0.0000000000000000  0.0000000000000000  0.0000000000000000
  0.0000000000000000  0.0000000000000000  0.0000000000000000
  0.0000000000000000  0.0000000000000000  0.0000000000000000
  0.0000000000000000  0.0000000000000000  0.0000000000000000
  0.0000000000000000  0.0000000000000000  0.0000000000000000
  0.0000000000000000  0.0000000000000000  0.0000000000000000
  0.0000000000000000  0.0000000000000000  0.0000000000000000
  0.0000000000000000  0.0000000000000000  0.0000000000000000
  0.0000000000000000  0.0000000000000000  0.0000000000000000
  0.0000000000000000  0.0000000000000000  0.0000000000000000
  0.0000000000000000  0.0000000000000000  0.0000000000000000
  0.0000000000000000  0.0000000000000000  0.0000000000000000
  0.0000000000000000  0.0000000000000000  0.0000000000000000
  0.0000000000000000  0.0000000000000000  0.0000000000000000
  0.0000000000000000  0.0000000000000000  0.0000000000000000
  0.0000000000000000  0.0000000000000000  0.0000000000000000
  0.0000000000000000  0.0000000000000000  0.0000000000000000
  0.0000000000000000  0.0000000000000000  0.0000000000000000
  0.0000000000000000  0.0000000000000000  0.0000000000000000
  0.0000000000000000  0.0000000000000000  0.0000000000000000
  0.0000000000000000  0.0000000000000000  0.0000000000000000
  0.0000000000000000  0.0000000000000000  0.0000000000000000
  0.0000000000000000  0.0000000000000000  0.0000000000000000
  0.0000000000000000  0.0000000000000000  0.0000000000000000
  0.0000000000000000  0.0000000000000000  0.0000000000000000
  0.0000000000000000  0.0000000000000000  0.0000000000000000
  0.0000000000000000  0.0000000000000000  0.0000000000000000
  0.0000000000000000  0.0000000000000000  0.0000000000000000
  0.0000000000000000  0.0000000000000000  0.0000000000000000
  0.0000000000000000  0.0000000000000000  0.0000000000000000
  0.0000000000000000  0.0000000000000000  0.0000000000000000
  0.0000000000000000  0.0000000000000000  0.0000000000000000
  0.0000000000000000  0.0000000000000000  0.0000000000000000
  0.0000000000000000  0.0000000000000000  0.0000000000000000
  0.0000000000000000  0.0000000000000000  0.0000000000000000
  0.0000000000000000  0.0000000000000000  0.0000000000000000
  0.0000000000000000  0.0000000000000000  0.0000000000000000
