C  N  H  Pb I                           
   1.0000000000000000     
     9.0193899931757802    0.0000000000000000    0.0000000000000000
     0.0000000000000000    8.7777678445653162    0.0000000000000000
     0.0000000000000000    0.0000000000000000   12.7961868062944486
  C               N               H               Pb              I             
     4     8    20     4    12
Direct
     0.5091468784559012    0.0388859944921265    0.2476594060807145
     0.0064022264008443    0.4519278182322779    0.7444150989635574
     0.9914559706197252    0.5411357045916034    0.2470450399787580
     0.5011261323032485    0.9511554297044995    0.7476721131011033
     0.5675186390843194    0.9350080489072710    0.1864918671112932
     0.0774347117850098    0.5611172083556610    0.6954764529500892
     0.1301309450859236    0.5855552685825174    0.2398772943592746
     0.6435346710448044    0.9411875968277954    0.7273819965974226
     0.3710401259349112    0.0858411882087324    0.2431329966971845
     0.8634414871063498    0.4257116191311923    0.7368819624657803
     0.9308032097441128    0.4334110888860820    0.1902685199291128
     0.4092716301231860    0.0462740803148520    0.7022550892554307
     0.5805679082500319    0.0899562017252222    0.3072714025707128
     0.0708226531863545    0.3773294467032997    0.7957448470726050
     0.9215809382263771    0.5979841178274796    0.3050854627768231
     0.4560210913755753    0.8746828366979216    0.8072752388718243
     0.6782541257251182    0.9117842931843967    0.1927497969441916
     0.1902111606498593    0.5673885592846872    0.7023907574488675
     0.1702261137434036    0.6655518247733525    0.2906526587982796
     0.7084887394164596    0.8686775548172037    0.7700200550137737
     0.5076256218379100    0.8838370234786908    0.1282236268038588
     0.0244584688988496    0.6339306800393842    0.6452728398916037
     0.2031774311131826    0.5376248105851786    0.1888002271499403
     0.6948558019286750    0.0091638736454343    0.6739224566645632
     0.2966650103607833    0.0431615930146876    0.1908315938447629
     0.7950373912650264    0.4906502397506856    0.6918065293440989
     0.9891691849326136    0.3767447136486552    0.1336464884081536
     0.4435338877086963    0.1197463791885198    0.6449302291075156
     0.3327477536389907    0.1622168802041983    0.2971216366751008
     0.8158323345549761    0.3425117375469853    0.7816563135629480
     0.8198487556598693    0.4124076677920669    0.1980949446130111
     0.2988201605768523    0.0399494287130295    0.7197290172710709
     0.5023441722619779    0.4879288203356396    0.9810849892003191
     0.0023441785924945    0.0120711836670608    0.4810849868122489
     0.9976558244282359    0.9879288178551917    0.9810849914872719
     0.4976558298475950    0.5120711849063113    0.4810849885500943
     0.7958928941106862    0.7105293335369609    0.5032699314851357
     0.9606598229172718    0.9944623124655507    0.2320592544955247
     0.7060293635732506    0.1956508126848462    0.9614522052702341
     0.2041070863312058    0.2894707010478257    0.0032699320500740
     0.2060293779368507    0.3043491755398549    0.4614522129329686
     0.2939706246777973    0.8043491828284957    0.4614522154174097
     0.7939706408800902    0.6956508110307098    0.9614522100061293
     0.7041071043942750    0.2105293303375291    0.5032699287679776
     0.4606598128207438    0.5055376617516671    0.7320592563212429
     0.0393401777688851    0.0055376740307977    0.7320592521911493
     0.2958929104798855    0.7894706933117490    0.0032699289927791
     0.5393401671427824    0.4944623109760684    0.2320592517272502

  0.00000000E+00  0.00000000E+00  0.00000000E+00
  0.00000000E+00  0.00000000E+00  0.00000000E+00
  0.00000000E+00  0.00000000E+00  0.00000000E+00
  0.00000000E+00  0.00000000E+00  0.00000000E+00
  0.00000000E+00  0.00000000E+00  0.00000000E+00
  0.00000000E+00  0.00000000E+00  0.00000000E+00
  0.00000000E+00  0.00000000E+00  0.00000000E+00
  0.00000000E+00  0.00000000E+00  0.00000000E+00
  0.00000000E+00  0.00000000E+00  0.00000000E+00
  0.00000000E+00  0.00000000E+00  0.00000000E+00
  0.00000000E+00  0.00000000E+00  0.00000000E+00
  0.00000000E+00  0.00000000E+00  0.00000000E+00
  0.00000000E+00  0.00000000E+00  0.00000000E+00
  0.00000000E+00  0.00000000E+00  0.00000000E+00
  0.00000000E+00  0.00000000E+00  0.00000000E+00
  0.00000000E+00  0.00000000E+00  0.00000000E+00
  0.00000000E+00  0.00000000E+00  0.00000000E+00
  0.00000000E+00  0.00000000E+00  0.00000000E+00
  0.00000000E+00  0.00000000E+00  0.00000000E+00
  0.00000000E+00  0.00000000E+00  0.00000000E+00
  0.00000000E+00  0.00000000E+00  0.00000000E+00
  0.00000000E+00  0.00000000E+00  0.00000000E+00
  0.00000000E+00  0.00000000E+00  0.00000000E+00
  0.00000000E+00  0.00000000E+00  0.00000000E+00
  0.00000000E+00  0.00000000E+00  0.00000000E+00
  0.00000000E+00  0.00000000E+00  0.00000000E+00
  0.00000000E+00  0.00000000E+00  0.00000000E+00
  0.00000000E+00  0.00000000E+00  0.00000000E+00
  0.00000000E+00  0.00000000E+00  0.00000000E+00
  0.00000000E+00  0.00000000E+00  0.00000000E+00
  0.00000000E+00  0.00000000E+00  0.00000000E+00
  0.00000000E+00  0.00000000E+00  0.00000000E+00
  0.00000000E+00  0.00000000E+00  0.00000000E+00
  0.00000000E+00  0.00000000E+00  0.00000000E+00
  0.00000000E+00  0.00000000E+00  0.00000000E+00
  0.00000000E+00  0.00000000E+00  0.00000000E+00
  0.00000000E+00  0.00000000E+00  0.00000000E+00
  0.00000000E+00  0.00000000E+00  0.00000000E+00
  0.00000000E+00  0.00000000E+00  0.00000000E+00
  0.00000000E+00  0.00000000E+00  0.00000000E+00
  0.00000000E+00  0.00000000E+00  0.00000000E+00
  0.00000000E+00  0.00000000E+00  0.00000000E+00
  0.00000000E+00  0.00000000E+00  0.00000000E+00
  0.00000000E+00  0.00000000E+00  0.00000000E+00
  0.00000000E+00  0.00000000E+00  0.00000000E+00
  0.00000000E+00  0.00000000E+00  0.00000000E+00
  0.00000000E+00  0.00000000E+00  0.00000000E+00
  0.00000000E+00  0.00000000E+00  0.00000000E+00
