C  N  H  Pb I 
 1.0000000000000000
     9.0193899931757802    0.0000000000000000    0.0000000000000000
     0.0000000000000000    8.7777678445653162    0.0000000000000000
     0.0000000000000000    0.0000000000000000   12.7961868062944486
 C   N   H   Pb  I  
   4   8  20   4  12
Direct
  0.5091468784558995  0.0388859944921239  0.2476594060807136
  0.0064022264008409  0.4519278182322745  0.7444150989635603
  0.9914559706197278  0.5411357045916064  0.2470450399787572
  0.5011261323032452  0.9511554297044965  0.7476721131011046
  0.5675186390843215  0.9350080489072734  0.1864918671112954
  0.0774347117850114  0.5611172083556625  0.6954764529500890
  0.1301309450859254  0.5855552685825166  0.2398772943592715
  0.6435346710448051  0.9411875968277965  0.7273819965974220
  0.3710401259349110  0.0858411882087328  0.2431329966971832
  0.8634414871063482  0.4257116191311951  0.7368819624657785
  0.9308032097441146  0.4334110888860795  0.1902685199291095
  0.4092716301231884  0.0462740803148554  0.7022550892554317
  0.5805679082500290  0.0899562017252236  0.3072714025707126
  0.0708226531863518  0.3773294467032976  0.7957448470726074
  0.9215809382263759  0.5979841178274821  0.3050854627768227
  0.4560210913755783  0.8746828366979201  0.8072752388718232
  0.6782541257251182  0.9117842931843967  0.1927497969441924
  0.1902111606498624  0.5673885592846847  0.7023907574488681
  0.1702261137434003  0.6655518247733494  0.2906526587982826
  0.7084887394164603  0.8686775548172014  0.7700200550137767
  0.5076256218379135  0.8838370234786940  0.1282236268038583
  0.0244584688988528  0.6339306800393848  0.6452728398916037
  0.2031774311131845  0.5376248105851753  0.1888002271499406
  0.6948558019286747  0.0091638736454330  0.6739224566645613
  0.2966650103607816  0.0431615930146900  0.1908315938447627
  0.7950373912650233  0.4906502397506832  0.6918065293440968
  0.9891691849326137  0.3767447136486587  0.1336464884081564
  0.4435338877086973  0.1197463791885208  0.6449302291075141
  0.3327477536389895  0.1622168802042012  0.2971216366751023
  0.8158323345549747  0.3425117375469867  0.7816563135629466
  0.8198487556598705  0.4124076677920641  0.1980949446130085
  0.2988201605768495  0.0399494287130263  0.7197290172710676
  0.5023441722619808  0.4879288203356366  0.9810849892003165
  0.0023441785924915  0.0120711836670638  0.4810849868122521
  0.9976558244282330  0.9879288178551918  0.9810849914872694
  0.4976558298475982  0.5120711849063111  0.4810849885500975
  0.7958928941106866  0.7105293335369601  0.5032699314851331
  0.9606598229172731  0.9944623124655482  0.2320592544955259
  0.7060293635732524  0.1956508126848427  0.9614522052702348
  0.2041070863312036  0.2894707010478275  0.0032699320500760
  0.2060293779368493  0.3043491755398582  0.4614522129329701
  0.2939706246777947  0.8043491828284943  0.4614522154174112
  0.7939706408800884  0.6956508110307111  0.9614522100061302
  0.7041071043942746  0.2105293303375289  0.5032699287679750
  0.4606598128207440  0.5055376617516696  0.7320592563212425
  0.0393401777688836  0.0055376740307987  0.7320592521911489
  0.2958929104798871  0.7894706933117497  0.0032699289927811
  0.5393401671427811  0.4944623109760681  0.2320592517272514
Cartesian
  0.0000000000000000  0.0000000000000000  0.0000000000000000
  0.0000000000000000  0.0000000000000000  0.0000000000000000
  0.0000000000000000  0.0000000000000000  0.0000000000000000
  0.0000000000000000  0.0000000000000000  0.0000000000000000
  0.0000000000000000  0.0000000000000000  0.0000000000000000
  0.0000000000000000  0.0000000000000000  0.0000000000000000
  0.0000000000000000  0.0000000000000000  0.0000000000000000
  0.0000000000000000  0.0000000000000000  0.0000000000000000
  0.0000000000000000  0.0000000000000000  0.0000000000000000
  0.0000000000000000  0.0000000000000000  0.0000000000000000
  0.0000000000000000  0.0000000000000000  0.0000000000000000
  0.0000000000000000  0.0000000000000000  0.0000000000000000
  0.0000000000000000  0.0000000000000000  0.0000000000000000
  0.0000000000000000  0.0000000000000000  0.0000000000000000
  0.0000000000000000  0.0000000000000000  0.0000000000000000
  0.0000000000000000  0.0000000000000000  0.0000000000000000
  0.0000000000000000  0.0000000000000000  0.0000000000000000
  0.0000000000000000  0.0000000000000000  0.0000000000000000
  0.0000000000000000  0.0000000000000000  0.0000000000000000
  0.0000000000000000  0.0000000000000000  0.0000000000000000
  0.0000000000000000  0.0000000000000000  0.0000000000000000
  0.0000000000000000  0.0000000000000000  0.0000000000000000
  0.0000000000000000  0.0000000000000000  0.0000000000000000
  0.0000000000000000  0.0000000000000000  0.0000000000000000
  0.0000000000000000  0.0000000000000000  0.0000000000000000
  0.0000000000000000  0.0000000000000000  0.0000000000000000
  0.0000000000000000  0.0000000000000000  0.0000000000000000
  0.0000000000000000  0.0000000000000000  0.0000000000000000
  0.0000000000000000  0.0000000000000000  0.0000000000000000
  0.0000000000000000  0.0000000000000000  0.0000000000000000
  0.0000000000000000  0.0000000000000000  0.0000000000000000
  0.0000000000000000  0.0000000000000000  0.0000000000000000
  0.0000000000000000  0.0000000000000000  0.0000000000000000
  0.0000000000000000  0.0000000000000000  0.0000000000000000
  0.0000000000000000  0.0000000000000000  0.0000000000000000
  0.0000000000000000  0.0000000000000000  0.0000000000000000
  0.0000000000000000  0.0000000000000000  0.0000000000000000
  0.0000000000000000  0.0000000000000000  0.0000000000000000
  0.0000000000000000  0.0000000000000000  0.0000000000000000
  0.0000000000000000  0.0000000000000000  0.0000000000000000
  0.0000000000000000  0.0000000000000000  0.0000000000000000
  0.0000000000000000  0.0000000000000000  0.0000000000000000
  0.0000000000000000  0.0000000000000000  0.0000000000000000
  0.0000000000000000  0.0000000000000000  0.0000000000000000
  0.0000000000000000  0.0000000000000000  0.0000000000000000
  0.0000000000000000  0.0000000000000000  0.0000000000000000
  0.0000000000000000  0.0000000000000000  0.0000000000000000
  0.0000000000000000  0.0000000000000000  0.0000000000000000
