C  N  H  Pb I                           
   1.0000000000000000     
     9.0193899931757802    0.0000000000000000    0.0000000000000000
     0.0000000000000000    8.7777678445653162    0.0000000000000000
     0.0000000000000000    0.0000000000000000   12.7961868062944486
  C               N               H               Pb              I             
     4     8    20     4    12
Direct
     0.5136162796507975    0.0326431328249157    0.2458527716527996
     0.0018685460181160    0.4546159301599175    0.7488152440643461
     0.9958974437732522    0.5460467997470602    0.2485453121709895
     0.4888596170948603    0.9575519014590412    0.7441280090445019
     0.5684054384258488    0.9341340370094500    0.1824331984819310
     0.0755693914260007    0.5639814123076832    0.6976916264789850
     0.1306658774239295    0.5863230005859421    0.2442036957745017
     0.6417465873010073    0.9182080269441570    0.7444482916898423
     0.3710437414655559    0.0807509567940983    0.2358636295449088
     0.8684769313903544    0.4221912643427288    0.7456533273553347
     0.9261406131573864    0.4191417970445244    0.1816196436498885
     0.4391999845417445    0.0491660369926024    0.6767300281778077
     0.5713889219455126    0.0962946695951175    0.3048725877839260
     0.0864549438664639    0.4060490948321345    0.8066692287350463
     0.9156389384598711    0.5990416650157400    0.3114076569701254
     0.4260597725981725    0.9057678349140517    0.8117912698237930
     0.6782864706803693    0.8978085003313296    0.1966193563119418
     0.1895024483370094    0.5934935343026027    0.6933063220204474
     0.1734213805137017    0.6590758447832314    0.2903422371386242
     0.6691892077091097    0.8399028832498772    0.7900011170108598
     0.5220321460671045    0.8839172160653845    0.1407230580528562
     0.0101086801712711    0.6209441464988004    0.6331015688578390
     0.2084558366449230    0.5375997034029893    0.2034381914857875
     0.7109149184894576    0.9483754068706176    0.6908502567509274
     0.2963248950809430    0.0265050333716488    0.1882061207784815
     0.7995892164343417    0.4692142250667644    0.6928429411293493
     0.9843134996132790    0.3766706837680545    0.1421263592331030
     0.4807875708036136    0.1155162417557776    0.6274730461416880
     0.3190682738747483    0.1639190075306729    0.2889203094158077
     0.8299600888198313    0.3381460659683881    0.7919927103422637
     0.8143466615631212    0.4101900824723472    0.1980624765515557
     0.3204718003817177    0.0909403469940244    0.6940019614698727
     0.4990116287014601    0.4843615907154515    0.9863068537807607
     0.0188088550324395    0.9977833528644950    0.4879569454180626
     0.9979429451533051    0.9817134948240920    0.9807813363901587
     0.4998334565405855    0.5162309763049961    0.4861184479027969
     0.8021083457346379    0.7210132692554794    0.4927485699970191
     0.9691169512948079    0.0014818713761144    0.2336021856848873
     0.6905753936841990    0.1941861804019922    0.9596630561743211
     0.2101957942100157    0.2934283430287294    0.0005980883622030
     0.2090807174947713    0.2963969997343057    0.4583428961666272
     0.3026790589059587    0.8019324020035157    0.4582264746625597
     0.7934796273346691    0.6876369994083120    0.9546652937260376
     0.6984924852398677    0.2155926708414881    0.5074804485221023
     0.4575079407807578    0.5076280523941890    0.7314559021689249
     0.0342790028842686    0.0031760333729522    0.7342742138019105
     0.3003271580803428    0.8016254570836310    0.9999080847252984
     0.5479751998122850    0.4942278326509921    0.2373010041888577

  0.00000000E+00  0.00000000E+00  0.00000000E+00
  0.00000000E+00  0.00000000E+00  0.00000000E+00
  0.00000000E+00  0.00000000E+00  0.00000000E+00
  0.00000000E+00  0.00000000E+00  0.00000000E+00
  0.00000000E+00  0.00000000E+00  0.00000000E+00
  0.00000000E+00  0.00000000E+00  0.00000000E+00
  0.00000000E+00  0.00000000E+00  0.00000000E+00
  0.00000000E+00  0.00000000E+00  0.00000000E+00
  0.00000000E+00  0.00000000E+00  0.00000000E+00
  0.00000000E+00  0.00000000E+00  0.00000000E+00
  0.00000000E+00  0.00000000E+00  0.00000000E+00
  0.00000000E+00  0.00000000E+00  0.00000000E+00
  0.00000000E+00  0.00000000E+00  0.00000000E+00
  0.00000000E+00  0.00000000E+00  0.00000000E+00
  0.00000000E+00  0.00000000E+00  0.00000000E+00
  0.00000000E+00  0.00000000E+00  0.00000000E+00
  0.00000000E+00  0.00000000E+00  0.00000000E+00
  0.00000000E+00  0.00000000E+00  0.00000000E+00
  0.00000000E+00  0.00000000E+00  0.00000000E+00
  0.00000000E+00  0.00000000E+00  0.00000000E+00
  0.00000000E+00  0.00000000E+00  0.00000000E+00
  0.00000000E+00  0.00000000E+00  0.00000000E+00
  0.00000000E+00  0.00000000E+00  0.00000000E+00
  0.00000000E+00  0.00000000E+00  0.00000000E+00
  0.00000000E+00  0.00000000E+00  0.00000000E+00
  0.00000000E+00  0.00000000E+00  0.00000000E+00
  0.00000000E+00  0.00000000E+00  0.00000000E+00
  0.00000000E+00  0.00000000E+00  0.00000000E+00
  0.00000000E+00  0.00000000E+00  0.00000000E+00
  0.00000000E+00  0.00000000E+00  0.00000000E+00
  0.00000000E+00  0.00000000E+00  0.00000000E+00
  0.00000000E+00  0.00000000E+00  0.00000000E+00
  0.00000000E+00  0.00000000E+00  0.00000000E+00
  0.00000000E+00  0.00000000E+00  0.00000000E+00
  0.00000000E+00  0.00000000E+00  0.00000000E+00
  0.00000000E+00  0.00000000E+00  0.00000000E+00
  0.00000000E+00  0.00000000E+00  0.00000000E+00
  0.00000000E+00  0.00000000E+00  0.00000000E+00
  0.00000000E+00  0.00000000E+00  0.00000000E+00
  0.00000000E+00  0.00000000E+00  0.00000000E+00
  0.00000000E+00  0.00000000E+00  0.00000000E+00
  0.00000000E+00  0.00000000E+00  0.00000000E+00
  0.00000000E+00  0.00000000E+00  0.00000000E+00
  0.00000000E+00  0.00000000E+00  0.00000000E+00
  0.00000000E+00  0.00000000E+00  0.00000000E+00
  0.00000000E+00  0.00000000E+00  0.00000000E+00
  0.00000000E+00  0.00000000E+00  0.00000000E+00
  0.00000000E+00  0.00000000E+00  0.00000000E+00
