C  N  H  Pb I 
 1.0000000000000000
     9.0193899931757802    0.0000000000000000    0.0000000000000000
     0.0000000000000000    8.7777678445653162    0.0000000000000000
     0.0000000000000000    0.0000000000000000   12.7961868062944486
 C   N   H   Pb  I  
   4   8  20   4  12
Direct
  0.5136162796507981  0.0326431328249191  0.2458527716527974
  0.0018685460181149  0.4546159301599173  0.7488152440643494
  0.9958974437732498  0.5460467997470604  0.2485453121709897
  0.4888596170948568  0.9575519014590383  0.7441280090444985
  0.5684054384258508  0.9341340370094500  0.1824331984819279
  0.0755693914260021  0.5639814123076835  0.6976916264789832
  0.1306658774239308  0.5863230005859443  0.2442036957745047
  0.6417465873010066  0.9182080269441554  0.7444482916898447
  0.3710437414655554  0.0807509567940957  0.2358636295449085
  0.8684769313903561  0.4221912643427275  0.7456533273553313
  0.9261406131573885  0.4191417970445249  0.1816196436498919
  0.4391999845417442  0.0491660369926012  0.6767300281778076
  0.5713889219455148  0.0962946695951170  0.3048725877839225
  0.0864549438664617  0.4060490948321371  0.8066692287350441
  0.9156389384598691  0.5990416650157425  0.3114076569701273
  0.4260597725981752  0.9057678349140502  0.8117912698237959
  0.6782864706803691  0.8978085003313289  0.1966193563119394
  0.1895024483370070  0.5934935343026042  0.6933063220204502
  0.1734213805137049  0.6590758447832329  0.2903422371386244
  0.6691892077091104  0.8399028832498793  0.7900011170108593
  0.5220321460671050  0.8839172160653875  0.1407230580528543
  0.0101086801712725  0.6209441464987971  0.6331015688578372
  0.2084558366449241  0.5375997034029861  0.2034381914857892
  0.7109149184894606  0.9483754068706195  0.6908502567509247
  0.2963248950809413  0.0265050333716471  0.1882061207784830
  0.7995892164343431  0.4692142250667674  0.6928429411293514
  0.9843134996132824  0.3766706837680573  0.1421263592331044
  0.4807875708036135  0.1155162417557802  0.6274730461416848
  0.3190682738747461  0.1639190075306756  0.2889203094158078
  0.8299600888198314  0.3381460659683871  0.7919927103422656
  0.8143466615631191  0.4101900824723467  0.1980624765515569
  0.3204718003817165  0.0909403469940275  0.6940019614698747
  0.4990116287014600  0.4843615907154509  0.9863068537807578
  0.0188088550324390  0.9977833528644984  0.4879569454180622
  0.9979429451533038  0.9817134948240916  0.9807813363901597
  0.4998334565405831  0.5162309763049946  0.4861184479027938
  0.8021083457346401  0.7210132692554807  0.4927485699970195
  0.9691169512948062  0.0014818713761178  0.2336021856848849
  0.6905753936842008  0.1941861804019907  0.9596630561743219
  0.2101957942100174  0.2934283430287313  0.0005980883622006
  0.2090807174947678  0.2963969997343089  0.4583428961666249
  0.3026790589059621  0.8019324020035167  0.4582264746625614
  0.7934796273346696  0.6876369994083148  0.9546652937260364
  0.6984924852398668  0.2155926708414852  0.5074804485221035
  0.4575079407807613  0.5076280523941914  0.7314559021689245
  0.0342790028842704  0.0031760333729541  0.7342742138019106
  0.3003271580803440  0.8016254570836291  0.9999080847252988
  0.5479751998122856  0.4942278326509899  0.2373010041888544
Cartesian
  0.0000000000000000  0.0000000000000000  0.0000000000000000
  0.0000000000000000  0.0000000000000000  0.0000000000000000
  0.0000000000000000  0.0000000000000000  0.0000000000000000
  0.0000000000000000  0.0000000000000000  0.0000000000000000
  0.0000000000000000  0.0000000000000000  0.0000000000000000
  0.0000000000000000  0.0000000000000000  0.0000000000000000
  0.0000000000000000  0.0000000000000000  0.0000000000000000
  0.0000000000000000  0.0000000000000000  0.0000000000000000
  0.0000000000000000  0.0000000000000000  0.0000000000000000
  0.0000000000000000  0.0000000000000000  0.0000000000000000
  0.0000000000000000  0.0000000000000000  0.0000000000000000
  0.0000000000000000  0.0000000000000000  0.0000000000000000
  0.0000000000000000  0.0000000000000000  0.0000000000000000
  0.0000000000000000  0.0000000000000000  0.0000000000000000
  0.0000000000000000  0.0000000000000000  0.0000000000000000
  0.0000000000000000  0.0000000000000000  0.0000000000000000
  0.0000000000000000  0.0000000000000000  0.0000000000000000
  0.0000000000000000  0.0000000000000000  0.0000000000000000
  0.0000000000000000  0.0000000000000000  0.0000000000000000
  0.0000000000000000  0.0000000000000000  0.0000000000000000
  0.0000000000000000  0.0000000000000000  0.0000000000000000
  0.0000000000000000  0.0000000000000000  0.0000000000000000
  0.0000000000000000  0.0000000000000000  0.0000000000000000
  0.0000000000000000  0.0000000000000000  0.0000000000000000
  0.0000000000000000  0.0000000000000000  0.0000000000000000
  0.0000000000000000  0.0000000000000000  0.0000000000000000
  0.0000000000000000  0.0000000000000000  0.0000000000000000
  0.0000000000000000  0.0000000000000000  0.0000000000000000
  0.0000000000000000  0.0000000000000000  0.0000000000000000
  0.0000000000000000  0.0000000000000000  0.0000000000000000
  0.0000000000000000  0.0000000000000000  0.0000000000000000
  0.0000000000000000  0.0000000000000000  0.0000000000000000
  0.0000000000000000  0.0000000000000000  0.0000000000000000
  0.0000000000000000  0.0000000000000000  0.0000000000000000
  0.0000000000000000  0.0000000000000000  0.0000000000000000
  0.0000000000000000  0.0000000000000000  0.0000000000000000
  0.0000000000000000  0.0000000000000000  0.0000000000000000
  0.0000000000000000  0.0000000000000000  0.0000000000000000
  0.0000000000000000  0.0000000000000000  0.0000000000000000
  0.0000000000000000  0.0000000000000000  0.0000000000000000
  0.0000000000000000  0.0000000000000000  0.0000000000000000
  0.0000000000000000  0.0000000000000000  0.0000000000000000
  0.0000000000000000  0.0000000000000000  0.0000000000000000
  0.0000000000000000  0.0000000000000000  0.0000000000000000
  0.0000000000000000  0.0000000000000000  0.0000000000000000
  0.0000000000000000  0.0000000000000000  0.0000000000000000
  0.0000000000000000  0.0000000000000000  0.0000000000000000
  0.0000000000000000  0.0000000000000000  0.0000000000000000
