C  N  H  Pb I 
 1.0000000000000000
     9.0193899931757802    0.0000000000000000    0.0000000000000000
     0.0000000000000000    8.7777678445653162    0.0000000000000000
     0.0000000000000000    0.0000000000000000   12.7961868062944486
 C   N   H   Pb  I  
   4   8  20   4  12
Direct
  0.5079545620594851  0.0406959883747638  0.2475946235704422
  0.0079545554343785  0.4593040156808086  0.7475946208954544
  0.9920454334685082  0.5406959860585880  0.2475946299923702
  0.4920454478785191  0.9593040127881087  0.7475946256013861
  0.5705946771768488  0.9354362274290704  0.1897252141182125
  0.0705946740239366  0.5645637727658527  0.6897252201605891
  0.1310336582348178  0.5838994807281044  0.2399588818968306
  0.6310336640152745  0.9161005167449353  0.7399588856927697
  0.3689663406760989  0.0838994856595276  0.2399588837149887
  0.8689663414621858  0.4161005194902583  0.7399588873068387
  0.9294053217315231  0.4354362199708706  0.1897252216917170
  0.4294053329446625  0.0645637684645837  0.6897252229388682
  0.5763163080256496  0.0964013618091920  0.3070350010383274
  0.0763163041439384  0.4035986538439506  0.8070350065760273
  0.9236836942065133  0.5964013535599978  0.3070350101048526
  0.4236837047439705  0.9035986570811895  0.8070350168177974
  0.6816203964682235  0.9153350004290041  0.1981420696355345
  0.1816203953774488  0.5846650008662724  0.6981420678013572
  0.1727440398663828  0.6618424652955209  0.2915835922463332
  0.6727440483713266  0.8381575300147407  0.7915835946568774
  0.5137159496301194  0.8799864858485240  0.1317994637689628
  0.0137159530701184  0.6200135182310215  0.6317994618654601
  0.2027680669080062  0.5368550561063354  0.1875867459194599
  0.7027680811919139  0.9631449364772252  0.6875867437071860
  0.2972319239003343  0.0368550498131778  0.1875867509889692
  0.7972319185576198  0.4631449498156998  0.6875867489999620
  0.9862840415021580  0.3799864786951983  0.1317994707683488
  0.4862840485959766  0.1200135117898101  0.6317994631872471
  0.3272559576570426  0.1618424731988938  0.2915835925839973
  0.8272559591671836  0.3381575261065085  0.7915835908767332
  0.8183796010724744  0.4153349919539673  0.1981420818729491
  0.3183796102733418  0.0846649986020452  0.6981420736952382
  0.4940580205481909  0.4921104744712054  0.9766770644596199
  0.0064056549669020  0.0142449116753452  0.4825143302213748
  0.9923806014672157  0.9895611030356025  0.9839400235800452
  0.4990499612352083  0.5096346070291934  0.4813615706992598
  0.7966368068657405  0.7082982660000842  0.5033548905094577
  0.9575952701406816  0.0006296558429187  0.2253593544740942
  0.7058742855833989  0.1915362819929193  0.9621917271772316
  0.2057143358519017  0.2952607784426786  0.0041102142225327
  0.2122123948361562  0.3077639751379971  0.4632367590302894
  0.2980751903920960  0.8091486770260651  0.4630619561826932
  0.7970182871477198  0.6959743081858569  0.9575021972901606
  0.7054095530396010  0.2083143578464383  0.5021436338676151
  0.4608104597033268  0.5075953442060164  0.7273215380273088
  0.0385721052951846  0.0088502717386578  0.7296176615433450
  0.2929683142064337  0.7879788725031069  0.0043617091862081
  0.5399653184389451  0.5004875204676046  0.2328936074560152
Cartesian
  0.0000000000000000  0.0000000000000000  0.0000000000000000
  0.0000000000000000  0.0000000000000000  0.0000000000000000
  0.0000000000000000  0.0000000000000000  0.0000000000000000
  0.0000000000000000  0.0000000000000000  0.0000000000000000
  0.0000000000000000  0.0000000000000000  0.0000000000000000
  0.0000000000000000  0.0000000000000000  0.0000000000000000
  0.0000000000000000  0.0000000000000000  0.0000000000000000
  0.0000000000000000  0.0000000000000000  0.0000000000000000
  0.0000000000000000  0.0000000000000000  0.0000000000000000
  0.0000000000000000  0.0000000000000000  0.0000000000000000
  0.0000000000000000  0.0000000000000000  0.0000000000000000
  0.0000000000000000  0.0000000000000000  0.0000000000000000
  0.0000000000000000  0.0000000000000000  0.0000000000000000
  0.0000000000000000  0.0000000000000000  0.0000000000000000
  0.0000000000000000  0.0000000000000000  0.0000000000000000
  0.0000000000000000  0.0000000000000000  0.0000000000000000
  0.0000000000000000  0.0000000000000000  0.0000000000000000
  0.0000000000000000  0.0000000000000000  0.0000000000000000
  0.0000000000000000  0.0000000000000000  0.0000000000000000
  0.0000000000000000  0.0000000000000000  0.0000000000000000
  0.0000000000000000  0.0000000000000000  0.0000000000000000
  0.0000000000000000  0.0000000000000000  0.0000000000000000
  0.0000000000000000  0.0000000000000000  0.0000000000000000
  0.0000000000000000  0.0000000000000000  0.0000000000000000
  0.0000000000000000  0.0000000000000000  0.0000000000000000
  0.0000000000000000  0.0000000000000000  0.0000000000000000
  0.0000000000000000  0.0000000000000000  0.0000000000000000
  0.0000000000000000  0.0000000000000000  0.0000000000000000
  0.0000000000000000  0.0000000000000000  0.0000000000000000
  0.0000000000000000  0.0000000000000000  0.0000000000000000
  0.0000000000000000  0.0000000000000000  0.0000000000000000
  0.0000000000000000  0.0000000000000000  0.0000000000000000
  0.0000000000000000  0.0000000000000000  0.0000000000000000
  0.0000000000000000  0.0000000000000000  0.0000000000000000
  0.0000000000000000  0.0000000000000000  0.0000000000000000
  0.0000000000000000  0.0000000000000000  0.0000000000000000
  0.0000000000000000  0.0000000000000000  0.0000000000000000
  0.0000000000000000  0.0000000000000000  0.0000000000000000
  0.0000000000000000  0.0000000000000000  0.0000000000000000
  0.0000000000000000  0.0000000000000000  0.0000000000000000
  0.0000000000000000  0.0000000000000000  0.0000000000000000
  0.0000000000000000  0.0000000000000000  0.0000000000000000
  0.0000000000000000  0.0000000000000000  0.0000000000000000
  0.0000000000000000  0.0000000000000000  0.0000000000000000
  0.0000000000000000  0.0000000000000000  0.0000000000000000
  0.0000000000000000  0.0000000000000000  0.0000000000000000
  0.0000000000000000  0.0000000000000000  0.0000000000000000
  0.0000000000000000  0.0000000000000000  0.0000000000000000
