C  N  H  Pb I                           
   1.0000000000000000     
     9.0193899931757802    0.0000000000000000    0.0000000000000000
     0.0000000000000000    8.7777678445653162    0.0000000000000000
     0.0000000000000000    0.0000000000000000   12.7961868062944486
  C               N               H               Pb              I             
     4     8    20     4    12
Direct
     0.5072450114340228    0.0444996579058952    0.2532852671152739
     0.0118821796581372    0.4654390598472702    0.7503834247315808
     0.9884582498914511    0.5362918650727195    0.2425479713244698
     0.4861868519524037    0.9644345965681396    0.7460179020133211
     0.5687760081118682    0.9464532883555776    0.1917367605318816
     0.0648716778478189    0.5677251300986157    0.6842182622528199
     0.1253341010752536    0.5778181561768747    0.2437164864541899
     0.6229731441243871    0.9074416379471302    0.7437523979954079
     0.3713815783011114    0.0742852766706079    0.2421786185636066
     0.8572838155434326    0.4090108349544295    0.7483278498576738
     0.9229542627323184    0.4382856951975995    0.1889784669826398
     0.4222752627545105    0.0623734492283532    0.6836506086384659
     0.5808550022855457    0.0925422647627272    0.3128373424792557
     0.0831040606759856    0.4042626785458410    0.8153414707466027
     0.9137484837120340    0.6066755320803452    0.3050946504770167
     0.4364946109364993    0.9074896125414043    0.8081918235145480
     0.6866675990474320    0.9205530737473993    0.2003810382568147
     0.1815737680186018    0.5883583430148320    0.6992609774681711
     0.1712144025829332    0.6547486225276913    0.2921117554057560
     0.6736144456677096    0.8378659600043932    0.7967828619755579
     0.5191637315518776    0.8752742274648782    0.1306749651204910
     0.0163910511583367    0.6227861897099061    0.6295737254246134
     0.2041895461355026    0.5370479722429948    0.1834058822618516
     0.6989184254582881    0.9596768971810405    0.6867440808271539
     0.2958887609931438    0.0320853923499058    0.1893868402571641
     0.8006487983745885    0.4589252458331288    0.6842556289926520
     0.9835528728007716    0.3780326893221968    0.1334646040060790
     0.4821736094087470    0.1036629968638110    0.6339778120258757
     0.3244092809890518    0.1690315136185419    0.2910698317110345
     0.8339633854468573    0.3412679363173652    0.7910910642686915
     0.8287351032654868    0.4281130364462769    0.2032297588595640
     0.3293125587021564    0.0864063261487047    0.6975311085298586
     0.5068821135098673    0.4831654458512418    0.9814915233982902
     0.0024295861039150    0.9995784966057926    0.4779631935296180
     0.9844822879638926    0.9871029446530315    0.9835418271289313
     0.5001847450077150    0.5076591087165312    0.4779157898982263
     0.7931500491524375    0.7105202334662408    0.5094328541138253
     0.9650273609812743    0.0030731252488110    0.2253055310095391
     0.7106591984412916    0.1957625298654335    0.9582540967616637
     0.2031388096015405    0.2803156292397873    0.0106798224030129
     0.2063176888805458    0.3040067610133335    0.4705130777961983
     0.2963769902414555    0.8082961923480596    0.4606235045979616
     0.7921058782500836    0.6878177305487583    0.9653450501947844
     0.7015950318846507    0.2085274329188849    0.4959380021746682
     0.4578149398131686    0.5082182610813959    0.7303183806868105
     0.0365841522684747    0.0026467580304228    0.7318309169165715
     0.3031850558419649    0.7850128380425758    0.0090955493228790
     0.5353448487968109    0.4868094225005422    0.2337121383219056

  0.00000000E+00  0.00000000E+00  0.00000000E+00
  0.00000000E+00  0.00000000E+00  0.00000000E+00
  0.00000000E+00  0.00000000E+00  0.00000000E+00
  0.00000000E+00  0.00000000E+00  0.00000000E+00
  0.00000000E+00  0.00000000E+00  0.00000000E+00
  0.00000000E+00  0.00000000E+00  0.00000000E+00
  0.00000000E+00  0.00000000E+00  0.00000000E+00
  0.00000000E+00  0.00000000E+00  0.00000000E+00
  0.00000000E+00  0.00000000E+00  0.00000000E+00
  0.00000000E+00  0.00000000E+00  0.00000000E+00
  0.00000000E+00  0.00000000E+00  0.00000000E+00
  0.00000000E+00  0.00000000E+00  0.00000000E+00
  0.00000000E+00  0.00000000E+00  0.00000000E+00
  0.00000000E+00  0.00000000E+00  0.00000000E+00
  0.00000000E+00  0.00000000E+00  0.00000000E+00
  0.00000000E+00  0.00000000E+00  0.00000000E+00
  0.00000000E+00  0.00000000E+00  0.00000000E+00
  0.00000000E+00  0.00000000E+00  0.00000000E+00
  0.00000000E+00  0.00000000E+00  0.00000000E+00
  0.00000000E+00  0.00000000E+00  0.00000000E+00
  0.00000000E+00  0.00000000E+00  0.00000000E+00
  0.00000000E+00  0.00000000E+00  0.00000000E+00
  0.00000000E+00  0.00000000E+00  0.00000000E+00
  0.00000000E+00  0.00000000E+00  0.00000000E+00
  0.00000000E+00  0.00000000E+00  0.00000000E+00
  0.00000000E+00  0.00000000E+00  0.00000000E+00
  0.00000000E+00  0.00000000E+00  0.00000000E+00
  0.00000000E+00  0.00000000E+00  0.00000000E+00
  0.00000000E+00  0.00000000E+00  0.00000000E+00
  0.00000000E+00  0.00000000E+00  0.00000000E+00
  0.00000000E+00  0.00000000E+00  0.00000000E+00
  0.00000000E+00  0.00000000E+00  0.00000000E+00
  0.00000000E+00  0.00000000E+00  0.00000000E+00
  0.00000000E+00  0.00000000E+00  0.00000000E+00
  0.00000000E+00  0.00000000E+00  0.00000000E+00
  0.00000000E+00  0.00000000E+00  0.00000000E+00
  0.00000000E+00  0.00000000E+00  0.00000000E+00
  0.00000000E+00  0.00000000E+00  0.00000000E+00
  0.00000000E+00  0.00000000E+00  0.00000000E+00
  0.00000000E+00  0.00000000E+00  0.00000000E+00
  0.00000000E+00  0.00000000E+00  0.00000000E+00
  0.00000000E+00  0.00000000E+00  0.00000000E+00
  0.00000000E+00  0.00000000E+00  0.00000000E+00
  0.00000000E+00  0.00000000E+00  0.00000000E+00
  0.00000000E+00  0.00000000E+00  0.00000000E+00
  0.00000000E+00  0.00000000E+00  0.00000000E+00
  0.00000000E+00  0.00000000E+00  0.00000000E+00
  0.00000000E+00  0.00000000E+00  0.00000000E+00
