C  N  H  Pb I 
 1.0000000000000000
     9.0193899931757802    0.0000000000000000    0.0000000000000000
     0.0000000000000000    8.7777678445653162    0.0000000000000000
     0.0000000000000000    0.0000000000000000   12.7961868062944486
 C   N   H   Pb  I  
   4   8  20   4  12
Direct
  0.5072450114340227  0.0444996579058958  0.2532852671152708
  0.0118821796581376  0.4654390598472699  0.7503834247315834
  0.9884582498914484  0.5362918650727186  0.2425479713244695
  0.4861868519524020  0.9644345965681415  0.7460179020133213
  0.5687760081118657  0.9464532883555756  0.1917367605318830
  0.0648716778478184  0.5677251300986123  0.6842182622528229
  0.1253341010752539  0.5778181561768719  0.2437164864541899
  0.6229731441243894  0.9074416379471314  0.7437523979954079
  0.3713815783011148  0.0742852766706060  0.2421786185636074
  0.8572838155434335  0.4090108349544296  0.7483278498576746
  0.9229542627323173  0.4382856951975981  0.1889784669826371
  0.4222752627545135  0.0623734492283535  0.6836506086384678
  0.5808550022855428  0.0925422647627237  0.3128373424792584
  0.0831040606759829  0.4042626785458387  0.8153414707465992
  0.9137484837120355  0.6066755320803437  0.3050946504770183
  0.4364946109364969  0.9074896125414047  0.8081918235145510
  0.6866675990474297  0.9205530737473978  0.2003810382568169
  0.1815737680185988  0.5883583430148291  0.6992609774681678
  0.1712144025829316  0.6547486225276936  0.2921117554057550
  0.6736144456677087  0.8378659600043918  0.7967828619755558
  0.5191637315518778  0.8752742274648770  0.1306749651204887
  0.0163910511583347  0.6227861897099085  0.6295737254246120
  0.2041895461355046  0.5370479722429929  0.1834058822618519
  0.6989184254582897  0.9596768971810405  0.6867440808271568
  0.2958887609931427  0.0320853923499081  0.1893868402571657
  0.8006487983745856  0.4589252458331304  0.6842556289926532
  0.9835528728007685  0.3780326893221947  0.1334646040060775
  0.4821736094087446  0.1036629968638098  0.6339778120258778
  0.3244092809890490  0.1690315136185388  0.2910698317110345
  0.8339633854468561  0.3412679363173625  0.7910910642686917
  0.8287351032654895  0.4281130364462739  0.2032297588595658
  0.3293125587021544  0.0864063261487013  0.6975311085298610
  0.5068821135098674  0.4831654458512398  0.9814915233982895
  0.0024295861039155  0.9995784966057917  0.4779631935296206
  0.9844822879638896  0.9871029446530319  0.9835418271289322
  0.5001847450077186  0.5076591087165340  0.4779157898982268
  0.7931500491524408  0.7105202334662439  0.5094328541138268
  0.9650273609812773  0.0030731252488095  0.2253055310095421
  0.7106591984412933  0.1957625298654351  0.9582540967616640
  0.2031388096015388  0.2803156292397881  0.0106798224030095
  0.2063176888805490  0.3040067610133356  0.4705130777961976
  0.2963769902414551  0.8082961923480613  0.4606235045979603
  0.7921058782500862  0.6878177305487613  0.9653450501947847
  0.7015950318846530  0.2085274329188844  0.4959380021746657
  0.4578149398131686  0.5082182610813992  0.7303183806868085
  0.0365841522684713  0.0026467580304262  0.7318309169165745
  0.3031850558419639  0.7850128380425749  0.0090955493228792
  0.5353448487968134  0.4868094225005444  0.2337121383219055
Cartesian
  0.0000000000000000  0.0000000000000000  0.0000000000000000
  0.0000000000000000  0.0000000000000000  0.0000000000000000
  0.0000000000000000  0.0000000000000000  0.0000000000000000
  0.0000000000000000  0.0000000000000000  0.0000000000000000
  0.0000000000000000  0.0000000000000000  0.0000000000000000
  0.0000000000000000  0.0000000000000000  0.0000000000000000
  0.0000000000000000  0.0000000000000000  0.0000000000000000
  0.0000000000000000  0.0000000000000000  0.0000000000000000
  0.0000000000000000  0.0000000000000000  0.0000000000000000
  0.0000000000000000  0.0000000000000000  0.0000000000000000
  0.0000000000000000  0.0000000000000000  0.0000000000000000
  0.0000000000000000  0.0000000000000000  0.0000000000000000
  0.0000000000000000  0.0000000000000000  0.0000000000000000
  0.0000000000000000  0.0000000000000000  0.0000000000000000
  0.0000000000000000  0.0000000000000000  0.0000000000000000
  0.0000000000000000  0.0000000000000000  0.0000000000000000
  0.0000000000000000  0.0000000000000000  0.0000000000000000
  0.0000000000000000  0.0000000000000000  0.0000000000000000
  0.0000000000000000  0.0000000000000000  0.0000000000000000
  0.0000000000000000  0.0000000000000000  0.0000000000000000
  0.0000000000000000  0.0000000000000000  0.0000000000000000
  0.0000000000000000  0.0000000000000000  0.0000000000000000
  0.0000000000000000  0.0000000000000000  0.0000000000000000
  0.0000000000000000  0.0000000000000000  0.0000000000000000
  0.0000000000000000  0.0000000000000000  0.0000000000000000
  0.0000000000000000  0.0000000000000000  0.0000000000000000
  0.0000000000000000  0.0000000000000000  0.0000000000000000
  0.0000000000000000  0.0000000000000000  0.0000000000000000
  0.0000000000000000  0.0000000000000000  0.0000000000000000
  0.0000000000000000  0.0000000000000000  0.0000000000000000
  0.0000000000000000  0.0000000000000000  0.0000000000000000
  0.0000000000000000  0.0000000000000000  0.0000000000000000
  0.0000000000000000  0.0000000000000000  0.0000000000000000
  0.0000000000000000  0.0000000000000000  0.0000000000000000
  0.0000000000000000  0.0000000000000000  0.0000000000000000
  0.0000000000000000  0.0000000000000000  0.0000000000000000
  0.0000000000000000  0.0000000000000000  0.0000000000000000
  0.0000000000000000  0.0000000000000000  0.0000000000000000
  0.0000000000000000  0.0000000000000000  0.0000000000000000
  0.0000000000000000  0.0000000000000000  0.0000000000000000
  0.0000000000000000  0.0000000000000000  0.0000000000000000
  0.0000000000000000  0.0000000000000000  0.0000000000000000
  0.0000000000000000  0.0000000000000000  0.0000000000000000
  0.0000000000000000  0.0000000000000000  0.0000000000000000
  0.0000000000000000  0.0000000000000000  0.0000000000000000
  0.0000000000000000  0.0000000000000000  0.0000000000000000
  0.0000000000000000  0.0000000000000000  0.0000000000000000
  0.0000000000000000  0.0000000000000000  0.0000000000000000
