C  N  H  Pb I                           
   1.0000000000000000     
     8.9718789780826214   -0.0217262948020257    0.0190840094686991
    -0.0211442649712521    8.7454793192054083    0.0144648969872603
     0.0270752845102976    0.0210868557086969   12.9463093817350714
  C               N               H               Pb              I             
     4     8    20     4    12
Direct
     0.5065646719781327    0.0361022203609522    0.2481026395564072
     0.0071756210526388    0.4598625596411594    0.7510366817954193
     0.9889162704646708    0.5391949516329504    0.2445075509620835
     0.4885494588182908    0.9547026435785710    0.7477618763640379
     0.5561750156799050    0.9301822153127048    0.1843155667429599
     0.0707306286276221    0.5629273884734403    0.6911968248361120
     0.1286335507142624    0.5832266390708014    0.2411541682071885
     0.6329040845003462    0.9153448120383629    0.7433720728259274
     0.3790824360394041    0.0885969592105980    0.2475197518792598
     0.8692516627687894    0.4145268270056235    0.7420582365047466
     0.9299651513051401    0.4323656821152468    0.1895167183156303
     0.4247382948939560    0.0597750516642037    0.6893284138946356
     0.5902924151577196    0.0855008362949974    0.3014046777463122
     0.0767767893769218    0.4036188394747100    0.8076206607360206
     0.9227881599026091    0.5957204507184741    0.3068629533093841
     0.4229557693179586    0.9021996714624976    0.8095884801394106
     0.6700133331713261    0.8996479559157891    0.1830435999074780
     0.1789859605183679    0.5841907494434722    0.6980301630866492
     0.1735329459147010    0.6654956038991457    0.2930877132232226
     0.6743821035549260    0.8388054038284380    0.7918222643357709
     0.4926113231193625    0.8802509268735790    0.1280380532783951
     0.0136587590069226    0.6241639895549227    0.6309830318739742
     0.2017564890051347    0.5395955715001506    0.1907409219127558
     0.7032431906423326    0.9636589464397289    0.6889722296332437
     0.2965712114165058    0.0502191088239670    0.2024056939587595
     0.7968404682367662    0.4620562925267180    0.6877142465941830
     0.9859350599954695    0.3783597189259140    0.1314552049481676
     0.4874957289370698    0.1235782734899189    0.6309611233167729
     0.3504734282698863    0.1680438803214557    0.3030327762772842
     0.8276391098968361    0.3345734646291163    0.7909346146531959
     0.8182765153332525    0.4214974967221394    0.1978717745402747
     0.3207219694196155    0.0831619689090530    0.7009364290281042
     0.4998642940801545    0.4856059071513243    0.9769553860625351
     0.0018327403353666    0.0107104382948648    0.4825727720448754
     0.0016463358270613    0.9864345490379094    0.9810020558169725
     0.4965222557047326    0.5173719186965329    0.4786199896173358
     0.7939187879652110    0.7074465696328360    0.5061289450307171
     0.9632093078384827    0.9948244047401289    0.2302608845548306
     0.7100969372323505    0.1946279124380368    0.9618907659407228
     0.2047283250165606    0.2871271559207926    0.0034043686967564
     0.2074723574285500    0.3024545261413323    0.4623211090600421
     0.2981423875895786    0.8019348182485118    0.4631333747001989
     0.7949358482039344    0.6950713858837005    0.9628775718035172
     0.7023523069624815    0.2057832225980292    0.5024190858211028
     0.4604819396305757    0.5044193669439636    0.7346302738752613
     0.0408467087315714    0.0033518971771684    0.7308827585352304
     0.2976817448321754    0.7977755177827177    0.0027150946687726
     0.5373753044180063    0.4943275395507953    0.2323906373391651

  0.00000000E+00  0.00000000E+00  0.00000000E+00
  0.00000000E+00  0.00000000E+00  0.00000000E+00
  0.00000000E+00  0.00000000E+00  0.00000000E+00
  0.00000000E+00  0.00000000E+00  0.00000000E+00
  0.00000000E+00  0.00000000E+00  0.00000000E+00
  0.00000000E+00  0.00000000E+00  0.00000000E+00
  0.00000000E+00  0.00000000E+00  0.00000000E+00
  0.00000000E+00  0.00000000E+00  0.00000000E+00
  0.00000000E+00  0.00000000E+00  0.00000000E+00
  0.00000000E+00  0.00000000E+00  0.00000000E+00
  0.00000000E+00  0.00000000E+00  0.00000000E+00
  0.00000000E+00  0.00000000E+00  0.00000000E+00
  0.00000000E+00  0.00000000E+00  0.00000000E+00
  0.00000000E+00  0.00000000E+00  0.00000000E+00
  0.00000000E+00  0.00000000E+00  0.00000000E+00
  0.00000000E+00  0.00000000E+00  0.00000000E+00
  0.00000000E+00  0.00000000E+00  0.00000000E+00
  0.00000000E+00  0.00000000E+00  0.00000000E+00
  0.00000000E+00  0.00000000E+00  0.00000000E+00
  0.00000000E+00  0.00000000E+00  0.00000000E+00
  0.00000000E+00  0.00000000E+00  0.00000000E+00
  0.00000000E+00  0.00000000E+00  0.00000000E+00
  0.00000000E+00  0.00000000E+00  0.00000000E+00
  0.00000000E+00  0.00000000E+00  0.00000000E+00
  0.00000000E+00  0.00000000E+00  0.00000000E+00
  0.00000000E+00  0.00000000E+00  0.00000000E+00
  0.00000000E+00  0.00000000E+00  0.00000000E+00
  0.00000000E+00  0.00000000E+00  0.00000000E+00
  0.00000000E+00  0.00000000E+00  0.00000000E+00
  0.00000000E+00  0.00000000E+00  0.00000000E+00
  0.00000000E+00  0.00000000E+00  0.00000000E+00
  0.00000000E+00  0.00000000E+00  0.00000000E+00
  0.00000000E+00  0.00000000E+00  0.00000000E+00
  0.00000000E+00  0.00000000E+00  0.00000000E+00
  0.00000000E+00  0.00000000E+00  0.00000000E+00
  0.00000000E+00  0.00000000E+00  0.00000000E+00
  0.00000000E+00  0.00000000E+00  0.00000000E+00
  0.00000000E+00  0.00000000E+00  0.00000000E+00
  0.00000000E+00  0.00000000E+00  0.00000000E+00
  0.00000000E+00  0.00000000E+00  0.00000000E+00
  0.00000000E+00  0.00000000E+00  0.00000000E+00
  0.00000000E+00  0.00000000E+00  0.00000000E+00
  0.00000000E+00  0.00000000E+00  0.00000000E+00
  0.00000000E+00  0.00000000E+00  0.00000000E+00
  0.00000000E+00  0.00000000E+00  0.00000000E+00
  0.00000000E+00  0.00000000E+00  0.00000000E+00
  0.00000000E+00  0.00000000E+00  0.00000000E+00
  0.00000000E+00  0.00000000E+00  0.00000000E+00
