C  N  H  Pb I 
 1.0000000000000000
     8.9718789780826214   -0.0217262948020257    0.0190840094686991
    -0.0211442649712521    8.7454793192054083    0.0144648969872603
     0.0270752845102976    0.0210868557086969   12.9463093817350714
 C   N   H   Pb  I  
   4   8  20   4  12
Direct
  0.5065646719781354  0.0361022203609491  0.2481026395564071
  0.0071756210526403  0.4598625596411620  0.7510366817954176
  0.9889162704646727  0.5391949516329517  0.2445075509620830
  0.4885494588182936  0.9547026435785729  0.7477618763640386
  0.5561750156799052  0.9301822153127020  0.1843155667429615
  0.0707306286276239  0.5629273884734370  0.6911968248361129
  0.1286335507142589  0.5832266390708031  0.2411541682071858
  0.6329040845003477  0.9153448120383654  0.7433720728259302
  0.3790824360394010  0.0885969592105953  0.2475197518792631
  0.8692516627687866  0.4145268270056225  0.7420582365047501
  0.9299651513051417  0.4323656821152440  0.1895167183156333
  0.4247382948939564  0.0597750516642045  0.6893284138946383
  0.5902924151577202  0.0855008362949999  0.3014046777463123
  0.0767767893769223  0.4036188394747132  0.8076206607360212
  0.9227881599026068  0.5957204507184714  0.3068629533093806
  0.4229557693179559  0.9021996714624991  0.8095884801394087
  0.6700133331713261  0.8996479559157859  0.1830435999074803
  0.1789859605183644  0.5841907494434730  0.6980301630866526
  0.1735329459147030  0.6654956038991441  0.2930877132232236
  0.6743821035549271  0.8388054038284393  0.7918222643357737
  0.4926113231193640  0.8802509268735789  0.1280380532783919
  0.0136587590069217  0.6241639895549241  0.6309830318739745
  0.2017564890051312  0.5395955715001511  0.1907409219127591
  0.7032431906423341  0.9636589464397302  0.6889722296332439
  0.2965712114165041  0.0502191088239659  0.2024056939587591
  0.7968404682367661  0.4620562925267147  0.6877142465941865
  0.9859350599954725  0.3783597189259125  0.1314552049481694
  0.4874957289370702  0.1235782734899199  0.6309611233167729
  0.3504734282698893  0.1680438803214576  0.3030327762772852
  0.8276391098968389  0.3345734646291151  0.7909346146531928
  0.8182765153332493  0.4214974967221402  0.1978717745402769
  0.3207219694196136  0.0831619689090518  0.7009364290281024
  0.4998642940801538  0.4856059071513253  0.9769553860625365
  0.0018327403353687  0.0107104382948635  0.4825727720448774
  0.0016463358270596  0.9864345490379114  0.9810020558169722
  0.4965222557047307  0.5173719186965331  0.4786199896173336
  0.7939187879652125  0.7074465696328376  0.5061289450307171
  0.9632093078384817  0.9948244047401276  0.2302608845548327
  0.7100969372323510  0.1946279124380336  0.9618907659407250
  0.2047283250165612  0.2871271559207937  0.0034043686967545
  0.2074723574285532  0.3024545261413353  0.4623211090600453
  0.2981423875895796  0.8019348182485094  0.4631333747001981
  0.7949358482039351  0.6950713858836972  0.9628775718035184
  0.7023523069624835  0.2057832225980263  0.5024190858210996
  0.4604819396305785  0.5044193669439621  0.7346302738752635
  0.0408467087315709  0.0033518971771685  0.7308827585352305
  0.2976817448321789  0.7977755177827147  0.0027150946687698
  0.5373753044180031  0.4943275395507969  0.2323906373391632
Cartesian
  0.0000000000000000  0.0000000000000000  0.0000000000000000
  0.0000000000000000  0.0000000000000000  0.0000000000000000
  0.0000000000000000  0.0000000000000000  0.0000000000000000
  0.0000000000000000  0.0000000000000000  0.0000000000000000
  0.0000000000000000  0.0000000000000000  0.0000000000000000
  0.0000000000000000  0.0000000000000000  0.0000000000000000
  0.0000000000000000  0.0000000000000000  0.0000000000000000
  0.0000000000000000  0.0000000000000000  0.0000000000000000
  0.0000000000000000  0.0000000000000000  0.0000000000000000
  0.0000000000000000  0.0000000000000000  0.0000000000000000
  0.0000000000000000  0.0000000000000000  0.0000000000000000
  0.0000000000000000  0.0000000000000000  0.0000000000000000
  0.0000000000000000  0.0000000000000000  0.0000000000000000
  0.0000000000000000  0.0000000000000000  0.0000000000000000
  0.0000000000000000  0.0000000000000000  0.0000000000000000
  0.0000000000000000  0.0000000000000000  0.0000000000000000
  0.0000000000000000  0.0000000000000000  0.0000000000000000
  0.0000000000000000  0.0000000000000000  0.0000000000000000
  0.0000000000000000  0.0000000000000000  0.0000000000000000
  0.0000000000000000  0.0000000000000000  0.0000000000000000
  0.0000000000000000  0.0000000000000000  0.0000000000000000
  0.0000000000000000  0.0000000000000000  0.0000000000000000
  0.0000000000000000  0.0000000000000000  0.0000000000000000
  0.0000000000000000  0.0000000000000000  0.0000000000000000
  0.0000000000000000  0.0000000000000000  0.0000000000000000
  0.0000000000000000  0.0000000000000000  0.0000000000000000
  0.0000000000000000  0.0000000000000000  0.0000000000000000
  0.0000000000000000  0.0000000000000000  0.0000000000000000
  0.0000000000000000  0.0000000000000000  0.0000000000000000
  0.0000000000000000  0.0000000000000000  0.0000000000000000
  0.0000000000000000  0.0000000000000000  0.0000000000000000
  0.0000000000000000  0.0000000000000000  0.0000000000000000
  0.0000000000000000  0.0000000000000000  0.0000000000000000
  0.0000000000000000  0.0000000000000000  0.0000000000000000
  0.0000000000000000  0.0000000000000000  0.0000000000000000
  0.0000000000000000  0.0000000000000000  0.0000000000000000
  0.0000000000000000  0.0000000000000000  0.0000000000000000
  0.0000000000000000  0.0000000000000000  0.0000000000000000
  0.0000000000000000  0.0000000000000000  0.0000000000000000
  0.0000000000000000  0.0000000000000000  0.0000000000000000
  0.0000000000000000  0.0000000000000000  0.0000000000000000
  0.0000000000000000  0.0000000000000000  0.0000000000000000
  0.0000000000000000  0.0000000000000000  0.0000000000000000
  0.0000000000000000  0.0000000000000000  0.0000000000000000
  0.0000000000000000  0.0000000000000000  0.0000000000000000
  0.0000000000000000  0.0000000000000000  0.0000000000000000
  0.0000000000000000  0.0000000000000000  0.0000000000000000
  0.0000000000000000  0.0000000000000000  0.0000000000000000
