C  N  H  Pb I                           
   1.0000000000000000     
     8.8363545972694357    0.0074455542992768    0.0020857393640542
     0.0074455542992768    8.9424584127612263    0.0558913242764254
     0.0014746649274759    0.0395164309985602    6.2436547482492362
  C               N               H               Pb              I             
     2     4    10     2     6
Direct
     0.4779658896753105    0.5013312943605754    0.5609982701763201
     0.9975477385596889    0.0003554429324453    0.5722213884598588
     0.5685260085173098    0.6125008746165435    0.5207627184773571
     0.4504832531332852    0.3882424921291374    0.4317086259487510
     0.0927134835692200    0.9061592568448660    0.4782411224022951
     0.9055507813322379    0.0904329264814621    0.4803109171879498
     0.4133248014355360    0.4988242352133554    0.7106752903559084
     0.5774961438870889    0.6928141955836438    0.6385185262100919
     0.6299076851394432    0.6281254229088944    0.3913647166062404
     0.5020406946030747    0.3782931686370858    0.2895873372184639
     0.3815158234558709    0.3062395289508260    0.4808153084298539
     0.9977836973139773    0.9998748191260489    0.7469950815250925
     0.1592743101983487    0.8424166092665430    0.5685444273346647
     0.1002411060684665    0.8978214664243467    0.3159079581277027
     0.8962374457262925    0.1037768488012887    0.3195259266690371
     0.8437089788585865    0.1583461907705512    0.5673380662778555
     0.9993718174409736    0.4967811458330686    0.9897402691944990
     0.5025555444902920    0.0019598911706353    0.9940692760720964
     0.0005274870108067    0.4999245832361296    0.4957099674275725
     0.4989245114782506    0.0011937945805300    0.4980633813634441
     0.2183295560195262    0.2170186055010461    0.9896539347271371
     0.2823647656254238    0.7202846038646413    0.9892228860368633
     0.7195671476854031    0.2835827625024265    0.9943483319361093
     0.7794121480428018    0.7795801847550052    0.9904523609707923

  0.00000000E+00  0.00000000E+00  0.00000000E+00
  0.00000000E+00  0.00000000E+00  0.00000000E+00
  0.00000000E+00  0.00000000E+00  0.00000000E+00
  0.00000000E+00  0.00000000E+00  0.00000000E+00
  0.00000000E+00  0.00000000E+00  0.00000000E+00
  0.00000000E+00  0.00000000E+00  0.00000000E+00
  0.00000000E+00  0.00000000E+00  0.00000000E+00
  0.00000000E+00  0.00000000E+00  0.00000000E+00
  0.00000000E+00  0.00000000E+00  0.00000000E+00
  0.00000000E+00  0.00000000E+00  0.00000000E+00
  0.00000000E+00  0.00000000E+00  0.00000000E+00
  0.00000000E+00  0.00000000E+00  0.00000000E+00
  0.00000000E+00  0.00000000E+00  0.00000000E+00
  0.00000000E+00  0.00000000E+00  0.00000000E+00
  0.00000000E+00  0.00000000E+00  0.00000000E+00
  0.00000000E+00  0.00000000E+00  0.00000000E+00
  0.00000000E+00  0.00000000E+00  0.00000000E+00
  0.00000000E+00  0.00000000E+00  0.00000000E+00
  0.00000000E+00  0.00000000E+00  0.00000000E+00
  0.00000000E+00  0.00000000E+00  0.00000000E+00
  0.00000000E+00  0.00000000E+00  0.00000000E+00
  0.00000000E+00  0.00000000E+00  0.00000000E+00
  0.00000000E+00  0.00000000E+00  0.00000000E+00
  0.00000000E+00  0.00000000E+00  0.00000000E+00
