C  N  H  Pb I 
 1.0000000000000000
     8.8363545972694357    0.0074455542992768    0.0020857393640542
     0.0074455542992768    8.9424584127612263    0.0558913242764254
     0.0014746649274759    0.0395164309985602    6.2436547482492362
 C   N   H   Pb  I  
   2   4  10   2   6
Direct
  0.4779658896753070  0.5013312943605748  0.5609982701763202
  0.9975477385596857  0.0003554429324460  0.5722213884598591
  0.5685260085173098  0.6125008746165435  0.5207627184773606
  0.4504832531332846  0.3882424921291378  0.4317086259487521
  0.0927134835692235  0.9061592568448630  0.4782411224022944
  0.9055507813322410  0.0904329264814641  0.4803109171879497
  0.4133248014355325  0.4988242352133541  0.7106752903559054
  0.5774961438870875  0.6928141955836461  0.6385185262100910
  0.6299076851394420  0.6281254229088972  0.3913647166062391
  0.5020406946030714  0.3782931686370893  0.2895873372184642
  0.3815158234558677  0.3062395289508227  0.4808153084298515
  0.9977836973139756  0.9998748191260460  0.7469950815250914
  0.1592743101983502  0.8424166092665463  0.5685444273346638
  0.1002411060684668  0.8978214664243491  0.3159079581277017
  0.8962374457262943  0.1037768488012903  0.3195259266690382
  0.8437089788585848  0.1583461907705478  0.5673380662778539
  0.9993718174409708  0.4967811458330689  0.9897402691945024
  0.5025555444902936  0.0019598911706358  0.9940692760720976
  0.0005274870108048  0.4999245832361309  0.4957099674275758
  0.4989245114782498  0.0011937945805275  0.4980633813634476
  0.2183295560195228  0.2170186055010493  0.9896539347271404
  0.2823647656254262  0.7202846038646395  0.9892228860368640
  0.7195671476854062  0.2835827625024255  0.9943483319361068
  0.7794121480428021  0.7795801847550051  0.9904523609707911
Cartesian
  0.0000000000000000  0.0000000000000000  0.0000000000000000
  0.0000000000000000  0.0000000000000000  0.0000000000000000
  0.0000000000000000  0.0000000000000000  0.0000000000000000
  0.0000000000000000  0.0000000000000000  0.0000000000000000
  0.0000000000000000  0.0000000000000000  0.0000000000000000
  0.0000000000000000  0.0000000000000000  0.0000000000000000
  0.0000000000000000  0.0000000000000000  0.0000000000000000
  0.0000000000000000  0.0000000000000000  0.0000000000000000
  0.0000000000000000  0.0000000000000000  0.0000000000000000
  0.0000000000000000  0.0000000000000000  0.0000000000000000
  0.0000000000000000  0.0000000000000000  0.0000000000000000
  0.0000000000000000  0.0000000000000000  0.0000000000000000
  0.0000000000000000  0.0000000000000000  0.0000000000000000
  0.0000000000000000  0.0000000000000000  0.0000000000000000
  0.0000000000000000  0.0000000000000000  0.0000000000000000
  0.0000000000000000  0.0000000000000000  0.0000000000000000
  0.0000000000000000  0.0000000000000000  0.0000000000000000
  0.0000000000000000  0.0000000000000000  0.0000000000000000
  0.0000000000000000  0.0000000000000000  0.0000000000000000
  0.0000000000000000  0.0000000000000000  0.0000000000000000
  0.0000000000000000  0.0000000000000000  0.0000000000000000
  0.0000000000000000  0.0000000000000000  0.0000000000000000
  0.0000000000000000  0.0000000000000000  0.0000000000000000
  0.0000000000000000  0.0000000000000000  0.0000000000000000
