C  N  H  Pb I                           
   1.0000000000000000     
     9.0193899931757802    0.0000000000000000    0.0000000000000000
     0.0000000000000000    8.7777678445653162    0.0000000000000000
     0.0000000000000000    0.0000000000000000   12.7961868062944486
  C               N               H               Pb              I             
     4     8    20     4    12
Direct
     0.5058720059818569    0.0477015678585460    0.2422744733954900
     0.0120138115028112    0.4562151432147417    0.7508129820803262
     0.9897350807760930    0.5425786635540817    0.2496074618575790
     0.4949329155122513    0.9678716456837719    0.7492420275257317
     0.5675601634281833    0.9363037369482399    0.1871120223192904
     0.0621238861029596    0.5578111758353188    0.6860197539298554
     0.1319846454036764    0.5796260356483671    0.2415945551795602
     0.6407757168127048    0.9158553430440861    0.7342040200656044
     0.3669187190058025    0.0779853071769736    0.2403078740215534
     0.8797981127673609    0.4165239037479793    0.7411873620380192
     0.9407609734950810    0.4284619267451433    0.1944182175727462
     0.4229006480126429    0.0598666463220923    0.6852678102519718
     0.5843416245303317    0.0962249517652296    0.3080273538639844
     0.0803700309637065    0.4082162687446882    0.8107621553561870
     0.9249628534243257    0.5968229405644863    0.3055703002870018
     0.4264705999552234    0.9092718753226876    0.8050042928247549
     0.6789636890681408    0.9121831209309690    0.1974669885308273
     0.1788173418944012    0.5901934424375028    0.7049907524606596
     0.1786462972081111    0.6628763009076835    0.2903858979939073
     0.6720892694888008    0.8322075609172188    0.7852319563075554
     0.5095516504456441    0.8785387573433923    0.1334539100002061
     0.0188456555383709    0.6212721377370016    0.6275682526088389
     0.2000995587414209    0.5293518452392405    0.1881827896985513
     0.7092404755529031    0.9616896953063048    0.6894854513467834
     0.2925302452104361    0.0410692125731487    0.1906445857891370
     0.7999177012158540    0.4543565097786697    0.6861752116712267
     0.9840803940710501    0.3859079489048653    0.1315714904384606
     0.4927019440039402    0.1146455721983415    0.6297865603108121
     0.3192151123474574    0.1645273710583339    0.2843602395277856
     0.8244084799643616    0.3386423289546059    0.7924841328436827
     0.8137264847773551    0.4127569049048674    0.1939805525896290
     0.3251786795116232    0.0898933660892283    0.6930343133633059
     0.5017622585831845    0.4850464352168018    0.9765188327912924
     0.0048434781615612    0.0136634178588295    0.4773894556153735
     0.9979881318463697    0.9830961410018659    0.9809956439125784
     0.4962005977812822    0.5057551179116899    0.4875586284688254
     0.7924251543792451    0.7102529521984309    0.5016975482991555
     0.9684727333047434    0.9905463103692185    0.2360590160982241
     0.7058215700248880    0.2012235145259993    0.9662748147911344
     0.2086550529490907    0.2865171270035773    0.0063753852723067
     0.2139189790312344    0.3016478912999716    0.4607805049911917
     0.2965192777993124    0.7999164409020096    0.4614060552156616
     0.7955240448199419    0.6960941644163228    0.9623540672510771
     0.7015713947782416    0.2143238259902844    0.5052096324058866
     0.4520882692348565    0.5077843737521093    0.7371785938876769
     0.0367642388228475    0.9988441572473832    0.7289140904373497
     0.3065415494749075    0.7933147804502525    0.0016841871100581
     0.5264071295013082    0.4952023697005430    0.2359559600714221

  0.00000000E+00  0.00000000E+00  0.00000000E+00
  0.00000000E+00  0.00000000E+00  0.00000000E+00
  0.00000000E+00  0.00000000E+00  0.00000000E+00
  0.00000000E+00  0.00000000E+00  0.00000000E+00
  0.00000000E+00  0.00000000E+00  0.00000000E+00
  0.00000000E+00  0.00000000E+00  0.00000000E+00
  0.00000000E+00  0.00000000E+00  0.00000000E+00
  0.00000000E+00  0.00000000E+00  0.00000000E+00
  0.00000000E+00  0.00000000E+00  0.00000000E+00
  0.00000000E+00  0.00000000E+00  0.00000000E+00
  0.00000000E+00  0.00000000E+00  0.00000000E+00
  0.00000000E+00  0.00000000E+00  0.00000000E+00
  0.00000000E+00  0.00000000E+00  0.00000000E+00
  0.00000000E+00  0.00000000E+00  0.00000000E+00
  0.00000000E+00  0.00000000E+00  0.00000000E+00
  0.00000000E+00  0.00000000E+00  0.00000000E+00
  0.00000000E+00  0.00000000E+00  0.00000000E+00
  0.00000000E+00  0.00000000E+00  0.00000000E+00
  0.00000000E+00  0.00000000E+00  0.00000000E+00
  0.00000000E+00  0.00000000E+00  0.00000000E+00
  0.00000000E+00  0.00000000E+00  0.00000000E+00
  0.00000000E+00  0.00000000E+00  0.00000000E+00
  0.00000000E+00  0.00000000E+00  0.00000000E+00
  0.00000000E+00  0.00000000E+00  0.00000000E+00
  0.00000000E+00  0.00000000E+00  0.00000000E+00
  0.00000000E+00  0.00000000E+00  0.00000000E+00
  0.00000000E+00  0.00000000E+00  0.00000000E+00
  0.00000000E+00  0.00000000E+00  0.00000000E+00
  0.00000000E+00  0.00000000E+00  0.00000000E+00
  0.00000000E+00  0.00000000E+00  0.00000000E+00
  0.00000000E+00  0.00000000E+00  0.00000000E+00
  0.00000000E+00  0.00000000E+00  0.00000000E+00
  0.00000000E+00  0.00000000E+00  0.00000000E+00
  0.00000000E+00  0.00000000E+00  0.00000000E+00
  0.00000000E+00  0.00000000E+00  0.00000000E+00
  0.00000000E+00  0.00000000E+00  0.00000000E+00
  0.00000000E+00  0.00000000E+00  0.00000000E+00
  0.00000000E+00  0.00000000E+00  0.00000000E+00
  0.00000000E+00  0.00000000E+00  0.00000000E+00
  0.00000000E+00  0.00000000E+00  0.00000000E+00
  0.00000000E+00  0.00000000E+00  0.00000000E+00
  0.00000000E+00  0.00000000E+00  0.00000000E+00
  0.00000000E+00  0.00000000E+00  0.00000000E+00
  0.00000000E+00  0.00000000E+00  0.00000000E+00
  0.00000000E+00  0.00000000E+00  0.00000000E+00
  0.00000000E+00  0.00000000E+00  0.00000000E+00
  0.00000000E+00  0.00000000E+00  0.00000000E+00
  0.00000000E+00  0.00000000E+00  0.00000000E+00
