C  N  H  Pb I 
 1.0000000000000000
     9.0193899931757802    0.0000000000000000    0.0000000000000000
     0.0000000000000000    8.7777678445653162    0.0000000000000000
     0.0000000000000000    0.0000000000000000   12.7961868062944486
 C   N   H   Pb  I  
   4   8  20   4  12
Direct
  0.5058720059818599  0.0477015678585481  0.2422744733954930
  0.0120138115028093  0.4562151432147425  0.7508129820803244
  0.9897350807760898  0.5425786635540781  0.2496074618575777
  0.4949329155122518  0.9678716456837689  0.7492420275257294
  0.5675601634281843  0.9363037369482414  0.1871120223192893
  0.0621238861029588  0.5578111758353219  0.6860197539298574
  0.1319846454036759  0.5796260356483687  0.2415945551795625
  0.6407757168127035  0.9158553430440860  0.7342040200656026
  0.3669187190058004  0.0779853071769746  0.2403078740215562
  0.8797981127673639  0.4165239037479795  0.7411873620380199
  0.9407609734950800  0.4284619267451438  0.1944182175727455
  0.4229006480126399  0.0598666463220943  0.6852678102519741
  0.5843416245303296  0.0962249517652322  0.3080273538639873
  0.0803700309637070  0.4082162687446870  0.8107621553561888
  0.9249628534243227  0.5968229405644830  0.3055703002870033
  0.4264705999552205  0.9092718753226853  0.8050042928247551
  0.6789636890681422  0.9121831209309719  0.1974669885308282
  0.1788173418944014  0.5901934424375004  0.7049907524606600
  0.1786462972081084  0.6628763009076846  0.2903858979939097
  0.6720892694887993  0.8322075609172160  0.7852319563075575
  0.5095516504456423  0.8785387573433922  0.1334539100002050
  0.0188456555383714  0.6212721377370036  0.6275682526088416
  0.2000995587414174  0.5293518452392413  0.1881827896985525
  0.7092404755528998  0.9616896953063039  0.6894854513467820
  0.2925302452104389  0.0410692125731521  0.1906445857891355
  0.7999177012158534  0.4543565097786701  0.6861752116712246
  0.9840803940710530  0.3859079489048673  0.1315714904384596
  0.4927019440039415  0.1146455721983416  0.6297865603108141
  0.3192151123474557  0.1645273710583308  0.2843602395277863
  0.8244084799643626  0.3386423289546087  0.7924841328436819
  0.8137264847773577  0.4127569049048709  0.1939805525896289
  0.3251786795116240  0.0898933660892314  0.6930343133633049
  0.5017622585831875  0.4850464352168003  0.9765188327912949
  0.0048434781615589  0.0136634178588279  0.4773894556153728
  0.9979881318463713  0.9830961410018683  0.9809956439125782
  0.4962005977812797  0.5057551179116880  0.4875586284688267
  0.7924251543792487  0.7102529521984322  0.5016975482991566
  0.9684727333047449  0.9905463103692165  0.2360590160982233
  0.7058215700248877  0.2012235145259975  0.9662748147911357
  0.2086550529490887  0.2865171270035805  0.0063753852723040
  0.2139189790312344  0.3016478912999684  0.4607805049911892
  0.2965192777993125  0.7999164409020108  0.4614060552156619
  0.7955240448199443  0.6960941644163250  0.9623540672510774
  0.7015713947782423  0.2143238259902812  0.5052096324058887
  0.4520882692348593  0.5077843737521082  0.7371785938876773
  0.0367642388228468  0.9988441572473831  0.7289140904373498
  0.3065415494749088  0.7933147804502517  0.0016841871100592
  0.5264071295013070  0.4952023697005422  0.2359559600714189
Cartesian
  0.0000000000000000  0.0000000000000000  0.0000000000000000
  0.0000000000000000  0.0000000000000000  0.0000000000000000
  0.0000000000000000  0.0000000000000000  0.0000000000000000
  0.0000000000000000  0.0000000000000000  0.0000000000000000
  0.0000000000000000  0.0000000000000000  0.0000000000000000
  0.0000000000000000  0.0000000000000000  0.0000000000000000
  0.0000000000000000  0.0000000000000000  0.0000000000000000
  0.0000000000000000  0.0000000000000000  0.0000000000000000
  0.0000000000000000  0.0000000000000000  0.0000000000000000
  0.0000000000000000  0.0000000000000000  0.0000000000000000
  0.0000000000000000  0.0000000000000000  0.0000000000000000
  0.0000000000000000  0.0000000000000000  0.0000000000000000
  0.0000000000000000  0.0000000000000000  0.0000000000000000
  0.0000000000000000  0.0000000000000000  0.0000000000000000
  0.0000000000000000  0.0000000000000000  0.0000000000000000
  0.0000000000000000  0.0000000000000000  0.0000000000000000
  0.0000000000000000  0.0000000000000000  0.0000000000000000
  0.0000000000000000  0.0000000000000000  0.0000000000000000
  0.0000000000000000  0.0000000000000000  0.0000000000000000
  0.0000000000000000  0.0000000000000000  0.0000000000000000
  0.0000000000000000  0.0000000000000000  0.0000000000000000
  0.0000000000000000  0.0000000000000000  0.0000000000000000
  0.0000000000000000  0.0000000000000000  0.0000000000000000
  0.0000000000000000  0.0000000000000000  0.0000000000000000
  0.0000000000000000  0.0000000000000000  0.0000000000000000
  0.0000000000000000  0.0000000000000000  0.0000000000000000
  0.0000000000000000  0.0000000000000000  0.0000000000000000
  0.0000000000000000  0.0000000000000000  0.0000000000000000
  0.0000000000000000  0.0000000000000000  0.0000000000000000
  0.0000000000000000  0.0000000000000000  0.0000000000000000
  0.0000000000000000  0.0000000000000000  0.0000000000000000
  0.0000000000000000  0.0000000000000000  0.0000000000000000
  0.0000000000000000  0.0000000000000000  0.0000000000000000
  0.0000000000000000  0.0000000000000000  0.0000000000000000
  0.0000000000000000  0.0000000000000000  0.0000000000000000
  0.0000000000000000  0.0000000000000000  0.0000000000000000
  0.0000000000000000  0.0000000000000000  0.0000000000000000
  0.0000000000000000  0.0000000000000000  0.0000000000000000
  0.0000000000000000  0.0000000000000000  0.0000000000000000
  0.0000000000000000  0.0000000000000000  0.0000000000000000
  0.0000000000000000  0.0000000000000000  0.0000000000000000
  0.0000000000000000  0.0000000000000000  0.0000000000000000
  0.0000000000000000  0.0000000000000000  0.0000000000000000
  0.0000000000000000  0.0000000000000000  0.0000000000000000
  0.0000000000000000  0.0000000000000000  0.0000000000000000
  0.0000000000000000  0.0000000000000000  0.0000000000000000
  0.0000000000000000  0.0000000000000000  0.0000000000000000
  0.0000000000000000  0.0000000000000000  0.0000000000000000
