C  N  H  Pb I                           
   1.0000000000000000     
     8.9591311664050064    0.0553681156030475   -0.0178393153169534
     0.0553681156030475    8.8555251431363651    0.0231741167294875
    -0.0126127996054889    0.0163846249225416    6.3277961472805719
  C               N               H               Pb              I             
     2     4    10     2     6
Direct
     0.5166869537994074    0.5262483793547901    0.5553458793535953
     0.0108217707878993    0.9880808789149853    0.5696802299570649
     0.5894145792113079    0.5435398236123063    0.3732137539033005
     0.4027263470736955    0.4329944492490441    0.5852400343299138
     0.0818876938586826    0.9106301593051640    0.4420518158997737
     0.9038137033529168    0.0867313833020589    0.5258293616087002
     0.5524618222836111    0.5971538578932041    0.6946134453832755
     0.6698892810727983    0.6168837786660859    0.3598860434044440
     0.5602882831405296    0.4854789440162648    0.2457588860062003
     0.3578972565287302    0.3596806138975879    0.4792825989593865
     0.3481243657985402    0.4319133922275924    0.7345944937278048
     0.0406183901278823    0.9818711485683878    0.7283702421193894
     0.1671397923794160    0.8342196451700516    0.4948817661555225
     0.0680229377396770    0.9146295946424630    0.2774562552492768
     0.8710023539886578    0.1117442897355190    0.3783700566701143
     0.8577496638155750    0.1498969115327782    0.6324755445977317
     0.9961189242498492    0.4943498851345822    0.9931409503209068
     0.5002439386701170    0.9934351786625442    0.0040563372856681
     0.9934020915568311    0.5009727297680939    0.4843930029944659
     0.5005981226408736    0.9941724387652187    0.4978505193041656
     0.2223372927635978    0.2192287441933161    0.9878065802708207
     0.2762526944652848    0.7222628411995018    0.9867126027965085
     0.7192467242882969    0.2791511478718363    0.9907667733082732
     0.7782653849623173    0.7794274103444607    0.9948964540511724

  0.00000000E+00  0.00000000E+00  0.00000000E+00
  0.00000000E+00  0.00000000E+00  0.00000000E+00
  0.00000000E+00  0.00000000E+00  0.00000000E+00
  0.00000000E+00  0.00000000E+00  0.00000000E+00
  0.00000000E+00  0.00000000E+00  0.00000000E+00
  0.00000000E+00  0.00000000E+00  0.00000000E+00
  0.00000000E+00  0.00000000E+00  0.00000000E+00
  0.00000000E+00  0.00000000E+00  0.00000000E+00
  0.00000000E+00  0.00000000E+00  0.00000000E+00
  0.00000000E+00  0.00000000E+00  0.00000000E+00
  0.00000000E+00  0.00000000E+00  0.00000000E+00
  0.00000000E+00  0.00000000E+00  0.00000000E+00
  0.00000000E+00  0.00000000E+00  0.00000000E+00
  0.00000000E+00  0.00000000E+00  0.00000000E+00
  0.00000000E+00  0.00000000E+00  0.00000000E+00
  0.00000000E+00  0.00000000E+00  0.00000000E+00
  0.00000000E+00  0.00000000E+00  0.00000000E+00
  0.00000000E+00  0.00000000E+00  0.00000000E+00
  0.00000000E+00  0.00000000E+00  0.00000000E+00
  0.00000000E+00  0.00000000E+00  0.00000000E+00
  0.00000000E+00  0.00000000E+00  0.00000000E+00
  0.00000000E+00  0.00000000E+00  0.00000000E+00
  0.00000000E+00  0.00000000E+00  0.00000000E+00
  0.00000000E+00  0.00000000E+00  0.00000000E+00
