C  N  H  Pb I 
 1.0000000000000000
     8.9591311664050064    0.0553681156030475   -0.0178393153169534
     0.0553681156030475    8.8555251431363651    0.0231741167294875
    -0.0126127996054889    0.0163846249225416    6.3277961472805719
 C   N   H   Pb  I  
   2   4  10   2   6
Direct
  0.5166869537994069  0.5262483793547873  0.5553458793535940
  0.0108217707878993  0.9880808789149841  0.5696802299570657
  0.5894145792113105  0.5435398236123068  0.3732137539032995
  0.4027263470736968  0.4329944492490446  0.5852400343299159
  0.0818876938586793  0.9106301593051659  0.4420518158997729
  0.9038137033529164  0.0867313833020596  0.5258293616086984
  0.5524618222836144  0.5971538578932070  0.6946134453832784
  0.6698892810727995  0.6168837786660872  0.3598860434044464
  0.5602882831405321  0.4854789440162629  0.2457588860062034
  0.3578972565287294  0.3596806138975912  0.4792825989593899
  0.3481243657985418  0.4319133922275957  0.7345944937278047
  0.0406183901278840  0.9818711485683874  0.7283702421193887
  0.1671397923794153  0.8342196451700523  0.4948817661555235
  0.0680229377396773  0.9146295946424629  0.2774562552492753
  0.8710023539886597  0.1117442897355217  0.3783700566701156
  0.8577496638155773  0.1498969115327758  0.6324755445977343
  0.9961189242498493  0.4943498851345832  0.9931409503209065
  0.5002439386701149  0.9934351786625408  0.0040563372856648
  0.9934020915568317  0.5009727297680958  0.4843930029944636
  0.5005981226408761  0.9941724387652154  0.4978505193041662
  0.2223372927635947  0.2192287441933169  0.9878065802708228
  0.2762526944652824  0.7222628411995012  0.9867126027965114
  0.7192467242882981  0.2791511478718381  0.9907667733082753
  0.7782653849623156  0.7794274103444574  0.9948964540511742
Cartesian
  0.0000000000000000  0.0000000000000000  0.0000000000000000
  0.0000000000000000  0.0000000000000000  0.0000000000000000
  0.0000000000000000  0.0000000000000000  0.0000000000000000
  0.0000000000000000  0.0000000000000000  0.0000000000000000
  0.0000000000000000  0.0000000000000000  0.0000000000000000
  0.0000000000000000  0.0000000000000000  0.0000000000000000
  0.0000000000000000  0.0000000000000000  0.0000000000000000
  0.0000000000000000  0.0000000000000000  0.0000000000000000
  0.0000000000000000  0.0000000000000000  0.0000000000000000
  0.0000000000000000  0.0000000000000000  0.0000000000000000
  0.0000000000000000  0.0000000000000000  0.0000000000000000
  0.0000000000000000  0.0000000000000000  0.0000000000000000
  0.0000000000000000  0.0000000000000000  0.0000000000000000
  0.0000000000000000  0.0000000000000000  0.0000000000000000
  0.0000000000000000  0.0000000000000000  0.0000000000000000
  0.0000000000000000  0.0000000000000000  0.0000000000000000
  0.0000000000000000  0.0000000000000000  0.0000000000000000
  0.0000000000000000  0.0000000000000000  0.0000000000000000
  0.0000000000000000  0.0000000000000000  0.0000000000000000
  0.0000000000000000  0.0000000000000000  0.0000000000000000
  0.0000000000000000  0.0000000000000000  0.0000000000000000
  0.0000000000000000  0.0000000000000000  0.0000000000000000
  0.0000000000000000  0.0000000000000000  0.0000000000000000
  0.0000000000000000  0.0000000000000000  0.0000000000000000
