C  N  H  Pb I                           
   1.0000000000000000     
     9.0179545010098856    0.0204887979214004    0.0059307975612564
     0.0199399196291922    8.9037737213659440   -0.0042965161749307
     0.0084142712047681   -0.0062634401552006   12.9767261113970722
  C               N               H               Pb              I             
     4     8    20     4    12
Direct
     0.5092042513800763    0.0409118049530264    0.2464024298580441
     0.0104030085349578    0.4617459778232345    0.7464626227836177
     0.0133861771074208    0.5528048807255530    0.2538105919430933
     0.4897051415369731    0.9611824351877303    0.7468164955129311
     0.5735509720515140    0.9346178204992484    0.1906385574398470
     0.0676603552160913    0.5683750752245871    0.6936194219142706
     0.1250942737186378    0.5691543855398322    0.1950854453326585
     0.5919773437915197    0.8704901828209302    0.7076222490536850
     0.3689662374241749    0.0820331066864384    0.2327248201652239
     0.8692448366341381    0.4138199350596636    0.7394724013498717
     0.9108879348035543    0.4430433501232116    0.2406110816694280
     0.4739559764185017    0.1065198526098854    0.7249324671493298
     0.5794756021630008    0.0995298680603085    0.3082610160495420
     0.0753975328422101    0.4000597426655332    0.8084834743210010
     0.0140498472948281    0.6260757462995983    0.3227313266372107
     0.4056804171798518    0.9068000443981390    0.8010794464491156
     0.6827522315840469    0.9202594469909826    0.1996992280948575
     0.1831256556187810    0.5801557468097229    0.6953048756354434
     0.2080634697449213    0.6475263049862292    0.2062949455972571
     0.5987401041077831    0.7689609968108897    0.7359587845640618
     0.5145484688300996    0.8796457088919922    0.1293014001199069
     0.0171361648486226    0.6169443951367768    0.6311380275133089
     0.1509291536442916    0.5031994557723891    0.1241008755209521
     0.6729155663272905    0.9108602056217237    0.6563039166841804
     0.2981654222961723    0.0376129459865808    0.1903120433058021
     0.7960052414569390    0.4667149773693922    0.6869520697186857
     0.9080641762512869    0.3793429895423657    0.1686390909702453
     0.5420969458398375    0.1626261452389528    0.6666436916676446
     0.3286153179060847    0.1577416586757039    0.2897953179992925
     0.8189746828484630    0.3412430411948293    0.7898581254667150
     0.8239702902265336    0.4489880466796592    0.2819679792434400
     0.3792215632876292    0.1670779411692038    0.7482650250482763
     0.5021880381815649    0.4804389689972624    0.9824330153273308
     0.9971384173189790    0.0084642489135547    0.4824711246671711
     0.9998864655406123    0.9849195100159491    0.9842026133185726
     0.4962836625970297    0.5129279519382521    0.4787884159531401
     0.7842043163505394    0.7047720366476042    0.4989789068024706
     0.9664737790684015    0.9928971053959970    0.2311775627263017
     0.7066777693781745    0.1949521201051354    0.9613186528640725
     0.2036844625909637    0.2848863778233195    0.0018022323325440
     0.2094153384858259    0.2983029073047589    0.4620496405313332
     0.3001393077006682    0.8044067044684553    0.4593977239513976
     0.7928199626060035    0.6898366366228785    0.9596996272970983
     0.6953598970742050    0.2105109883274565    0.4995550152593324
     0.4593413270672997    0.5082583045050910    0.7321431893744688
     0.0363484756945454    0.0086662285903287    0.7302998633038200
     0.2922584448326262    0.7886125585657027    0.0018248695466028
     0.5439973082296632    0.4931304851888996    0.2333339754747357

  0.00000000E+00  0.00000000E+00  0.00000000E+00
  0.00000000E+00  0.00000000E+00  0.00000000E+00
  0.00000000E+00  0.00000000E+00  0.00000000E+00
  0.00000000E+00  0.00000000E+00  0.00000000E+00
  0.00000000E+00  0.00000000E+00  0.00000000E+00
  0.00000000E+00  0.00000000E+00  0.00000000E+00
  0.00000000E+00  0.00000000E+00  0.00000000E+00
  0.00000000E+00  0.00000000E+00  0.00000000E+00
  0.00000000E+00  0.00000000E+00  0.00000000E+00
  0.00000000E+00  0.00000000E+00  0.00000000E+00
  0.00000000E+00  0.00000000E+00  0.00000000E+00
  0.00000000E+00  0.00000000E+00  0.00000000E+00
  0.00000000E+00  0.00000000E+00  0.00000000E+00
  0.00000000E+00  0.00000000E+00  0.00000000E+00
  0.00000000E+00  0.00000000E+00  0.00000000E+00
  0.00000000E+00  0.00000000E+00  0.00000000E+00
  0.00000000E+00  0.00000000E+00  0.00000000E+00
  0.00000000E+00  0.00000000E+00  0.00000000E+00
  0.00000000E+00  0.00000000E+00  0.00000000E+00
  0.00000000E+00  0.00000000E+00  0.00000000E+00
  0.00000000E+00  0.00000000E+00  0.00000000E+00
  0.00000000E+00  0.00000000E+00  0.00000000E+00
  0.00000000E+00  0.00000000E+00  0.00000000E+00
  0.00000000E+00  0.00000000E+00  0.00000000E+00
  0.00000000E+00  0.00000000E+00  0.00000000E+00
  0.00000000E+00  0.00000000E+00  0.00000000E+00
  0.00000000E+00  0.00000000E+00  0.00000000E+00
  0.00000000E+00  0.00000000E+00  0.00000000E+00
  0.00000000E+00  0.00000000E+00  0.00000000E+00
  0.00000000E+00  0.00000000E+00  0.00000000E+00
  0.00000000E+00  0.00000000E+00  0.00000000E+00
  0.00000000E+00  0.00000000E+00  0.00000000E+00
  0.00000000E+00  0.00000000E+00  0.00000000E+00
  0.00000000E+00  0.00000000E+00  0.00000000E+00
  0.00000000E+00  0.00000000E+00  0.00000000E+00
  0.00000000E+00  0.00000000E+00  0.00000000E+00
  0.00000000E+00  0.00000000E+00  0.00000000E+00
  0.00000000E+00  0.00000000E+00  0.00000000E+00
  0.00000000E+00  0.00000000E+00  0.00000000E+00
  0.00000000E+00  0.00000000E+00  0.00000000E+00
  0.00000000E+00  0.00000000E+00  0.00000000E+00
  0.00000000E+00  0.00000000E+00  0.00000000E+00
  0.00000000E+00  0.00000000E+00  0.00000000E+00
  0.00000000E+00  0.00000000E+00  0.00000000E+00
  0.00000000E+00  0.00000000E+00  0.00000000E+00
  0.00000000E+00  0.00000000E+00  0.00000000E+00
  0.00000000E+00  0.00000000E+00  0.00000000E+00
  0.00000000E+00  0.00000000E+00  0.00000000E+00
