C  N  H  Pb I 
 1.0000000000000000
     9.0179545010098856    0.0204887979214004    0.0059307975612564
     0.0199399196291922    8.9037737213659440   -0.0042965161749307
     0.0084142712047681   -0.0062634401552006   12.9767261113970722
 C   N   H   Pb  I  
   4   8  20   4  12
Direct
  0.5092042513800735  0.0409118049530247  0.2464024298580455
  0.0104030085349585  0.4617459778232336  0.7464626227836176
  0.0133861771074178  0.5528048807255520  0.2538105919430920
  0.4897051415369706  0.9611824351877295  0.7468164955129279
  0.5735509720515158  0.9346178204992496  0.1906385574398492
  0.0676603552160915  0.5683750752245904  0.6936194219142737
  0.1250942737186363  0.5691543855398357  0.1950854453326597
  0.5919773437915192  0.8704901828209290  0.7076222490536860
  0.3689662374241767  0.0820331066864387  0.2327248201652249
  0.8692448366341373  0.4138199350596609  0.7394724013498727
  0.9108879348035562  0.4430433501232144  0.2406110816694297
  0.4739559764184987  0.1065198526098883  0.7249324671493284
  0.5794756021629973  0.0995298680603118  0.3082610160495433
  0.0753975328422114  0.4000597426655334  0.8084834743210023
  0.0140498472948272  0.6260757462996003  0.3227313266372114
  0.4056804171798525  0.9068000443981389  0.8010794464491174
  0.6827522315840469  0.9202594469909809  0.1996992280948588
  0.1831256556187840  0.5801557468097261  0.6953048756354446
  0.2080634697449202  0.6475263049862294  0.2062949455972604
  0.5987401041077840  0.7689609968108863  0.7359587845640611
  0.5145484688301013  0.8796457088919938  0.1293014001199096
  0.0171361648486201  0.6169443951367769  0.6311380275133065
  0.1509291536442885  0.5031994557723914  0.1241008755209505
  0.6729155663272888  0.9108602056217259  0.6563039166841781
  0.2981654222961699  0.0376129459865807  0.1903120433058009
  0.7960052414569363  0.4667149773693912  0.6869520697186862
  0.9080641762512873  0.3793429895423664  0.1686390909702442
  0.5420969458398356  0.1626261452389560  0.6666436916676445
  0.3286153179060826  0.1577416586757055  0.2897953179992892
  0.8189746828484638  0.3412430411948299  0.7898581254667161
  0.8239702902265340  0.4489880466796615  0.2819679792434422
  0.3792215632876321  0.1670779411692030  0.7482650250482785
  0.5021880381815682  0.4804389689972640  0.9824330153273327
  0.9971384173189759  0.0084642489135516  0.4824711246671747
  0.9998864655406106  0.9849195100159479  0.9842026133185729
  0.4962836625970299  0.5129279519382509  0.4787884159531418
  0.7842043163505374  0.7047720366476066  0.4989789068024715
  0.9664737790683984  0.9928971053959965  0.2311775627263004
  0.7066777693781753  0.1949521201051378  0.9613186528640716
  0.2036844625909671  0.2848863778233184  0.0018022323325419
  0.2094153384858266  0.2983029073047614  0.4620496405313314
  0.3001393077006663  0.8044067044684535  0.4593977239514004
  0.7928199626060055  0.6898366366228811  0.9596996272970971
  0.6953598970742068  0.2105109883274541  0.4995550152593346
  0.4593413270672971  0.5082583045050919  0.7321431893744695
  0.0363484756945471  0.0086662285903320  0.7302998633038195
  0.2922584448326269  0.7886125585657059  0.0018248695466013
  0.5439973082296667  0.4931304851889016  0.2333339754747338
Cartesian
  0.0000000000000000  0.0000000000000000  0.0000000000000000
  0.0000000000000000  0.0000000000000000  0.0000000000000000
  0.0000000000000000  0.0000000000000000  0.0000000000000000
  0.0000000000000000  0.0000000000000000  0.0000000000000000
  0.0000000000000000  0.0000000000000000  0.0000000000000000
  0.0000000000000000  0.0000000000000000  0.0000000000000000
  0.0000000000000000  0.0000000000000000  0.0000000000000000
  0.0000000000000000  0.0000000000000000  0.0000000000000000
  0.0000000000000000  0.0000000000000000  0.0000000000000000
  0.0000000000000000  0.0000000000000000  0.0000000000000000
  0.0000000000000000  0.0000000000000000  0.0000000000000000
  0.0000000000000000  0.0000000000000000  0.0000000000000000
  0.0000000000000000  0.0000000000000000  0.0000000000000000
  0.0000000000000000  0.0000000000000000  0.0000000000000000
  0.0000000000000000  0.0000000000000000  0.0000000000000000
  0.0000000000000000  0.0000000000000000  0.0000000000000000
  0.0000000000000000  0.0000000000000000  0.0000000000000000
  0.0000000000000000  0.0000000000000000  0.0000000000000000
  0.0000000000000000  0.0000000000000000  0.0000000000000000
  0.0000000000000000  0.0000000000000000  0.0000000000000000
  0.0000000000000000  0.0000000000000000  0.0000000000000000
  0.0000000000000000  0.0000000000000000  0.0000000000000000
  0.0000000000000000  0.0000000000000000  0.0000000000000000
  0.0000000000000000  0.0000000000000000  0.0000000000000000
  0.0000000000000000  0.0000000000000000  0.0000000000000000
  0.0000000000000000  0.0000000000000000  0.0000000000000000
  0.0000000000000000  0.0000000000000000  0.0000000000000000
  0.0000000000000000  0.0000000000000000  0.0000000000000000
  0.0000000000000000  0.0000000000000000  0.0000000000000000
  0.0000000000000000  0.0000000000000000  0.0000000000000000
  0.0000000000000000  0.0000000000000000  0.0000000000000000
  0.0000000000000000  0.0000000000000000  0.0000000000000000
  0.0000000000000000  0.0000000000000000  0.0000000000000000
  0.0000000000000000  0.0000000000000000  0.0000000000000000
  0.0000000000000000  0.0000000000000000  0.0000000000000000
  0.0000000000000000  0.0000000000000000  0.0000000000000000
  0.0000000000000000  0.0000000000000000  0.0000000000000000
  0.0000000000000000  0.0000000000000000  0.0000000000000000
  0.0000000000000000  0.0000000000000000  0.0000000000000000
  0.0000000000000000  0.0000000000000000  0.0000000000000000
  0.0000000000000000  0.0000000000000000  0.0000000000000000
  0.0000000000000000  0.0000000000000000  0.0000000000000000
  0.0000000000000000  0.0000000000000000  0.0000000000000000
  0.0000000000000000  0.0000000000000000  0.0000000000000000
  0.0000000000000000  0.0000000000000000  0.0000000000000000
  0.0000000000000000  0.0000000000000000  0.0000000000000000
  0.0000000000000000  0.0000000000000000  0.0000000000000000
  0.0000000000000000  0.0000000000000000  0.0000000000000000
