C  N  H  Pb I                           
   1.0000000000000000     
     8.9515839677080429    0.0000000000000000    0.0000000000000000
     0.0000000000000000    8.9515839677080429    0.0000000000000000
     0.0000000000000000    0.0000000000000000    6.3289724258144924
  C               N               H               Pb              I             
     2     4    10     2     6
Direct
     0.4979589050158353    0.4970638212954483    0.5841774463995293
     0.9979894580000988    0.0031659030094460    0.5682273585491018
     0.5952207221329004    0.5907701999085191    0.4687925421775319
     0.4069647757731261    0.4114451597187809    0.4758385454706868
     0.0918490906945735    0.9166726157172960    0.4715474954829162
     0.9067435125016132    0.0903597214066565    0.4874701011492348
     0.5035022042284965    0.5074236327198491    0.7561237215450376
     0.6527094025369635    0.6555740822508085    0.5663266224168595
     0.6005579913322023    0.5924629965016450    0.3149267039692987
     0.3897624190248123    0.4093655179958162    0.3217330851671889
     0.3396295136697631    0.3326568053372227    0.5669797242848702
     0.0098280100425470    0.0033064588147838    0.7436220923558707
     0.1594944563056799    0.8388448846770302    0.5518306166226239
     0.0943821114244656    0.9061596602004940    0.3232832152038370
     0.8852428185407604    0.1121632434973492    0.3094351057177391
     0.8308185018732104    0.1593776747762234    0.5611488293006417
     0.0045156742557140    0.4970688604972366    0.9786955642056867
     0.5024657473360321    0.0047382273048200    0.9990345037021626
     0.0026236899079635    0.4925218444829014    0.4710058823141807
     0.4827250335188680    0.9905523808938952    0.5014972779900049
     0.2106122965014876    0.2176482387810523    0.9952297147671274
     0.2810857031372009    0.7073090157181667    0.9805083400892087
     0.7266030252306948    0.2861242152483712    0.9883135841570763
     0.7881529916264398    0.7800592836175753    0.9796340461340165

  0.00000000E+00  0.00000000E+00  0.00000000E+00
  0.00000000E+00  0.00000000E+00  0.00000000E+00
  0.00000000E+00  0.00000000E+00  0.00000000E+00
  0.00000000E+00  0.00000000E+00  0.00000000E+00
  0.00000000E+00  0.00000000E+00  0.00000000E+00
  0.00000000E+00  0.00000000E+00  0.00000000E+00
  0.00000000E+00  0.00000000E+00  0.00000000E+00
  0.00000000E+00  0.00000000E+00  0.00000000E+00
  0.00000000E+00  0.00000000E+00  0.00000000E+00
  0.00000000E+00  0.00000000E+00  0.00000000E+00
  0.00000000E+00  0.00000000E+00  0.00000000E+00
  0.00000000E+00  0.00000000E+00  0.00000000E+00
  0.00000000E+00  0.00000000E+00  0.00000000E+00
  0.00000000E+00  0.00000000E+00  0.00000000E+00
  0.00000000E+00  0.00000000E+00  0.00000000E+00
  0.00000000E+00  0.00000000E+00  0.00000000E+00
  0.00000000E+00  0.00000000E+00  0.00000000E+00
  0.00000000E+00  0.00000000E+00  0.00000000E+00
  0.00000000E+00  0.00000000E+00  0.00000000E+00
  0.00000000E+00  0.00000000E+00  0.00000000E+00
  0.00000000E+00  0.00000000E+00  0.00000000E+00
  0.00000000E+00  0.00000000E+00  0.00000000E+00
  0.00000000E+00  0.00000000E+00  0.00000000E+00
  0.00000000E+00  0.00000000E+00  0.00000000E+00
