C  N  H  Pb I 
 1.0000000000000000
     8.9515839677080429    0.0000000000000000    0.0000000000000000
     0.0000000000000000    8.9515839677080429    0.0000000000000000
     0.0000000000000000    0.0000000000000000    6.3289724258144924
 C   N   H   Pb  I  
   2   4  10   2   6
Direct
  0.4979589050158383  0.4970638212954472  0.5841774463995292
  0.9979894580001021  0.0031659030094482  0.5682273585491042
  0.5952207221328978  0.5907701999085176  0.4687925421775338
  0.4069647757731241  0.4114451597187800  0.4758385454706891
  0.0918490906945735  0.9166726157172953  0.4715474954829128
  0.9067435125016151  0.0903597214066532  0.4874701011492342
  0.5035022042284997  0.5074236327198502  0.7561237215450366
  0.6527094025369645  0.6555740822508076  0.5663266224168618
  0.6005579913322003  0.5924629965016424  0.3149267039692993
  0.3897624190248116  0.4093655179958181  0.3217330851671911
  0.3396295136697607  0.3326568053372247  0.5669797242848671
  0.0098280100425484  0.0033064588147818  0.7436220923558697
  0.1594944563056801  0.8388448846770290  0.5518306166226224
  0.0943821114244643  0.9061596602004967  0.3232832152038354
  0.8852428185407580  0.1121632434973457  0.3094351057177371
  0.8308185018732110  0.1593776747762225  0.5611488293006393
  0.0045156742557174  0.4970688604972353  0.9786955642056889
  0.5024657473360341  0.0047382273048191  0.9990345037021625
  0.0026236899079602  0.4925218444829013  0.4710058823141818
  0.4827250335188680  0.9905523808938936  0.5014972779900059
  0.2106122965014890  0.2176482387810511  0.9952297147671263
  0.2810857031372012  0.7073090157181651  0.9805083400892086
  0.7266030252306924  0.2861242152483743  0.9883135841570784
  0.7881529916264393  0.7800592836175734  0.9796340461340162
Cartesian
  0.0000000000000000  0.0000000000000000  0.0000000000000000
  0.0000000000000000  0.0000000000000000  0.0000000000000000
  0.0000000000000000  0.0000000000000000  0.0000000000000000
  0.0000000000000000  0.0000000000000000  0.0000000000000000
  0.0000000000000000  0.0000000000000000  0.0000000000000000
  0.0000000000000000  0.0000000000000000  0.0000000000000000
  0.0000000000000000  0.0000000000000000  0.0000000000000000
  0.0000000000000000  0.0000000000000000  0.0000000000000000
  0.0000000000000000  0.0000000000000000  0.0000000000000000
  0.0000000000000000  0.0000000000000000  0.0000000000000000
  0.0000000000000000  0.0000000000000000  0.0000000000000000
  0.0000000000000000  0.0000000000000000  0.0000000000000000
  0.0000000000000000  0.0000000000000000  0.0000000000000000
  0.0000000000000000  0.0000000000000000  0.0000000000000000
  0.0000000000000000  0.0000000000000000  0.0000000000000000
  0.0000000000000000  0.0000000000000000  0.0000000000000000
  0.0000000000000000  0.0000000000000000  0.0000000000000000
  0.0000000000000000  0.0000000000000000  0.0000000000000000
  0.0000000000000000  0.0000000000000000  0.0000000000000000
  0.0000000000000000  0.0000000000000000  0.0000000000000000
  0.0000000000000000  0.0000000000000000  0.0000000000000000
  0.0000000000000000  0.0000000000000000  0.0000000000000000
  0.0000000000000000  0.0000000000000000  0.0000000000000000
  0.0000000000000000  0.0000000000000000  0.0000000000000000
