C  N  H  Pb I                           
   1.0000000000000000     
     8.9515839677080429    0.0000000000000000    0.0000000000000000
     0.0000000000000000    8.9515839677080429    0.0000000000000000
     0.0000000000000000    0.0000000000000000    6.3289724258144924
  C               N               H               Pb              I             
     2     4    10     2     6
Direct
     0.5010551994472863    0.4959341775223507    0.5689364409665032
     0.9994463177374016    0.0020118478243276    0.5622056261020134
     0.5903936400974956    0.5910691088962281    0.4838118924968029
     0.4037372702322912    0.4074147615986590    0.4722793586314751
     0.0908569599786802    0.9122601845161498    0.4801047878731239
     0.9097141184237003    0.0886676226906218    0.4839255853037514
     0.4988422453613737    0.4989459267498475    0.7415541337796583
     0.6599710328638153    0.6595278400364251    0.5573150369570996
     0.5969463054602144    0.5996472772937693    0.3125343777026686
     0.4036529731136227    0.3986945703600853    0.3177806607009188
     0.3403851871572101    0.3438616437975881    0.5661458934297556
     0.0016654589580654    0.0012426120966964    0.7368193864728241
     0.1555283590019982    0.8394297036377409    0.5667607495578295
     0.0974730186049371    0.8971294890583152    0.3133511990393032
     0.9041738386820697    0.0973506323761626    0.3140761614006919
     0.8418433825211480    0.1668192941088336    0.5618014888604961
     0.0058724986053704    0.4997445287065858    0.9914155287723005
     0.5015671262900199    0.9962101356201387    0.9896735201439029
     0.0006205671336161    0.5015301576659823    0.4927975591354254
     0.4970676140689179    0.9986076189828879    0.4863989451824366
     0.2164932151991152    0.2182010295200243    0.9890416275330338
     0.2854925953964838    0.7250310755182099    0.9946793022298550
     0.7164977380473445    0.2783995411425195    0.9883817546806597
     0.7794132514602055    0.7843510281311765    0.0045715618124191

  0.00000000E+00  0.00000000E+00  0.00000000E+00
  0.00000000E+00  0.00000000E+00  0.00000000E+00
  0.00000000E+00  0.00000000E+00  0.00000000E+00
  0.00000000E+00  0.00000000E+00  0.00000000E+00
  0.00000000E+00  0.00000000E+00  0.00000000E+00
  0.00000000E+00  0.00000000E+00  0.00000000E+00
  0.00000000E+00  0.00000000E+00  0.00000000E+00
  0.00000000E+00  0.00000000E+00  0.00000000E+00
  0.00000000E+00  0.00000000E+00  0.00000000E+00
  0.00000000E+00  0.00000000E+00  0.00000000E+00
  0.00000000E+00  0.00000000E+00  0.00000000E+00
  0.00000000E+00  0.00000000E+00  0.00000000E+00
  0.00000000E+00  0.00000000E+00  0.00000000E+00
  0.00000000E+00  0.00000000E+00  0.00000000E+00
  0.00000000E+00  0.00000000E+00  0.00000000E+00
  0.00000000E+00  0.00000000E+00  0.00000000E+00
  0.00000000E+00  0.00000000E+00  0.00000000E+00
  0.00000000E+00  0.00000000E+00  0.00000000E+00
  0.00000000E+00  0.00000000E+00  0.00000000E+00
  0.00000000E+00  0.00000000E+00  0.00000000E+00
  0.00000000E+00  0.00000000E+00  0.00000000E+00
  0.00000000E+00  0.00000000E+00  0.00000000E+00
  0.00000000E+00  0.00000000E+00  0.00000000E+00
  0.00000000E+00  0.00000000E+00  0.00000000E+00
