C  N  H  Pb I 
 1.0000000000000000
     8.9515839677080429    0.0000000000000000    0.0000000000000000
     0.0000000000000000    8.9515839677080429    0.0000000000000000
     0.0000000000000000    0.0000000000000000    6.3289724258144924
 C   N   H   Pb  I  
   2   4  10   2   6
Direct
  0.5010551994472864  0.4959341775223489  0.5689364409665000
  0.9994463177374011  0.0020118478243257  0.5622056261020107
  0.5903936400974947  0.5910691088962288  0.4838118924968031
  0.4037372702322926  0.4074147615986606  0.4722793586314751
  0.0908569599786812  0.9122601845161500  0.4801047878731250
  0.9097141184237008  0.0886676226906253  0.4839255853037513
  0.4988422453613764  0.4989459267498481  0.7415541337796586
  0.6599710328638140  0.6595278400364283  0.5573150369570991
  0.5969463054602155  0.5996472772937719  0.3125343777026680
  0.4036529731136197  0.3986945703600878  0.3177806607009190
  0.3403851871572125  0.3438616437975899  0.5661458934297575
  0.0016654589580623  0.0012426120966945  0.7368193864728213
  0.1555283590019971  0.8394297036377436  0.5667607495578330
  0.0974730186049381  0.8971294890583129  0.3133511990393055
  0.9041738386820718  0.0973506323761604  0.3140761614006919
  0.8418433825211444  0.1668192941088320  0.5618014888604945
  0.0058724986053738  0.4997445287065883  0.9914155287722982
  0.5015671262900221  0.9962101356201358  0.9896735201439013
  0.0006205671336166  0.5015301576659812  0.4927975591354250
  0.4970676140689161  0.9986076189828844  0.4863989451824355
  0.2164932151991151  0.2182010295200219  0.9890416275330334
  0.2854925953964839  0.7250310755182109  0.9946793022298565
  0.7164977380473432  0.2783995411425217  0.9883817546806573
  0.7794132514602087  0.7843510281311733  0.0045715618124225
Cartesian
  0.0000000000000000  0.0000000000000000  0.0000000000000000
  0.0000000000000000  0.0000000000000000  0.0000000000000000
  0.0000000000000000  0.0000000000000000  0.0000000000000000
  0.0000000000000000  0.0000000000000000  0.0000000000000000
  0.0000000000000000  0.0000000000000000  0.0000000000000000
  0.0000000000000000  0.0000000000000000  0.0000000000000000
  0.0000000000000000  0.0000000000000000  0.0000000000000000
  0.0000000000000000  0.0000000000000000  0.0000000000000000
  0.0000000000000000  0.0000000000000000  0.0000000000000000
  0.0000000000000000  0.0000000000000000  0.0000000000000000
  0.0000000000000000  0.0000000000000000  0.0000000000000000
  0.0000000000000000  0.0000000000000000  0.0000000000000000
  0.0000000000000000  0.0000000000000000  0.0000000000000000
  0.0000000000000000  0.0000000000000000  0.0000000000000000
  0.0000000000000000  0.0000000000000000  0.0000000000000000
  0.0000000000000000  0.0000000000000000  0.0000000000000000
  0.0000000000000000  0.0000000000000000  0.0000000000000000
  0.0000000000000000  0.0000000000000000  0.0000000000000000
  0.0000000000000000  0.0000000000000000  0.0000000000000000
  0.0000000000000000  0.0000000000000000  0.0000000000000000
  0.0000000000000000  0.0000000000000000  0.0000000000000000
  0.0000000000000000  0.0000000000000000  0.0000000000000000
  0.0000000000000000  0.0000000000000000  0.0000000000000000
  0.0000000000000000  0.0000000000000000  0.0000000000000000
