C  N  H  Pb I                           
   1.0000000000000000     
     9.0193899931757802    0.0000000000000000    0.0000000000000000
     0.0000000000000000    8.7777678445653162    0.0000000000000000
     0.0000000000000000    0.0000000000000000   12.7961868062944486
  C               N               H               Pb              I             
     4     8    20     4    12
Direct
     0.5089745956706082    0.0458507442082521    0.2502471780262070
     0.0059838139993786    0.4652151110757501    0.7492252118973894
     0.9903070532091363    0.5408338117957427    0.2504233072994779
     0.4908154223998338    0.9529995818739536    0.7501700416884773
     0.5655360536877438    0.9310708030772687    0.1937378984517792
     0.0731350727688778    0.5627249230476892    0.6886743821454928
     0.1272773220564645    0.5791414710936280    0.2401916350632050
     0.6369808419761398    0.9062461325316562    0.7448048528951929
     0.3630247190302711    0.0736505635854456    0.2423155113676074
     0.8732026467162086    0.4191397027676516    0.7397425297879678
     0.9259214752475771    0.4296902831539455    0.1869701046561545
     0.4314437926342549    0.0641390590435833    0.6941175287385661
     0.5761807166082562    0.0907153537417571    0.3076757636064329
     0.0798878295703105    0.4004862889643874    0.8058022770482864
     0.9280094291906948    0.5892280450510725    0.3050394294437098
     0.4307189247315790    0.9088326401090896    0.8082111391456053
     0.6883302528995969    0.9248205045693112    0.2000845324268283
     0.1816687103792631    0.5779115968704645    0.6996868615433343
     0.1745748257906214    0.6539198124303596    0.2911714244147490
     0.6723711764658447    0.8344764232863255    0.7855358556245946
     0.5135603640656754    0.8805223502465012    0.1329571091298263
     0.0147978938099484    0.6215618592330543    0.6276189897002382
     0.1979786615374692    0.5356189533447804    0.1872876440037174
     0.7003411605908596    0.9660315760488558    0.6853438354220884
     0.3003540542247833    0.0290092173957035    0.1945779964614331
     0.7885363103315512    0.4585075302941917    0.6851304667767621
     0.9955789069756875    0.3856324533461972    0.1331313807879653
     0.4864762183192042    0.1146131739475962    0.6350077400986791
     0.3242431154652152    0.1647024796160323    0.2904747528166851
     0.8249025748007810    0.3376315843032032    0.7919274448521989
     0.8150183428659119    0.4164531732486125    0.2031738110959367
     0.3195210769991448    0.0876975981893935    0.7006100503888320
     0.5075507277754383    0.4901329930898939    0.9784332144694261
     0.9992079752528653    0.0105355927071287    0.4817511362164879
     0.9950580145330647    0.9890082078928941    0.9835545902137426
     0.4949760568230346    0.5209298772004729    0.4789903080251250
     0.7948289762801153    0.7212384819913353    0.5027568451900493
     0.9606875324576052    0.9952110999654877    0.2329003040196795
     0.7157486671286364    0.1941403698050053    0.9598041386331460
     0.2037726347871285    0.2954784837766269    0.0055852175108342
     0.2147553863798350    0.3062108901127232    0.4622797051658694
     0.2966922227227613    0.8080408951650853    0.4571360030547424
     0.7943979588352406    0.7007983586424800    0.9594887523189826
     0.7023174146673270    0.2100555584967481    0.5098144699899265
     0.4559445918580138    0.4983186161622584    0.7362208952702360
     0.0455300242652541    0.0140707690895141    0.7327465435963703
     0.2985848966278866    0.7931046303224889    0.0034760627309325
     0.5460327205624296    0.4960203550834521    0.2296652073485745

  0.00000000E+00  0.00000000E+00  0.00000000E+00
  0.00000000E+00  0.00000000E+00  0.00000000E+00
  0.00000000E+00  0.00000000E+00  0.00000000E+00
  0.00000000E+00  0.00000000E+00  0.00000000E+00
  0.00000000E+00  0.00000000E+00  0.00000000E+00
  0.00000000E+00  0.00000000E+00  0.00000000E+00
  0.00000000E+00  0.00000000E+00  0.00000000E+00
  0.00000000E+00  0.00000000E+00  0.00000000E+00
  0.00000000E+00  0.00000000E+00  0.00000000E+00
  0.00000000E+00  0.00000000E+00  0.00000000E+00
  0.00000000E+00  0.00000000E+00  0.00000000E+00
  0.00000000E+00  0.00000000E+00  0.00000000E+00
  0.00000000E+00  0.00000000E+00  0.00000000E+00
  0.00000000E+00  0.00000000E+00  0.00000000E+00
  0.00000000E+00  0.00000000E+00  0.00000000E+00
  0.00000000E+00  0.00000000E+00  0.00000000E+00
  0.00000000E+00  0.00000000E+00  0.00000000E+00
  0.00000000E+00  0.00000000E+00  0.00000000E+00
  0.00000000E+00  0.00000000E+00  0.00000000E+00
  0.00000000E+00  0.00000000E+00  0.00000000E+00
  0.00000000E+00  0.00000000E+00  0.00000000E+00
  0.00000000E+00  0.00000000E+00  0.00000000E+00
  0.00000000E+00  0.00000000E+00  0.00000000E+00
  0.00000000E+00  0.00000000E+00  0.00000000E+00
  0.00000000E+00  0.00000000E+00  0.00000000E+00
  0.00000000E+00  0.00000000E+00  0.00000000E+00
  0.00000000E+00  0.00000000E+00  0.00000000E+00
  0.00000000E+00  0.00000000E+00  0.00000000E+00
  0.00000000E+00  0.00000000E+00  0.00000000E+00
  0.00000000E+00  0.00000000E+00  0.00000000E+00
  0.00000000E+00  0.00000000E+00  0.00000000E+00
  0.00000000E+00  0.00000000E+00  0.00000000E+00
  0.00000000E+00  0.00000000E+00  0.00000000E+00
  0.00000000E+00  0.00000000E+00  0.00000000E+00
  0.00000000E+00  0.00000000E+00  0.00000000E+00
  0.00000000E+00  0.00000000E+00  0.00000000E+00
  0.00000000E+00  0.00000000E+00  0.00000000E+00
  0.00000000E+00  0.00000000E+00  0.00000000E+00
  0.00000000E+00  0.00000000E+00  0.00000000E+00
  0.00000000E+00  0.00000000E+00  0.00000000E+00
  0.00000000E+00  0.00000000E+00  0.00000000E+00
  0.00000000E+00  0.00000000E+00  0.00000000E+00
  0.00000000E+00  0.00000000E+00  0.00000000E+00
  0.00000000E+00  0.00000000E+00  0.00000000E+00
  0.00000000E+00  0.00000000E+00  0.00000000E+00
  0.00000000E+00  0.00000000E+00  0.00000000E+00
  0.00000000E+00  0.00000000E+00  0.00000000E+00
  0.00000000E+00  0.00000000E+00  0.00000000E+00
