C  N  H  Pb I 
 1.0000000000000000
     9.0193899931757802    0.0000000000000000    0.0000000000000000
     0.0000000000000000    8.7777678445653162    0.0000000000000000
     0.0000000000000000    0.0000000000000000   12.7961868062944486
 C   N   H   Pb  I  
   4   8  20   4  12
Direct
  0.5089745956706048  0.0458507442082523  0.2502471780262078
  0.0059838139993757  0.4652151110757481  0.7492252118973888
  0.9903070532091398  0.5408338117957455  0.2504233072994801
  0.4908154223998326  0.9529995818739502  0.7501700416884779
  0.5655360536877467  0.9310708030772669  0.1937378984517773
  0.0731350727688788  0.5627249230476915  0.6886743821454911
  0.1272773220564647  0.5791414710936296  0.2401916350632082
  0.6369808419761406  0.9062461325316555  0.7448048528951895
  0.3630247190302720  0.0736505635854468  0.2423155113676054
  0.8732026467162119  0.4191397027676532  0.7397425297879705
  0.9259214752475737  0.4296902831539431  0.1869701046561532
  0.4314437926342544  0.0641390590435855  0.6941175287385639
  0.5761807166082550  0.0907153537417601  0.3076757636064346
  0.0798878295703116  0.4004862889643847  0.8058022770482854
  0.9280094291906937  0.5892280450510694  0.3050394294437067
  0.4307189247315820  0.9088326401090885  0.8082111391456031
  0.6883302528995954  0.9248205045693126  0.2000845324268301
  0.1816687103792610  0.5779115968704612  0.6996868615433345
  0.1745748257906212  0.6539198124303591  0.2911714244147494
  0.6723711764658455  0.8344764232863224  0.7855358556245964
  0.5135603640656766  0.8805223502465019  0.1329571091298271
  0.0147978938099474  0.6215618592330564  0.6276189897002393
  0.1979786615374721  0.5356189533447784  0.1872876440037193
  0.7003411605908623  0.9660315760488575  0.6853438354220890
  0.3003540542247807  0.0290092173957063  0.1945779964614336
  0.7885363103315478  0.4585075302941912  0.6851304667767621
  0.9955789069756887  0.3856324533462005  0.1331313807879628
  0.4864762183192019  0.1146131739475958  0.6350077400986818
  0.3242431154652140  0.1647024796160356  0.2904747528166845
  0.8249025748007830  0.3376315843032057  0.7919274448522010
  0.8150183428659128  0.4164531732486133  0.2031738110959379
  0.3195210769991437  0.0876975981893936  0.7006100503888290
  0.5075507277754405  0.4901329930898918  0.9784332144694265
  0.9992079752528643  0.0105355927071260  0.4817511362164899
  0.9950580145330666  0.9890082078928913  0.9835545902137415
  0.4949760568230375  0.5209298772004762  0.4789903080251243
  0.7948289762801153  0.7212384819913387  0.5027568451900514
  0.9606875324576034  0.9952110999654904  0.2329003040196799
  0.7157486671286346  0.1941403698050078  0.9598041386331445
  0.2037726347871285  0.2954784837766259  0.0055852175108373
  0.2147553863798362  0.3062108901127260  0.4622797051658666
  0.2966922227227640  0.8080408951650858  0.4571360030547457
  0.7943979588352394  0.7007983586424767  0.9594887523189817
  0.7023174146673268  0.2100555584967491  0.5098144699899281
  0.4559445918580155  0.4983186161622558  0.7362208952702326
  0.0455300242652523  0.0140707690895139  0.7327465435963726
  0.2985848966278889  0.7931046303224878  0.0034760627309302
  0.5460327205624321  0.4960203550834488  0.2296652073485714
Cartesian
  0.0000000000000000  0.0000000000000000  0.0000000000000000
  0.0000000000000000  0.0000000000000000  0.0000000000000000
  0.0000000000000000  0.0000000000000000  0.0000000000000000
  0.0000000000000000  0.0000000000000000  0.0000000000000000
  0.0000000000000000  0.0000000000000000  0.0000000000000000
  0.0000000000000000  0.0000000000000000  0.0000000000000000
  0.0000000000000000  0.0000000000000000  0.0000000000000000
  0.0000000000000000  0.0000000000000000  0.0000000000000000
  0.0000000000000000  0.0000000000000000  0.0000000000000000
  0.0000000000000000  0.0000000000000000  0.0000000000000000
  0.0000000000000000  0.0000000000000000  0.0000000000000000
  0.0000000000000000  0.0000000000000000  0.0000000000000000
  0.0000000000000000  0.0000000000000000  0.0000000000000000
  0.0000000000000000  0.0000000000000000  0.0000000000000000
  0.0000000000000000  0.0000000000000000  0.0000000000000000
  0.0000000000000000  0.0000000000000000  0.0000000000000000
  0.0000000000000000  0.0000000000000000  0.0000000000000000
  0.0000000000000000  0.0000000000000000  0.0000000000000000
  0.0000000000000000  0.0000000000000000  0.0000000000000000
  0.0000000000000000  0.0000000000000000  0.0000000000000000
  0.0000000000000000  0.0000000000000000  0.0000000000000000
  0.0000000000000000  0.0000000000000000  0.0000000000000000
  0.0000000000000000  0.0000000000000000  0.0000000000000000
  0.0000000000000000  0.0000000000000000  0.0000000000000000
  0.0000000000000000  0.0000000000000000  0.0000000000000000
  0.0000000000000000  0.0000000000000000  0.0000000000000000
  0.0000000000000000  0.0000000000000000  0.0000000000000000
  0.0000000000000000  0.0000000000000000  0.0000000000000000
  0.0000000000000000  0.0000000000000000  0.0000000000000000
  0.0000000000000000  0.0000000000000000  0.0000000000000000
  0.0000000000000000  0.0000000000000000  0.0000000000000000
  0.0000000000000000  0.0000000000000000  0.0000000000000000
  0.0000000000000000  0.0000000000000000  0.0000000000000000
  0.0000000000000000  0.0000000000000000  0.0000000000000000
  0.0000000000000000  0.0000000000000000  0.0000000000000000
  0.0000000000000000  0.0000000000000000  0.0000000000000000
  0.0000000000000000  0.0000000000000000  0.0000000000000000
  0.0000000000000000  0.0000000000000000  0.0000000000000000
  0.0000000000000000  0.0000000000000000  0.0000000000000000
  0.0000000000000000  0.0000000000000000  0.0000000000000000
  0.0000000000000000  0.0000000000000000  0.0000000000000000
  0.0000000000000000  0.0000000000000000  0.0000000000000000
  0.0000000000000000  0.0000000000000000  0.0000000000000000
  0.0000000000000000  0.0000000000000000  0.0000000000000000
  0.0000000000000000  0.0000000000000000  0.0000000000000000
  0.0000000000000000  0.0000000000000000  0.0000000000000000
  0.0000000000000000  0.0000000000000000  0.0000000000000000
  0.0000000000000000  0.0000000000000000  0.0000000000000000
