C  N  H  Pb I                           
   1.0000000000000000     
     9.1000688745119351    0.0453663380630101   -0.0639703890725580
     0.0453663380630101    8.8886103461345645    0.0477260820188464
    -0.0452285126262973    0.0337434199555163    6.3873214499677289
  C               N               H               Pb              I             
     2     4    10     2     6
Direct
     0.5000018554397698    0.5000022537173052    0.5710180843918664
     0.0000007410375673    0.9999987646105950    0.5710173459562427
     0.5923581034953997    0.5923585163879750    0.4765803103999318
     0.4076407503633774    0.4076411399921014    0.4765811169345113
     0.0923596624104022    0.9076399465760616    0.4765807909973105
     0.9076407520067917    0.0923588334847736    0.4765810251555322
     0.5000002811686741    0.5000006754111794    0.7434031870421904
     0.6592043223743005    0.6592047228670168    0.5661117567204812
     0.6020540182597998    0.6020543629609065    0.3166118097023158
     0.3979460835827382    0.3979464056777431    0.3166130108747680
     0.3407963330843771    0.3407967026589489    0.5661133888189624
     0.0000003891983269    0.9999991386351894    0.7434028011510989
     0.1592037642541229    0.8407958108961822    0.5661101690442578
     0.1020541224786768    0.8979456517450188    0.3166108718828013
     0.8979457520127525    0.1020539951781174    0.3166116306627345
     0.8407959940430487    0.1592035362748234    0.5661129987487641
     0.9987215527111530    0.5011930990589164    0.9928396567841702
     0.4966214224849779    0.9999102859599134    0.9930124373819780
     0.0007073980213548    0.5002536599802951    0.4863728917293741
     0.5023071155702539    0.0023252374792690    0.4906224686812521
     0.2194635046591387    0.2163245826734368    0.9894317720579267
     0.2820506652100931    0.7175744523191909    0.9939604882586650
     0.7177405719269530    0.2829033841757251    0.9873792471060554
     0.7782815099730200    0.7782986477060305    0.9933202421253284

  0.00000000E+00  0.00000000E+00  0.00000000E+00
  0.00000000E+00  0.00000000E+00  0.00000000E+00
  0.00000000E+00  0.00000000E+00  0.00000000E+00
  0.00000000E+00  0.00000000E+00  0.00000000E+00
  0.00000000E+00  0.00000000E+00  0.00000000E+00
  0.00000000E+00  0.00000000E+00  0.00000000E+00
  0.00000000E+00  0.00000000E+00  0.00000000E+00
  0.00000000E+00  0.00000000E+00  0.00000000E+00
  0.00000000E+00  0.00000000E+00  0.00000000E+00
  0.00000000E+00  0.00000000E+00  0.00000000E+00
  0.00000000E+00  0.00000000E+00  0.00000000E+00
  0.00000000E+00  0.00000000E+00  0.00000000E+00
  0.00000000E+00  0.00000000E+00  0.00000000E+00
  0.00000000E+00  0.00000000E+00  0.00000000E+00
  0.00000000E+00  0.00000000E+00  0.00000000E+00
  0.00000000E+00  0.00000000E+00  0.00000000E+00
  0.00000000E+00  0.00000000E+00  0.00000000E+00
  0.00000000E+00  0.00000000E+00  0.00000000E+00
  0.00000000E+00  0.00000000E+00  0.00000000E+00
  0.00000000E+00  0.00000000E+00  0.00000000E+00
  0.00000000E+00  0.00000000E+00  0.00000000E+00
  0.00000000E+00  0.00000000E+00  0.00000000E+00
  0.00000000E+00  0.00000000E+00  0.00000000E+00
  0.00000000E+00  0.00000000E+00  0.00000000E+00
