C  N  H  Pb I 
 1.0000000000000000
     9.1000688745119351    0.0453663380630101   -0.0639703890725580
     0.0453663380630101    8.8886103461345645    0.0477260820188464
    -0.0452285126262973    0.0337434199555163    6.3873214499677289
 C   N   H   Pb  I  
   2   4  10   2   6
Direct
  0.5000018554397698  0.5000022537173052  0.5710180843918636
  0.0000007410375673  0.9999987646105948  0.5710173459562399
  0.5923581034953976  0.5923585163879727  0.4765803103999293
  0.4076407503633792  0.4076411399921031  0.4765811169345088
  0.0923596624104001  0.9076399465760636  0.4765807909973080
  0.9076407520067939  0.0923588334847715  0.4765810251555297
  0.5000002811686741  0.5000006754111794  0.7434031870421925
  0.6592043223742974  0.6592047228670136  0.5661117567204834
  0.6020540182598020  0.6020543629609088  0.3166118097023156
  0.3979460835827361  0.3979464056777409  0.3166130108747678
  0.3407963330843803  0.3407967026589520  0.5661133888189647
  0.0000003891983269  0.9999991386351894  0.7434028011511009
  0.1592037642541199  0.8407958108961850  0.5661101690442600
  0.1020541224786791  0.8979456517450164  0.3166108718828011
  0.8979457520127502  0.1020539951781196  0.3166116306627342
  0.8407959940430518  0.1592035362748205  0.5661129987487663
  0.9987215527111507  0.5011930990589167  0.9928396567841716
  0.4966214224849784  0.9999102859599117  0.9930124373819806
  0.0007073980213535  0.5002536599802923  0.4863728917293759
  0.5023071155702562  0.0023252374792658  0.4906224686812531
  0.2194635046591411  0.2163245826734333  0.9894317720579300
  0.2820506652100955  0.7175744523191928  0.9939604882586619
  0.7177405719269517  0.2829033841757251  0.9873792471060565
  0.7782815099730230  0.7782986477060303  0.9933202421253318
Cartesian
  0.0000000000000000  0.0000000000000000  0.0000000000000000
  0.0000000000000000  0.0000000000000000  0.0000000000000000
  0.0000000000000000  0.0000000000000000  0.0000000000000000
  0.0000000000000000  0.0000000000000000  0.0000000000000000
  0.0000000000000000  0.0000000000000000  0.0000000000000000
  0.0000000000000000  0.0000000000000000  0.0000000000000000
  0.0000000000000000  0.0000000000000000  0.0000000000000000
  0.0000000000000000  0.0000000000000000  0.0000000000000000
  0.0000000000000000  0.0000000000000000  0.0000000000000000
  0.0000000000000000  0.0000000000000000  0.0000000000000000
  0.0000000000000000  0.0000000000000000  0.0000000000000000
  0.0000000000000000  0.0000000000000000  0.0000000000000000
  0.0000000000000000  0.0000000000000000  0.0000000000000000
  0.0000000000000000  0.0000000000000000  0.0000000000000000
  0.0000000000000000  0.0000000000000000  0.0000000000000000
  0.0000000000000000  0.0000000000000000  0.0000000000000000
  0.0000000000000000  0.0000000000000000  0.0000000000000000
  0.0000000000000000  0.0000000000000000  0.0000000000000000
  0.0000000000000000  0.0000000000000000  0.0000000000000000
  0.0000000000000000  0.0000000000000000  0.0000000000000000
  0.0000000000000000  0.0000000000000000  0.0000000000000000
  0.0000000000000000  0.0000000000000000  0.0000000000000000
  0.0000000000000000  0.0000000000000000  0.0000000000000000
  0.0000000000000000  0.0000000000000000  0.0000000000000000
