C  N  H  Pb I 
 1.0000000000000000
     8.9349647986416976   -0.0395866456891463    0.0187401385368518
    -0.0385261515321213    8.6582516821504711    0.0161257510992727
     0.0265874203992544    0.0235080406672934   12.6813571496530955
 C   N   H   Pb  I  
   4   8  20   4  12
Direct
  0.5079545620594850  0.0406959883747638  0.2475946235704422
  0.0079545554343785  0.4593040156808087  0.7475946208954541
  0.9920454334685082  0.5406959860585880  0.2475946299923701
  0.4920454478785191  0.9593040127881086  0.7475946256013861
  0.5705946771768488  0.9354362274290704  0.1897252141182125
  0.0705946740239366  0.5645637727658525  0.6897252201605891
  0.1310336582348178  0.5838994807281045  0.2399588818968306
  0.6310336640152746  0.9161005167449354  0.7399588856927696
  0.3689663406760989  0.0838994856595276  0.2399588837149887
  0.8689663414621859  0.4161005194902583  0.7399588873068387
  0.9294053217315232  0.4354362199708706  0.1897252216917170
  0.4294053329446625  0.0645637684645837  0.6897252229388683
  0.5763163080256496  0.0964013618091920  0.3070350010383274
  0.0763163041439384  0.4035986538439505  0.8070350065760273
  0.9236836942065133  0.5964013535599979  0.3070350101048527
  0.4236837047439704  0.9035986570811895  0.8070350168177975
  0.6816203964682235  0.9153350004290041  0.1981420696355345
  0.1816203953774488  0.5846650008662725  0.6981420678013573
  0.1727440398663828  0.6618424652955210  0.2915835922463332
  0.6727440483713267  0.8381575300147406  0.7915835946568774
  0.5137159496301194  0.8799864858485239  0.1317994637689628
  0.0137159530701184  0.6200135182310212  0.6317994618654601
  0.2027680669080062  0.5368550561063355  0.1875867459194599
  0.7027680811919138  0.9631449364772251  0.6875867437071859
  0.2972319239003343  0.0368550498131778  0.1875867509889692
  0.7972319185576197  0.4631449498156997  0.6875867489999620
  0.9862840415021580  0.3799864786951982  0.1317994707683488
  0.4862840485959766  0.1200135117898100  0.6317994631872471
  0.3272559576570426  0.1618424731988938  0.2915835925839973
  0.8272559591671836  0.3381575261065085  0.7915835908767332
  0.8183796010724744  0.4153349919539673  0.1981420818729491
  0.3183796102733418  0.0846649986020452  0.6981420736952380
  0.5027384592212866  0.4871556275059101  0.9807670506693897
  0.0012044256940902  0.0035280652898164  0.4776795034347242
  0.0018044244366545  0.9912406046672928  0.9849201366342025
  0.4963169231690706  0.5170333100213002  0.4820776471538700
  0.7934132496812396  0.7109124984892443  0.5015898978858720
  0.9646797982822285  0.9935717306084063  0.2339460102501882
  0.7096420588491780  0.1950252067255494  0.9626101807585475
  0.2025689734924297  0.2833081957193836  0.0008503134746622
  0.2037384931428472  0.3044532612018282  0.4613647502015684
  0.3019839008785937  0.8052393676414006  0.4609388856894859
  0.7956499865937250  0.6982610089546342  0.9598743802875712
  0.7054419967704258  0.2120996299669866  0.5023938656421053
  0.4632924581585615  0.5039163215850927  0.7353411790671088
  0.0380532468870274  0.0076174487673427  0.7341477810323797
  0.2984634924677005  0.7892429401074657  0.0005152751542813
  0.5356389812019073  0.4944213713012616  0.2302195027782349
Cartesian
  0.0000000000000000  0.0000000000000000  0.0000000000000000
  0.0000000000000000  0.0000000000000000  0.0000000000000000
  0.0000000000000000  0.0000000000000000  0.0000000000000000
  0.0000000000000000  0.0000000000000000  0.0000000000000000
  0.0000000000000000  0.0000000000000000  0.0000000000000000
  0.0000000000000000  0.0000000000000000  0.0000000000000000
  0.0000000000000000  0.0000000000000000  0.0000000000000000
  0.0000000000000000  0.0000000000000000  0.0000000000000000
  0.0000000000000000  0.0000000000000000  0.0000000000000000
  0.0000000000000000  0.0000000000000000  0.0000000000000000
  0.0000000000000000  0.0000000000000000  0.0000000000000000
  0.0000000000000000  0.0000000000000000  0.0000000000000000
  0.0000000000000000  0.0000000000000000  0.0000000000000000
  0.0000000000000000  0.0000000000000000  0.0000000000000000
  0.0000000000000000  0.0000000000000000  0.0000000000000000
  0.0000000000000000  0.0000000000000000  0.0000000000000000
  0.0000000000000000  0.0000000000000000  0.0000000000000000
  0.0000000000000000  0.0000000000000000  0.0000000000000000
  0.0000000000000000  0.0000000000000000  0.0000000000000000
  0.0000000000000000  0.0000000000000000  0.0000000000000000
  0.0000000000000000  0.0000000000000000  0.0000000000000000
  0.0000000000000000  0.0000000000000000  0.0000000000000000
  0.0000000000000000  0.0000000000000000  0.0000000000000000
  0.0000000000000000  0.0000000000000000  0.0000000000000000
  0.0000000000000000  0.0000000000000000  0.0000000000000000
  0.0000000000000000  0.0000000000000000  0.0000000000000000
  0.0000000000000000  0.0000000000000000  0.0000000000000000
  0.0000000000000000  0.0000000000000000  0.0000000000000000
  0.0000000000000000  0.0000000000000000  0.0000000000000000
  0.0000000000000000  0.0000000000000000  0.0000000000000000
  0.0000000000000000  0.0000000000000000  0.0000000000000000
  0.0000000000000000  0.0000000000000000  0.0000000000000000
  0.0000000000000000  0.0000000000000000  0.0000000000000000
  0.0000000000000000  0.0000000000000000  0.0000000000000000
  0.0000000000000000  0.0000000000000000  0.0000000000000000
  0.0000000000000000  0.0000000000000000  0.0000000000000000
  0.0000000000000000  0.0000000000000000  0.0000000000000000
  0.0000000000000000  0.0000000000000000  0.0000000000000000
  0.0000000000000000  0.0000000000000000  0.0000000000000000
  0.0000000000000000  0.0000000000000000  0.0000000000000000
  0.0000000000000000  0.0000000000000000  0.0000000000000000
  0.0000000000000000  0.0000000000000000  0.0000000000000000
  0.0000000000000000  0.0000000000000000  0.0000000000000000
  0.0000000000000000  0.0000000000000000  0.0000000000000000
  0.0000000000000000  0.0000000000000000  0.0000000000000000
  0.0000000000000000  0.0000000000000000  0.0000000000000000
  0.0000000000000000  0.0000000000000000  0.0000000000000000
  0.0000000000000000  0.0000000000000000  0.0000000000000000
