C  N  H  Pb I                           
   1.0000000000000000     
     8.9515839677080429    0.0000000000000000    0.0000000000000000
     0.0000000000000000    8.9515839677080429    0.0000000000000000
     0.0000000000000000    0.0000000000000000    6.3289724258144924
  C               N               H               Pb              I             
     2     4    10     2     6
Direct
     0.4937676150332848    0.5013115386383902    0.5751242703372412
     0.0009122497695060    0.9969624460225006    0.5812524841415438
     0.5916357418722527    0.5915978248400151    0.4792695113499619
     0.4084780495585250    0.4056211794831981    0.4772066701232802
     0.0939918251153529    0.9105844893260979    0.4849397513099234
     0.9054403202636365    0.0934088979360865    0.4650964493890442
     0.5007837808919007    0.4962803994972660    0.7401587890359593
     0.6546498333764461    0.6727470245746119    0.5657586024351602
     0.6056165013935413    0.6045185327954954    0.3057685448007490
     0.3954372900672922    0.3983013585405857    0.3273233681075851
     0.3350105383444912    0.3372909074276720    0.5577190944940682
     0.0029199403566054    0.0004866863501221    0.7424281346273816
     0.1560628437962635    0.8437459631019451    0.5623672893001128
     0.1027263773153564    0.9010933951105997    0.3209950928364549
     0.8943479576422106    0.1034004411644105    0.3162191769228571
     0.8461499818714984    0.1595021005375727    0.5610066111051566
     0.9925294295472042    0.5054502934140075    0.9865027836578122
     0.5079148545433085    0.0075601850008908    0.9890622464293770
     0.9975150463712907    0.4917752869966563    0.4912712921045781
     0.5096141418189148    0.0003852282021981    0.4947697410981107
     0.2231348523045895    0.2210685959654484    0.9835311721622944
     0.2769914802398645    0.7122695275508022    0.9845645131126162
     0.7248246277326018    0.2801577685562151    0.9958438090618458
     0.7812417721350258    0.7829320860661468    0.9904630302294208

  0.00000000E+00  0.00000000E+00  0.00000000E+00
  0.00000000E+00  0.00000000E+00  0.00000000E+00
  0.00000000E+00  0.00000000E+00  0.00000000E+00
  0.00000000E+00  0.00000000E+00  0.00000000E+00
  0.00000000E+00  0.00000000E+00  0.00000000E+00
  0.00000000E+00  0.00000000E+00  0.00000000E+00
  0.00000000E+00  0.00000000E+00  0.00000000E+00
  0.00000000E+00  0.00000000E+00  0.00000000E+00
  0.00000000E+00  0.00000000E+00  0.00000000E+00
  0.00000000E+00  0.00000000E+00  0.00000000E+00
  0.00000000E+00  0.00000000E+00  0.00000000E+00
  0.00000000E+00  0.00000000E+00  0.00000000E+00
  0.00000000E+00  0.00000000E+00  0.00000000E+00
  0.00000000E+00  0.00000000E+00  0.00000000E+00
  0.00000000E+00  0.00000000E+00  0.00000000E+00
  0.00000000E+00  0.00000000E+00  0.00000000E+00
  0.00000000E+00  0.00000000E+00  0.00000000E+00
  0.00000000E+00  0.00000000E+00  0.00000000E+00
  0.00000000E+00  0.00000000E+00  0.00000000E+00
  0.00000000E+00  0.00000000E+00  0.00000000E+00
  0.00000000E+00  0.00000000E+00  0.00000000E+00
  0.00000000E+00  0.00000000E+00  0.00000000E+00
  0.00000000E+00  0.00000000E+00  0.00000000E+00
  0.00000000E+00  0.00000000E+00  0.00000000E+00
