C  N  H  Pb I 
 1.0000000000000000
     8.9515839677080429    0.0000000000000000    0.0000000000000000
     0.0000000000000000    8.9515839677080429    0.0000000000000000
     0.0000000000000000    0.0000000000000000    6.3289724258144924
 C   N   H   Pb  I  
   2   4  10   2   6
Direct
  0.4937676150332840  0.5013115386383881  0.5751242703372377
  0.0009122497695027  0.9969624460224984  0.5812524841415422
  0.5916357418722558  0.5915978248400179  0.4792695113499632
  0.4084780495585281  0.4056211794831998  0.4772066701232806
  0.0939918251153520  0.9105844893261000  0.4849397513099263
  0.9054403202636345  0.0934088979360860  0.4650964493890448
  0.5007837808919010  0.4962803994972674  0.7401587890359563
  0.6546498333764479  0.6727470245746132  0.5657586024351590
  0.6056165013935422  0.6045185327954934  0.3057685448007466
  0.3954372900672934  0.3983013585405843  0.3273233681075878
  0.3350105383444928  0.3372909074276747  0.5577190944940715
  0.0029199403566038  0.0004866863501252  0.7424281346273808
  0.1560628437962627  0.8437459631019463  0.5623672893001107
  0.1027263773153541  0.9010933951106020  0.3209950928364572
  0.8943479576422125  0.1034004411644097  0.3162191769228535
  0.8461499818715009  0.1595021005375758  0.5610066111051595
  0.9925294295472046  0.5054502934140079  0.9865027836578103
  0.5079148545433086  0.0075601850008880  0.9890622464293791
  0.9975150463712894  0.4917752869966545  0.4912712921045784
  0.5096141418189115  0.0003852282021960  0.4947697410981137
  0.2231348523045891  0.2210685959654463  0.9835311721622921
  0.2769914802398616  0.7122695275508056  0.9845645131126133
  0.7248246277326010  0.2801577685562127  0.9958438090618431
  0.7812417721350264  0.7829320860661492  0.9904630302294209
Cartesian
  0.0000000000000000  0.0000000000000000  0.0000000000000000
  0.0000000000000000  0.0000000000000000  0.0000000000000000
  0.0000000000000000  0.0000000000000000  0.0000000000000000
  0.0000000000000000  0.0000000000000000  0.0000000000000000
  0.0000000000000000  0.0000000000000000  0.0000000000000000
  0.0000000000000000  0.0000000000000000  0.0000000000000000
  0.0000000000000000  0.0000000000000000  0.0000000000000000
  0.0000000000000000  0.0000000000000000  0.0000000000000000
  0.0000000000000000  0.0000000000000000  0.0000000000000000
  0.0000000000000000  0.0000000000000000  0.0000000000000000
  0.0000000000000000  0.0000000000000000  0.0000000000000000
  0.0000000000000000  0.0000000000000000  0.0000000000000000
  0.0000000000000000  0.0000000000000000  0.0000000000000000
  0.0000000000000000  0.0000000000000000  0.0000000000000000
  0.0000000000000000  0.0000000000000000  0.0000000000000000
  0.0000000000000000  0.0000000000000000  0.0000000000000000
  0.0000000000000000  0.0000000000000000  0.0000000000000000
  0.0000000000000000  0.0000000000000000  0.0000000000000000
  0.0000000000000000  0.0000000000000000  0.0000000000000000
  0.0000000000000000  0.0000000000000000  0.0000000000000000
  0.0000000000000000  0.0000000000000000  0.0000000000000000
  0.0000000000000000  0.0000000000000000  0.0000000000000000
  0.0000000000000000  0.0000000000000000  0.0000000000000000
  0.0000000000000000  0.0000000000000000  0.0000000000000000
