o-FAPbI3; from FPB_Pna21.vasp           
   1.0000000000000000     
     9.0193899931757802    0.0000000000000000    0.0000000000000000
     0.0000000000000000    8.7777678445653162    0.0000000000000000
     0.0000000000000000    0.0000000000000000   12.7961868062944486
  C               N               H               Pb              I             
     4     8    20     4    12
Direct
     0.5080544181280554    0.0407573553895832    0.2476145254732262
     0.0080544115029478    0.4592426486659888    0.7476145227982389
     0.9919455773999378    0.5407573530734058    0.2476145318951541
     0.4919455918099507    0.9592426457732910    0.7476145275041706
     0.5705800914452006    0.9352785380358682    0.1898478207608813
     0.0705800882922880    0.5647214621590549    0.6898478268032588
     0.1309181097263828    0.5839989241316491    0.2399533787553088
     0.6309181155068398    0.9160010733413909    0.7399533825512483
     0.3690818891845328    0.0839989290630716    0.2399533805734668
     0.8690818899706204    0.4160010760867148    0.7399533841653172
     0.9294199074631713    0.4352785305776706    0.1898478283343858
     0.4294199186763101    0.0647214578577844    0.6898478295815378
     0.5765097537837565    0.0966193865096389    0.3069150029048992
     0.0765097499020473    0.4033806291435039    0.8069150084425990
     0.9234902484484064    0.5966193782604439    0.3069150119714245
     0.4234902589858616    0.9033806323807436    0.8069150186843691
     0.6815796231429291    0.9150188560357191    0.1982902719279480
     0.1815796220521536    0.5849811452595577    0.6982902700937744
     0.1724877689140350    0.6623644307163585    0.2913404043997992
     0.6724877774189758    0.8376355645939031    0.7913404068103438
     0.5135724027778836    0.8796149654731046    0.1320784685368585
     0.0135724062178841    0.6203850386064410    0.6320784666333570
     0.2026961848487425    0.5369978326699790    0.1875662180810104
     0.7026961991326481    0.9630021599135820    0.6875662158687358
     0.2973038059595985    0.0369978263768226    0.1875662231505196
     0.7973038006168855    0.4630021732520538    0.6875662211615118
     0.9864275883543938    0.3796149583197794    0.1320784755362444
     0.4864275954482106    0.1203850321652291    0.6320784679551441
     0.3275122286093896    0.1623644386197323    0.2913404047374634
     0.8275122301195345    0.3376355606856695    0.7913404030301996
     0.8184203743977688    0.4150188475606852    0.1982902841653626
     0.3184203835986364    0.0849811429953279    0.6982902759876554
     0.5025324328378279    0.4877543012847922    0.9809651437813205
     0.0025324391683373    0.0122457027179082    0.4809651413932577
     0.9974675638523859    0.9877542988043514    0.9809651460682733
     0.4974675692717521    0.5122457039571516    0.4809651431311031
     0.7959556993456108    0.7105583123809046    0.5032340269480274
     0.9606574832333949    0.9945321473086911    0.2320437089734651
     0.7059753773763751    0.1955018323662040    0.9614430021025664
     0.2040442810962813    0.2894417222038820    0.0032340275129727
     0.2059753917399751    0.3044981558584970    0.4614430097653006
     0.2940246108746660    0.8044981631471307    0.4614430122497417
     0.7940246270769657    0.6955018307120747    0.9614430068384616
     0.7040442991593504    0.2105583091814729    0.5032340242308694
     0.4606574731368673    0.5054678269085268    0.7320437107991832
     0.0393425174527618    0.0054678391876573    0.7320437066690896
     0.2959557157148100    0.7894417144678053    0.0032340244556778
     0.5393425068266593    0.4945321458192088    0.2320437062051906

  0.00000000E+00  0.00000000E+00  0.00000000E+00
  0.00000000E+00  0.00000000E+00  0.00000000E+00
  0.00000000E+00  0.00000000E+00  0.00000000E+00
  0.00000000E+00  0.00000000E+00  0.00000000E+00
  0.00000000E+00  0.00000000E+00  0.00000000E+00
  0.00000000E+00  0.00000000E+00  0.00000000E+00
  0.00000000E+00  0.00000000E+00  0.00000000E+00
  0.00000000E+00  0.00000000E+00  0.00000000E+00
  0.00000000E+00  0.00000000E+00  0.00000000E+00
  0.00000000E+00  0.00000000E+00  0.00000000E+00
  0.00000000E+00  0.00000000E+00  0.00000000E+00
  0.00000000E+00  0.00000000E+00  0.00000000E+00
  0.00000000E+00  0.00000000E+00  0.00000000E+00
  0.00000000E+00  0.00000000E+00  0.00000000E+00
  0.00000000E+00  0.00000000E+00  0.00000000E+00
  0.00000000E+00  0.00000000E+00  0.00000000E+00
  0.00000000E+00  0.00000000E+00  0.00000000E+00
  0.00000000E+00  0.00000000E+00  0.00000000E+00
  0.00000000E+00  0.00000000E+00  0.00000000E+00
  0.00000000E+00  0.00000000E+00  0.00000000E+00
  0.00000000E+00  0.00000000E+00  0.00000000E+00
  0.00000000E+00  0.00000000E+00  0.00000000E+00
  0.00000000E+00  0.00000000E+00  0.00000000E+00
  0.00000000E+00  0.00000000E+00  0.00000000E+00
  0.00000000E+00  0.00000000E+00  0.00000000E+00
  0.00000000E+00  0.00000000E+00  0.00000000E+00
  0.00000000E+00  0.00000000E+00  0.00000000E+00
  0.00000000E+00  0.00000000E+00  0.00000000E+00
  0.00000000E+00  0.00000000E+00  0.00000000E+00
  0.00000000E+00  0.00000000E+00  0.00000000E+00
  0.00000000E+00  0.00000000E+00  0.00000000E+00
  0.00000000E+00  0.00000000E+00  0.00000000E+00
  0.00000000E+00  0.00000000E+00  0.00000000E+00
  0.00000000E+00  0.00000000E+00  0.00000000E+00
  0.00000000E+00  0.00000000E+00  0.00000000E+00
  0.00000000E+00  0.00000000E+00  0.00000000E+00
  0.00000000E+00  0.00000000E+00  0.00000000E+00
  0.00000000E+00  0.00000000E+00  0.00000000E+00
  0.00000000E+00  0.00000000E+00  0.00000000E+00
  0.00000000E+00  0.00000000E+00  0.00000000E+00
  0.00000000E+00  0.00000000E+00  0.00000000E+00
  0.00000000E+00  0.00000000E+00  0.00000000E+00
  0.00000000E+00  0.00000000E+00  0.00000000E+00
  0.00000000E+00  0.00000000E+00  0.00000000E+00
  0.00000000E+00  0.00000000E+00  0.00000000E+00
  0.00000000E+00  0.00000000E+00  0.00000000E+00
  0.00000000E+00  0.00000000E+00  0.00000000E+00
  0.00000000E+00  0.00000000E+00  0.00000000E+00
