C  N  H  Pb I                           
   1.0000000000000000     
     9.0193899931757802    0.0000000000000000    0.0000000000000000
     0.0000000000000000    8.7777678445653162    0.0000000000000000
     0.0000000000000000    0.0000000000000000   12.7961868062944486
  C               N               H               Pb              I             
     4     8    20     4    12
Direct
     0.5105609127806545    0.0424473980151490    0.2505065002758826
     0.0063680729980859    0.4540743103894656    0.7467816864978616
     0.9927069604150489    0.5398156624417183    0.2534186490300669
     0.4963410113800037    0.9589872526951098    0.7484278301003116
     0.5757194766805327    0.9356421900771252    0.1919125154451180
     0.0726063741604719    0.5621550748443909    0.6874686155454057
     0.1307995417074395    0.5845356554340952    0.2399525789875767
     0.6383903673814402    0.9090326512552025    0.7414046907743526
     0.3700610021018491    0.0804833289628348    0.2415441772258973
     0.8648854211010217    0.4082482279556388    0.7356153790890190
     0.9300865552100532    0.4299395668557580    0.1872054329297868
     0.4352434510810426    0.0660593611323748    0.6883534051933395
     0.5726273763324485    0.0972890854991917    0.3048766615446681
     0.0787926541511013    0.4044271735261731    0.8147197708166942
     0.9276908105700983    0.5997354064133802    0.3061764536943841
     0.4248226616639883    0.9072425312406338    0.8081077398244503
     0.6823430286716885    0.9086144543593164    0.1981503741272448
     0.1815892498518963    0.5870649257693898    0.6957400418774924
     0.1757112624715802    0.6692355425526912    0.2845435711989808
     0.6802432399979423    0.8315398500200999    0.7940248004775370
     0.5088492656756145    0.8755359424341975    0.1300477636836703
     0.0202367101648449    0.6162182033612211    0.6278825975586955
     0.1980997185632489    0.5363087591318560    0.1911110243324217
     0.7011388310215878    0.9649924089153856    0.6899611251973852
     0.2897040661643118    0.0361201457185771    0.1900103600839032
     0.7941358934403695    0.4572530998223385    0.6921091217140400
     0.9839812560283292    0.3735220082590516    0.1380750104545783
     0.4813677712894062    0.1240160000783135    0.6313926073579808
     0.3266858972917461    0.1611550972858637    0.2923363640532983
     0.8191794859400758    0.3386337096301943    0.7956735312434731
     0.8122572168052784    0.4167543120772947    0.1945317766952996
     0.3227827706922071    0.0870703364450307    0.7003076235315788
     0.4922851304835589    0.4947640230320687    0.9781250249558653
     0.0099634444005972    0.0139034895497545    0.4787485375036908
     0.9987768538118615    0.9839426927851918    0.9797791644661729
     0.5015344397514383    0.5053272379554841    0.4861187316975659
     0.8010198020909201    0.7118865526203919    0.4964445066265739
     0.9580875493302585    0.9916408274664761    0.2354721909671440
     0.7084661899339224    0.1871058046114698    0.9614170581516888
     0.2047071588918570    0.2940578180147284    0.0097343216955323
     0.2075479633119599    0.3091359865894603    0.4662126721140822
     0.2897860702521413    0.8038745397547800    0.4709363688796486
     0.7905065866827670    0.6986885697782199    0.9681843498775393
     0.7058194515653184    0.2157220047604156    0.5037309295628987
     0.4555679756466446    0.5092126460059418    0.7387230772133933
     0.0444799399585918    0.0104450883322471    0.7354792952154057
     0.2893947691161003    0.7866855770840218    0.9989929763051748
     0.5450236783855047    0.4924635661792180    0.2325338137199537

  0.00000000E+00  0.00000000E+00  0.00000000E+00
  0.00000000E+00  0.00000000E+00  0.00000000E+00
  0.00000000E+00  0.00000000E+00  0.00000000E+00
  0.00000000E+00  0.00000000E+00  0.00000000E+00
  0.00000000E+00  0.00000000E+00  0.00000000E+00
  0.00000000E+00  0.00000000E+00  0.00000000E+00
  0.00000000E+00  0.00000000E+00  0.00000000E+00
  0.00000000E+00  0.00000000E+00  0.00000000E+00
  0.00000000E+00  0.00000000E+00  0.00000000E+00
  0.00000000E+00  0.00000000E+00  0.00000000E+00
  0.00000000E+00  0.00000000E+00  0.00000000E+00
  0.00000000E+00  0.00000000E+00  0.00000000E+00
  0.00000000E+00  0.00000000E+00  0.00000000E+00
  0.00000000E+00  0.00000000E+00  0.00000000E+00
  0.00000000E+00  0.00000000E+00  0.00000000E+00
  0.00000000E+00  0.00000000E+00  0.00000000E+00
  0.00000000E+00  0.00000000E+00  0.00000000E+00
  0.00000000E+00  0.00000000E+00  0.00000000E+00
  0.00000000E+00  0.00000000E+00  0.00000000E+00
  0.00000000E+00  0.00000000E+00  0.00000000E+00
  0.00000000E+00  0.00000000E+00  0.00000000E+00
  0.00000000E+00  0.00000000E+00  0.00000000E+00
  0.00000000E+00  0.00000000E+00  0.00000000E+00
  0.00000000E+00  0.00000000E+00  0.00000000E+00
  0.00000000E+00  0.00000000E+00  0.00000000E+00
  0.00000000E+00  0.00000000E+00  0.00000000E+00
  0.00000000E+00  0.00000000E+00  0.00000000E+00
  0.00000000E+00  0.00000000E+00  0.00000000E+00
  0.00000000E+00  0.00000000E+00  0.00000000E+00
  0.00000000E+00  0.00000000E+00  0.00000000E+00
  0.00000000E+00  0.00000000E+00  0.00000000E+00
  0.00000000E+00  0.00000000E+00  0.00000000E+00
  0.00000000E+00  0.00000000E+00  0.00000000E+00
  0.00000000E+00  0.00000000E+00  0.00000000E+00
  0.00000000E+00  0.00000000E+00  0.00000000E+00
  0.00000000E+00  0.00000000E+00  0.00000000E+00
  0.00000000E+00  0.00000000E+00  0.00000000E+00
  0.00000000E+00  0.00000000E+00  0.00000000E+00
  0.00000000E+00  0.00000000E+00  0.00000000E+00
  0.00000000E+00  0.00000000E+00  0.00000000E+00
  0.00000000E+00  0.00000000E+00  0.00000000E+00
  0.00000000E+00  0.00000000E+00  0.00000000E+00
  0.00000000E+00  0.00000000E+00  0.00000000E+00
  0.00000000E+00  0.00000000E+00  0.00000000E+00
  0.00000000E+00  0.00000000E+00  0.00000000E+00
  0.00000000E+00  0.00000000E+00  0.00000000E+00
  0.00000000E+00  0.00000000E+00  0.00000000E+00
  0.00000000E+00  0.00000000E+00  0.00000000E+00
