C  N  H  Pb I 
 1.0000000000000000
     9.0193899931757802    0.0000000000000000    0.0000000000000000
     0.0000000000000000    8.7777678445653162    0.0000000000000000
     0.0000000000000000    0.0000000000000000   12.7961868062944486
 C   N   H   Pb  I  
   4   8  20   4  12
Direct
  0.5105609127806560  0.0424473980151465  0.2505065002758848
  0.0063680729980828  0.4540743103894646  0.7467816864978609
  0.9927069604150492  0.5398156624417183  0.2534186490300651
  0.4963410113800045  0.9589872526951081  0.7484278301003127
  0.5757194766805354  0.9356421900771243  0.1919125154451176
  0.0726063741604754  0.5621550748443885  0.6874686155454024
  0.1307995417074400  0.5845356554340961  0.2399525789875767
  0.6383903673814383  0.9090326512552032  0.7414046907743513
  0.3700610021018526  0.0804833289628320  0.2415441772259007
  0.8648854211010206  0.4082482279556413  0.7356153790890176
  0.9300865552100553  0.4299395668557550  0.1872054329297854
  0.4352434510810402  0.0660593611323737  0.6883534051933425
  0.5726273763324514  0.0972890854991940  0.3048766615446679
  0.0787926541511032  0.4044271735261760  0.8147197708166956
  0.9276908105700961  0.5997354064133804  0.3061764536943823
  0.4248226616639897  0.9072425312406351  0.8081077398244536
  0.6823430286716885  0.9086144543593192  0.1981503741272483
  0.1815892498518949  0.5870649257693872  0.6957400418774902
  0.1757112624715834  0.6692355425526934  0.2845435711989784
  0.6802432399979391  0.8315398500200968  0.7940248004775363
  0.5088492656756127  0.8755359424341985  0.1300477636836716
  0.0202367101648437  0.6162182033612202  0.6278825975586981
  0.1980997185632490  0.5363087591318584  0.1911110243324238
  0.7011388310215846  0.9649924089153834  0.6899611251973827
  0.2897040661643104  0.0361201457185741  0.1900103600839022
  0.7941358934403682  0.4572530998223366  0.6921091217140407
  0.9839812560283269  0.3735220082590496  0.1380750104545753
  0.4813677712894072  0.1240160000783147  0.6313926073579827
  0.3266858972917495  0.1611550972858627  0.2923363640532996
  0.8191794859400737  0.3386337096301941  0.7956735312434741
  0.8122572168052764  0.4167543120772951  0.1945317766953019
  0.3227827706922047  0.0870703364450272  0.7003076235315768
  0.4922851304835615  0.4947640230320690  0.9781250249558664
  0.0099634444005968  0.0139034895497545  0.4787485375036930
  0.9987768538118620  0.9839426927851929  0.9797791644661717
  0.5015344397514387  0.5053272379554868  0.4861187316975668
  0.8010198020909224  0.7118865526203918  0.4964445066265725
  0.9580875493302587  0.9916408274664759  0.2354721909671425
  0.7084661899339230  0.1871058046114677  0.9614170581516897
  0.2047071588918549  0.2940578180147258  0.0097343216955310
  0.2075479633119578  0.3091359865894591  0.4662126721140797
  0.2897860702521404  0.8038745397547833  0.4709363688796503
  0.7905065866827664  0.6986885697782166  0.9681843498775401
  0.7058194515653200  0.2157220047604143  0.5037309295628957
  0.4555679756466474  0.5092126460059425  0.7387230772133923
  0.0444799399585940  0.0104450883322482  0.7354792952154062
  0.2893947691160997  0.7866855770840214  0.9989929763051716
  0.5450236783855036  0.4924635661792169  0.2325338137199560
Cartesian
  0.0000000000000000  0.0000000000000000  0.0000000000000000
  0.0000000000000000  0.0000000000000000  0.0000000000000000
  0.0000000000000000  0.0000000000000000  0.0000000000000000
  0.0000000000000000  0.0000000000000000  0.0000000000000000
  0.0000000000000000  0.0000000000000000  0.0000000000000000
  0.0000000000000000  0.0000000000000000  0.0000000000000000
  0.0000000000000000  0.0000000000000000  0.0000000000000000
  0.0000000000000000  0.0000000000000000  0.0000000000000000
  0.0000000000000000  0.0000000000000000  0.0000000000000000
  0.0000000000000000  0.0000000000000000  0.0000000000000000
  0.0000000000000000  0.0000000000000000  0.0000000000000000
  0.0000000000000000  0.0000000000000000  0.0000000000000000
  0.0000000000000000  0.0000000000000000  0.0000000000000000
  0.0000000000000000  0.0000000000000000  0.0000000000000000
  0.0000000000000000  0.0000000000000000  0.0000000000000000
  0.0000000000000000  0.0000000000000000  0.0000000000000000
  0.0000000000000000  0.0000000000000000  0.0000000000000000
  0.0000000000000000  0.0000000000000000  0.0000000000000000
  0.0000000000000000  0.0000000000000000  0.0000000000000000
  0.0000000000000000  0.0000000000000000  0.0000000000000000
  0.0000000000000000  0.0000000000000000  0.0000000000000000
  0.0000000000000000  0.0000000000000000  0.0000000000000000
  0.0000000000000000  0.0000000000000000  0.0000000000000000
  0.0000000000000000  0.0000000000000000  0.0000000000000000
  0.0000000000000000  0.0000000000000000  0.0000000000000000
  0.0000000000000000  0.0000000000000000  0.0000000000000000
  0.0000000000000000  0.0000000000000000  0.0000000000000000
  0.0000000000000000  0.0000000000000000  0.0000000000000000
  0.0000000000000000  0.0000000000000000  0.0000000000000000
  0.0000000000000000  0.0000000000000000  0.0000000000000000
  0.0000000000000000  0.0000000000000000  0.0000000000000000
  0.0000000000000000  0.0000000000000000  0.0000000000000000
  0.0000000000000000  0.0000000000000000  0.0000000000000000
  0.0000000000000000  0.0000000000000000  0.0000000000000000
  0.0000000000000000  0.0000000000000000  0.0000000000000000
  0.0000000000000000  0.0000000000000000  0.0000000000000000
  0.0000000000000000  0.0000000000000000  0.0000000000000000
  0.0000000000000000  0.0000000000000000  0.0000000000000000
  0.0000000000000000  0.0000000000000000  0.0000000000000000
  0.0000000000000000  0.0000000000000000  0.0000000000000000
  0.0000000000000000  0.0000000000000000  0.0000000000000000
  0.0000000000000000  0.0000000000000000  0.0000000000000000
  0.0000000000000000  0.0000000000000000  0.0000000000000000
  0.0000000000000000  0.0000000000000000  0.0000000000000000
  0.0000000000000000  0.0000000000000000  0.0000000000000000
  0.0000000000000000  0.0000000000000000  0.0000000000000000
  0.0000000000000000  0.0000000000000000  0.0000000000000000
  0.0000000000000000  0.0000000000000000  0.0000000000000000
