tetragonal FAPbI3;P4/mbm                
   1.0000000000000000     
     8.9515839677080429    0.0000000000000000    0.0000000000000000
     0.0000000000000000    8.9515839677080429    0.0000000000000000
     0.0000000000000000    0.0000000000000000    6.3289724258144924
  C               N               H               Pb              I             
     2     4    10     2     6
Direct
     0.5000018554397698    0.5000022537173052    0.5710403322727791
     0.0000007410375673    0.9999987646105950    0.5710395938371553
     0.5923605361560373    0.5923609490486126    0.4766091276506752
     0.4076383177027399    0.4076387073314638    0.4766099341852548
     0.0923620950710397    0.9076375139154240    0.4766096082480540
     0.9076383193461541    0.0923612661454111    0.4766098424062757
     0.5000002811686741    0.5000006754111794    0.7434264662190360
     0.6592091954965085    0.6592095959892248    0.5661366853646338
     0.6020693100817947    0.6020696547829014    0.3166438871792306
     0.3979307917607434    0.3979311138557483    0.3166450883516828
     0.3407914599621690    0.3407918295367409    0.5661383174631150
     0.0000003891983269    0.9999991386351894    0.7434260803279444
     0.1592086373763309    0.8407909377739742    0.5661350976884104
     0.1020694143006717    0.8979303599230239    0.3166429493597162
     0.8979304601907576    0.1020692870001123    0.3166437081396493
     0.8407911209208407    0.1592084093970315    0.5661379273929167
     0.9999996702832874    0.4999998411152120    0.9927505274872077
     0.4999997010236399    0.0000000324883942    0.9927505235476177
     0.9999999102034849    0.4999996263576136    0.4921385429164228
     0.4999999142446683    0.0000003677771616    0.4921385312449057
     0.2186678284269128    0.2186681567228313    0.9904733271455246
     0.2813310734694347    0.7186684483800968    0.9904727358961214
     0.7186678765834281    0.2813316430586887    0.9904731449683855
     0.7813311005550466    0.7813314270260924    0.9904727015072954

  0.00000000E+00  0.00000000E+00  0.00000000E+00
  0.00000000E+00  0.00000000E+00  0.00000000E+00
  0.00000000E+00  0.00000000E+00  0.00000000E+00
  0.00000000E+00  0.00000000E+00  0.00000000E+00
  0.00000000E+00  0.00000000E+00  0.00000000E+00
  0.00000000E+00  0.00000000E+00  0.00000000E+00
  0.00000000E+00  0.00000000E+00  0.00000000E+00
  0.00000000E+00  0.00000000E+00  0.00000000E+00
  0.00000000E+00  0.00000000E+00  0.00000000E+00
  0.00000000E+00  0.00000000E+00  0.00000000E+00
  0.00000000E+00  0.00000000E+00  0.00000000E+00
  0.00000000E+00  0.00000000E+00  0.00000000E+00
  0.00000000E+00  0.00000000E+00  0.00000000E+00
  0.00000000E+00  0.00000000E+00  0.00000000E+00
  0.00000000E+00  0.00000000E+00  0.00000000E+00
  0.00000000E+00  0.00000000E+00  0.00000000E+00
  0.00000000E+00  0.00000000E+00  0.00000000E+00
  0.00000000E+00  0.00000000E+00  0.00000000E+00
  0.00000000E+00  0.00000000E+00  0.00000000E+00
  0.00000000E+00  0.00000000E+00  0.00000000E+00
  0.00000000E+00  0.00000000E+00  0.00000000E+00
  0.00000000E+00  0.00000000E+00  0.00000000E+00
  0.00000000E+00  0.00000000E+00  0.00000000E+00
  0.00000000E+00  0.00000000E+00  0.00000000E+00
