C  N  H  Pb I                           
   1.0000000000000000     
     9.0193899931757802    0.0000000000000000    0.0000000000000000
     0.0000000000000000    8.7777678445653162    0.0000000000000000
     0.0000000000000000    0.0000000000000000   12.7961868062944486
  C               N               H               Pb              I             
     4     8    20     4    12
Direct
     0.5091998085315197    0.0422383396357873    0.2460971949206012
     0.0054930284729409    0.4640715965433984    0.7506438413402137
     0.9922158424087115    0.5406503712439346    0.2477130873221753
     0.4888172498214587    0.9589859457022953    0.7453600211890574
     0.5657435929581851    0.9259012923682235    0.1955522939249050
     0.0717177781750706    0.5634810211884087    0.6899577376794923
     0.1327515147629370    0.5791067773330454    0.2426320936932029
     0.6178109937047012    0.8937478085799739    0.7290944443746739
     0.3727661339823669    0.0921375395833905    0.2353960074645371
     0.8698987411335395    0.4131944232821851    0.7371687141234915
     0.9275397757790316    0.4402710550559519    0.1869484587205292
     0.4453598613842971    0.0871971271127734    0.7024816290964964
     0.5807437388006136    0.1019764495147797    0.3017111116400315
     0.0675045664713565    0.4205893483441940    0.8178372771921119
     0.9242762308469352    0.5962021463649947    0.3074607619331999
     0.4122095977117723    0.9022619074829095    0.7990757091929552
     0.6755269344478165    0.9006865576536001    0.2054566145117889
     0.1802568818881696    0.5901309801584702    0.7040299048381229
     0.1757499258411315    0.6532258432378981    0.2963397987038832
     0.6454615119998834    0.7974090338900268    0.7696036285693424
     0.5056845993350123    0.8659656899618682    0.1414498675980269
     0.0209319809934811    0.6074913663632344    0.6250218064693556
     0.2041740142735264    0.5317791621056216    0.1901683090968120
     0.6962601333881580    0.9396550684689942    0.6812240762989319
     0.2983576882055274    0.0421921502206288    0.1862401861354996
     0.8038969257682353    0.4489155973494192    0.6773681448643813
     0.9839752472617320    0.3853248481181666    0.1285832053310401
     0.5106416330666335    0.1453806763252246    0.6505275459619426
     0.3355981864343391    0.1792426121303450    0.2815648087465021
     0.8243179909610845    0.3410717784647304    0.7910969809796242
     0.8157057554774170    0.4238464221302181    0.1936222567173544
     0.3397913293608710    0.1247630593545566    0.7160523230026854
     0.5023441722619779    0.4879288203356396    0.9810849892003191
     0.0023441785924945    0.0120711836670608    0.4810849868122489
     0.9976558244282359    0.9879288178551917    0.9810849914872719
     0.4976558298475950    0.5120711849063113    0.4810849885500943
     0.7958928941106862    0.7105293335369609    0.5032699314851357
     0.9606598229172718    0.9944623124655507    0.2320592544955247
     0.7060293635732506    0.1956508126848462    0.9614522052702341
     0.2041070863312058    0.2894707010478257    0.0032699320500740
     0.2060293779368507    0.3043491755398549    0.4614522129329686
     0.2939706246777973    0.8043491828284957    0.4614522154174097
     0.7939706408800902    0.6956508110307098    0.9614522100061293
     0.7041071043942750    0.2105293303375291    0.5032699287679776
     0.4606598128207438    0.5055376617516671    0.7320592563212429
     0.0393401777688851    0.0055376740307977    0.7320592521911493
     0.2958929104798855    0.7894706933117490    0.0032699289927791
     0.5393401671427824    0.4944623109760684    0.2320592517272502

  0.00000000E+00  0.00000000E+00  0.00000000E+00
  0.00000000E+00  0.00000000E+00  0.00000000E+00
  0.00000000E+00  0.00000000E+00  0.00000000E+00
  0.00000000E+00  0.00000000E+00  0.00000000E+00
  0.00000000E+00  0.00000000E+00  0.00000000E+00
  0.00000000E+00  0.00000000E+00  0.00000000E+00
  0.00000000E+00  0.00000000E+00  0.00000000E+00
  0.00000000E+00  0.00000000E+00  0.00000000E+00
  0.00000000E+00  0.00000000E+00  0.00000000E+00
  0.00000000E+00  0.00000000E+00  0.00000000E+00
  0.00000000E+00  0.00000000E+00  0.00000000E+00
  0.00000000E+00  0.00000000E+00  0.00000000E+00
  0.00000000E+00  0.00000000E+00  0.00000000E+00
  0.00000000E+00  0.00000000E+00  0.00000000E+00
  0.00000000E+00  0.00000000E+00  0.00000000E+00
  0.00000000E+00  0.00000000E+00  0.00000000E+00
  0.00000000E+00  0.00000000E+00  0.00000000E+00
  0.00000000E+00  0.00000000E+00  0.00000000E+00
  0.00000000E+00  0.00000000E+00  0.00000000E+00
  0.00000000E+00  0.00000000E+00  0.00000000E+00
  0.00000000E+00  0.00000000E+00  0.00000000E+00
  0.00000000E+00  0.00000000E+00  0.00000000E+00
  0.00000000E+00  0.00000000E+00  0.00000000E+00
  0.00000000E+00  0.00000000E+00  0.00000000E+00
  0.00000000E+00  0.00000000E+00  0.00000000E+00
  0.00000000E+00  0.00000000E+00  0.00000000E+00
  0.00000000E+00  0.00000000E+00  0.00000000E+00
  0.00000000E+00  0.00000000E+00  0.00000000E+00
  0.00000000E+00  0.00000000E+00  0.00000000E+00
  0.00000000E+00  0.00000000E+00  0.00000000E+00
  0.00000000E+00  0.00000000E+00  0.00000000E+00
  0.00000000E+00  0.00000000E+00  0.00000000E+00
  0.00000000E+00  0.00000000E+00  0.00000000E+00
  0.00000000E+00  0.00000000E+00  0.00000000E+00
  0.00000000E+00  0.00000000E+00  0.00000000E+00
  0.00000000E+00  0.00000000E+00  0.00000000E+00
  0.00000000E+00  0.00000000E+00  0.00000000E+00
  0.00000000E+00  0.00000000E+00  0.00000000E+00
  0.00000000E+00  0.00000000E+00  0.00000000E+00
  0.00000000E+00  0.00000000E+00  0.00000000E+00
  0.00000000E+00  0.00000000E+00  0.00000000E+00
  0.00000000E+00  0.00000000E+00  0.00000000E+00
  0.00000000E+00  0.00000000E+00  0.00000000E+00
  0.00000000E+00  0.00000000E+00  0.00000000E+00
  0.00000000E+00  0.00000000E+00  0.00000000E+00
  0.00000000E+00  0.00000000E+00  0.00000000E+00
  0.00000000E+00  0.00000000E+00  0.00000000E+00
  0.00000000E+00  0.00000000E+00  0.00000000E+00
