C  N  H  Pb I 
 1.0000000000000000
     9.0193899931757802    0.0000000000000000    0.0000000000000000
     0.0000000000000000    8.7777678445653162    0.0000000000000000
     0.0000000000000000    0.0000000000000000   12.7961868062944486
 C   N   H   Pb  I  
   4   8  20   4  12
Direct
  0.5091998085315184  0.0422383396357901  0.2460971949205997
  0.0054930284729419  0.4640715965433964  0.7506438413402142
  0.9922158424087144  0.5406503712439319  0.2477130873221783
  0.4888172498214618  0.9589859457022952  0.7453600211890589
  0.5657435929581863  0.9259012923682257  0.1955522939249024
  0.0717177781750740  0.5634810211884119  0.6899577376794932
  0.1327515147629353  0.5791067773330455  0.2426320936932018
  0.6178109937047016  0.8937478085799733  0.7290944443746709
  0.3727661339823690  0.0921375395833922  0.2353960074645405
  0.8698987411335424  0.4131944232821869  0.7371687141234913
  0.9275397757790332  0.4402710550559554  0.1869484587205305
  0.4453598613842941  0.0871971271127721  0.7024816290964948
  0.5807437388006148  0.1019764495147832  0.3017111116400304
  0.0675045664713542  0.4205893483441934  0.8178372771921091
  0.9242762308469386  0.5962021463649948  0.3074607619331999
  0.4122095977117700  0.9022619074829070  0.7990757091929545
  0.6755269344478187  0.9006865576536014  0.2054566145117859
  0.1802568818881680  0.5901309801584705  0.7040299048381264
  0.1757499258411315  0.6532258432378981  0.2963397987038847
  0.6454615119998819  0.7974090338900248  0.7696036285693417
  0.5056845993350145  0.8659656899618695  0.1414498675980267
  0.0209319809934812  0.6074913663632312  0.6250218064693567
  0.2041740142735243  0.5317791621056194  0.1901683090968149
  0.6962601333881591  0.9396550684689933  0.6812240762989317
  0.2983576882055307  0.0421921502206282  0.1862401861354971
  0.8038969257682339  0.4489155973494199  0.6773681448643784
  0.9839752472617322  0.3853248481181654  0.1285832053310373
  0.5106416330666332  0.1453806763252255  0.6505275459619414
  0.3355981864343420  0.1792426121303424  0.2815648087465031
  0.8243179909610877  0.3410717784647327  0.7910969809796249
  0.8157057554774149  0.4238464221302180  0.1936222567173571
  0.3397913293608683  0.1247630593545537  0.7160523230026846
  0.5023441722619808  0.4879288203356366  0.9810849892003165
  0.0023441785924915  0.0120711836670638  0.4810849868122521
  0.9976558244282330  0.9879288178551918  0.9810849914872694
  0.4976558298475982  0.5120711849063111  0.4810849885500975
  0.7958928941106866  0.7105293335369601  0.5032699314851331
  0.9606598229172731  0.9944623124655482  0.2320592544955259
  0.7060293635732524  0.1956508126848427  0.9614522052702348
  0.2041070863312036  0.2894707010478275  0.0032699320500760
  0.2060293779368493  0.3043491755398582  0.4614522129329701
  0.2939706246777947  0.8043491828284943  0.4614522154174112
  0.7939706408800884  0.6956508110307111  0.9614522100061302
  0.7041071043942746  0.2105293303375289  0.5032699287679750
  0.4606598128207440  0.5055376617516696  0.7320592563212425
  0.0393401777688836  0.0055376740307987  0.7320592521911489
  0.2958929104798871  0.7894706933117497  0.0032699289927811
  0.5393401671427811  0.4944623109760681  0.2320592517272514
Cartesian
  0.0000000000000000  0.0000000000000000  0.0000000000000000
  0.0000000000000000  0.0000000000000000  0.0000000000000000
  0.0000000000000000  0.0000000000000000  0.0000000000000000
  0.0000000000000000  0.0000000000000000  0.0000000000000000
  0.0000000000000000  0.0000000000000000  0.0000000000000000
  0.0000000000000000  0.0000000000000000  0.0000000000000000
  0.0000000000000000  0.0000000000000000  0.0000000000000000
  0.0000000000000000  0.0000000000000000  0.0000000000000000
  0.0000000000000000  0.0000000000000000  0.0000000000000000
  0.0000000000000000  0.0000000000000000  0.0000000000000000
  0.0000000000000000  0.0000000000000000  0.0000000000000000
  0.0000000000000000  0.0000000000000000  0.0000000000000000
  0.0000000000000000  0.0000000000000000  0.0000000000000000
  0.0000000000000000  0.0000000000000000  0.0000000000000000
  0.0000000000000000  0.0000000000000000  0.0000000000000000
  0.0000000000000000  0.0000000000000000  0.0000000000000000
  0.0000000000000000  0.0000000000000000  0.0000000000000000
  0.0000000000000000  0.0000000000000000  0.0000000000000000
  0.0000000000000000  0.0000000000000000  0.0000000000000000
  0.0000000000000000  0.0000000000000000  0.0000000000000000
  0.0000000000000000  0.0000000000000000  0.0000000000000000
  0.0000000000000000  0.0000000000000000  0.0000000000000000
  0.0000000000000000  0.0000000000000000  0.0000000000000000
  0.0000000000000000  0.0000000000000000  0.0000000000000000
  0.0000000000000000  0.0000000000000000  0.0000000000000000
  0.0000000000000000  0.0000000000000000  0.0000000000000000
  0.0000000000000000  0.0000000000000000  0.0000000000000000
  0.0000000000000000  0.0000000000000000  0.0000000000000000
  0.0000000000000000  0.0000000000000000  0.0000000000000000
  0.0000000000000000  0.0000000000000000  0.0000000000000000
  0.0000000000000000  0.0000000000000000  0.0000000000000000
  0.0000000000000000  0.0000000000000000  0.0000000000000000
  0.0000000000000000  0.0000000000000000  0.0000000000000000
  0.0000000000000000  0.0000000000000000  0.0000000000000000
  0.0000000000000000  0.0000000000000000  0.0000000000000000
  0.0000000000000000  0.0000000000000000  0.0000000000000000
  0.0000000000000000  0.0000000000000000  0.0000000000000000
  0.0000000000000000  0.0000000000000000  0.0000000000000000
  0.0000000000000000  0.0000000000000000  0.0000000000000000
  0.0000000000000000  0.0000000000000000  0.0000000000000000
  0.0000000000000000  0.0000000000000000  0.0000000000000000
  0.0000000000000000  0.0000000000000000  0.0000000000000000
  0.0000000000000000  0.0000000000000000  0.0000000000000000
  0.0000000000000000  0.0000000000000000  0.0000000000000000
  0.0000000000000000  0.0000000000000000  0.0000000000000000
  0.0000000000000000  0.0000000000000000  0.0000000000000000
  0.0000000000000000  0.0000000000000000  0.0000000000000000
  0.0000000000000000  0.0000000000000000  0.0000000000000000
