C  N  H  Pb I                           
   1.0000000000000000     
     9.0193899931757802    0.0000000000000000    0.0000000000000000
     0.0000000000000000    8.7777678445653162    0.0000000000000000
     0.0000000000000000    0.0000000000000000   12.7961868062944486
  C               N               H               Pb              I             
     4     8    20     4    12
Direct
     0.5136998246587652    0.0505409541432229    0.2522697551271307
     0.0178093602551783    0.4606912034298674    0.7445174657149778
     0.9897957037019012    0.5347699693570576    0.2532193185473091
     0.4920307934595129    0.9573649264157851    0.7607897266207004
     0.5798429129961491    0.9268105105280640    0.1923129293482830
     0.0666450750681022    0.5688324153989655    0.6865449098611549
     0.1336843033709769    0.5903373226372395    0.2401108772651384
     0.6130161280783000    0.9177060512079507    0.7407496296112583
     0.3573537632098081    0.0961408103422201    0.2428504623825063
     0.8559854183311231    0.4221628349296722    0.7399210166269796
     0.9315077688277356    0.4326284820422117    0.1863770924648165
     0.4223085467560779    0.0637929687129599    0.6905841383240627
     0.5801223453329243    0.0915616647174957    0.3036512342287381
     0.0768099737896932    0.4131047712950746    0.8040982374927026
     0.9274461816687776    0.5855222750158049    0.3138971715655217
     0.4166049666290874    0.9072524788513263    0.8081020900354616
     0.6729846702274003    0.9136769702064811    0.2012161362324676
     0.1844253970498997    0.5864352904350341    0.6951488754190152
     0.1766843487943248    0.6598290320377913    0.2845461868462351
     0.6753587003437289    0.8435862775618403    0.7931582314725318
     0.5162333103870225    0.8922036537346472    0.1310042283045547
     0.0105262068588203    0.6216302856799700    0.6349654146905053
     0.1957956865960782    0.5352617950301664    0.1851580133521011
     0.7102551516756179    0.9561190586237274    0.6861887737229111
     0.3025669740813086    0.0284533341070983    0.1930916713070872
     0.7977091550148785    0.4695067626526921    0.6893483928167967
     0.9777655203859652    0.3749361684355250    0.1384296298128191
     0.4821038400723694    0.1304830534057544    0.6312244334956389
     0.3413136241553900    0.1713564425161636    0.2966228268655300
     0.8212767784969230    0.3500676664129543    0.7915376385221080
     0.8171720313850841    0.4394316010381019    0.1958342846747740
     0.3216635211416587    0.0868973690336006    0.6942503654786165
     0.4982121787185321    0.4837176120342122    0.9838219534076416
     0.9940457993283403    0.0174387374203135    0.4847193434584582
     0.0087373417506384    0.9768028968521918    0.9750621102141537
     0.4832342287916518    0.5125711582636043    0.4753446005778486
     0.7915707780299002    0.7011358462985058    0.5029398557565585
     0.9520374996042165    0.9997734131812379    0.2334943126490359
     0.7165135106388831    0.2006912976135524    0.9638628865265133
     0.1981566123487610    0.2881491332278259    0.0092853617424069
     0.2029759236742805    0.3062292505518798    0.4611249122498506
     0.3021809134789919    0.7972901548223632    0.4677921005986647
     0.8032171883196568    0.6889624673320967    0.9689255666899896
     0.6927484547265763    0.2227952871260541    0.5064568523755497
     0.4649803952271085    0.5087198040818208    0.7294448257788417
     0.0381509073505342    0.0133269164954939    0.7384925525035513
     0.2976096916366231    0.7839241197757119    0.0040265625097646
     0.5302244765159614    0.4928751509795077    0.2309413513280560

  0.00000000E+00  0.00000000E+00  0.00000000E+00
  0.00000000E+00  0.00000000E+00  0.00000000E+00
  0.00000000E+00  0.00000000E+00  0.00000000E+00
  0.00000000E+00  0.00000000E+00  0.00000000E+00
  0.00000000E+00  0.00000000E+00  0.00000000E+00
  0.00000000E+00  0.00000000E+00  0.00000000E+00
  0.00000000E+00  0.00000000E+00  0.00000000E+00
  0.00000000E+00  0.00000000E+00  0.00000000E+00
  0.00000000E+00  0.00000000E+00  0.00000000E+00
  0.00000000E+00  0.00000000E+00  0.00000000E+00
  0.00000000E+00  0.00000000E+00  0.00000000E+00
  0.00000000E+00  0.00000000E+00  0.00000000E+00
  0.00000000E+00  0.00000000E+00  0.00000000E+00
  0.00000000E+00  0.00000000E+00  0.00000000E+00
  0.00000000E+00  0.00000000E+00  0.00000000E+00
  0.00000000E+00  0.00000000E+00  0.00000000E+00
  0.00000000E+00  0.00000000E+00  0.00000000E+00
  0.00000000E+00  0.00000000E+00  0.00000000E+00
  0.00000000E+00  0.00000000E+00  0.00000000E+00
  0.00000000E+00  0.00000000E+00  0.00000000E+00
  0.00000000E+00  0.00000000E+00  0.00000000E+00
  0.00000000E+00  0.00000000E+00  0.00000000E+00
  0.00000000E+00  0.00000000E+00  0.00000000E+00
  0.00000000E+00  0.00000000E+00  0.00000000E+00
  0.00000000E+00  0.00000000E+00  0.00000000E+00
  0.00000000E+00  0.00000000E+00  0.00000000E+00
  0.00000000E+00  0.00000000E+00  0.00000000E+00
  0.00000000E+00  0.00000000E+00  0.00000000E+00
  0.00000000E+00  0.00000000E+00  0.00000000E+00
  0.00000000E+00  0.00000000E+00  0.00000000E+00
  0.00000000E+00  0.00000000E+00  0.00000000E+00
  0.00000000E+00  0.00000000E+00  0.00000000E+00
  0.00000000E+00  0.00000000E+00  0.00000000E+00
  0.00000000E+00  0.00000000E+00  0.00000000E+00
  0.00000000E+00  0.00000000E+00  0.00000000E+00
  0.00000000E+00  0.00000000E+00  0.00000000E+00
  0.00000000E+00  0.00000000E+00  0.00000000E+00
  0.00000000E+00  0.00000000E+00  0.00000000E+00
  0.00000000E+00  0.00000000E+00  0.00000000E+00
  0.00000000E+00  0.00000000E+00  0.00000000E+00
  0.00000000E+00  0.00000000E+00  0.00000000E+00
  0.00000000E+00  0.00000000E+00  0.00000000E+00
  0.00000000E+00  0.00000000E+00  0.00000000E+00
  0.00000000E+00  0.00000000E+00  0.00000000E+00
  0.00000000E+00  0.00000000E+00  0.00000000E+00
  0.00000000E+00  0.00000000E+00  0.00000000E+00
  0.00000000E+00  0.00000000E+00  0.00000000E+00
  0.00000000E+00  0.00000000E+00  0.00000000E+00
