C  N  H  Pb I 
 1.0000000000000000
     9.0193899931757802    0.0000000000000000    0.0000000000000000
     0.0000000000000000    8.7777678445653162    0.0000000000000000
     0.0000000000000000    0.0000000000000000   12.7961868062944486
 C   N   H   Pb  I  
   4   8  20   4  12
Direct
  0.5136998246587627  0.0505409541432247  0.2522697551271311
  0.0178093602551759  0.4606912034298696  0.7445174657149763
  0.9897957037019045  0.5347699693570599  0.2532193185473097
  0.4920307934595120  0.9573649264157881  0.7607897266207040
  0.5798429129961469  0.9268105105280616  0.1923129293482860
  0.0666450750681052  0.5688324153989652  0.6865449098611545
  0.1336843033709777  0.5903373226372401  0.2401108772651368
  0.6130161280783014  0.9177060512079507  0.7407496296112577
  0.3573537632098100  0.0961408103422223  0.2428504623825029
  0.8559854183311210  0.4221628349296737  0.7399210166269766
  0.9315077688277358  0.4326284820422147  0.1863770924648152
  0.4223085467560777  0.0637929687129590  0.6905841383240645
  0.5801223453329223  0.0915616647174981  0.3036512342287347
  0.0768099737896926  0.4131047712950741  0.8040982374926994
  0.9274461816687791  0.5855222750158080  0.3138971715655227
  0.4166049666290905  0.9072524788513261  0.8081020900354592
  0.6729846702273994  0.9136769702064802  0.2012161362324708
  0.1844253970499025  0.5864352904350368  0.6951488754190163
  0.1766843487943264  0.6598290320377903  0.2845461868462369
  0.6753587003437277  0.8435862775618416  0.7931582314725337
  0.5162333103870215  0.8922036537346481  0.1310042283045558
  0.0105262068588236  0.6216302856799673  0.6349654146905069
  0.1957956865960774  0.5352617950301634  0.1851580133521022
  0.7102551516756210  0.9561190586237261  0.6861887737229136
  0.3025669740813068  0.0284533341070995  0.1930916713070901
  0.7977091550148817  0.4695067626526905  0.6893483928167966
  0.9777655203859652  0.3749361684355227  0.1384296298128169
  0.4821038400723691  0.1304830534057572  0.6312244334956360
  0.3413136241553929  0.1713564425161622  0.2966228268655307
  0.8212767784969197  0.3500676664129551  0.7915376385221100
  0.8171720313850833  0.4394316010381033  0.1958342846747740
  0.3216635211416561  0.0868973690336023  0.6942503654786168
  0.4982121787185294  0.4837176120342129  0.9838219534076431
  0.9940457993283380  0.0174387374203139  0.4847193434584578
  0.0087373417506367  0.9768028968521888  0.9750621102141515
  0.4832342287916504  0.5125711582636018  0.4753446005778506
  0.7915707780298974  0.7011358462985069  0.5029398557565589
  0.9520374996042144  0.9997734131812395  0.2334943126490332
  0.7165135106388807  0.2006912976135541  0.9638628865265123
  0.1981566123487639  0.2881491332278251  0.0092853617424039
  0.2029759236742775  0.3062292505518820  0.4611249122498495
  0.3021809134789916  0.7972901548223652  0.4677921005986663
  0.8032171883196580  0.6889624673320942  0.9689255666899895
  0.6927484547265768  0.2227952871260572  0.5064568523755498
  0.4649803952271065  0.5087198040818236  0.7294448257788396
  0.0381509073505372  0.0133269164954920  0.7384925525035487
  0.2976096916366240  0.7839241197757102  0.0040265625097642
  0.5302244765159587  0.4928751509795090  0.2309413513280594
Cartesian
  0.0000000000000000  0.0000000000000000  0.0000000000000000
  0.0000000000000000  0.0000000000000000  0.0000000000000000
  0.0000000000000000  0.0000000000000000  0.0000000000000000
  0.0000000000000000  0.0000000000000000  0.0000000000000000
  0.0000000000000000  0.0000000000000000  0.0000000000000000
  0.0000000000000000  0.0000000000000000  0.0000000000000000
  0.0000000000000000  0.0000000000000000  0.0000000000000000
  0.0000000000000000  0.0000000000000000  0.0000000000000000
  0.0000000000000000  0.0000000000000000  0.0000000000000000
  0.0000000000000000  0.0000000000000000  0.0000000000000000
  0.0000000000000000  0.0000000000000000  0.0000000000000000
  0.0000000000000000  0.0000000000000000  0.0000000000000000
  0.0000000000000000  0.0000000000000000  0.0000000000000000
  0.0000000000000000  0.0000000000000000  0.0000000000000000
  0.0000000000000000  0.0000000000000000  0.0000000000000000
  0.0000000000000000  0.0000000000000000  0.0000000000000000
  0.0000000000000000  0.0000000000000000  0.0000000000000000
  0.0000000000000000  0.0000000000000000  0.0000000000000000
  0.0000000000000000  0.0000000000000000  0.0000000000000000
  0.0000000000000000  0.0000000000000000  0.0000000000000000
  0.0000000000000000  0.0000000000000000  0.0000000000000000
  0.0000000000000000  0.0000000000000000  0.0000000000000000
  0.0000000000000000  0.0000000000000000  0.0000000000000000
  0.0000000000000000  0.0000000000000000  0.0000000000000000
  0.0000000000000000  0.0000000000000000  0.0000000000000000
  0.0000000000000000  0.0000000000000000  0.0000000000000000
  0.0000000000000000  0.0000000000000000  0.0000000000000000
  0.0000000000000000  0.0000000000000000  0.0000000000000000
  0.0000000000000000  0.0000000000000000  0.0000000000000000
  0.0000000000000000  0.0000000000000000  0.0000000000000000
  0.0000000000000000  0.0000000000000000  0.0000000000000000
  0.0000000000000000  0.0000000000000000  0.0000000000000000
  0.0000000000000000  0.0000000000000000  0.0000000000000000
  0.0000000000000000  0.0000000000000000  0.0000000000000000
  0.0000000000000000  0.0000000000000000  0.0000000000000000
  0.0000000000000000  0.0000000000000000  0.0000000000000000
  0.0000000000000000  0.0000000000000000  0.0000000000000000
  0.0000000000000000  0.0000000000000000  0.0000000000000000
  0.0000000000000000  0.0000000000000000  0.0000000000000000
  0.0000000000000000  0.0000000000000000  0.0000000000000000
  0.0000000000000000  0.0000000000000000  0.0000000000000000
  0.0000000000000000  0.0000000000000000  0.0000000000000000
  0.0000000000000000  0.0000000000000000  0.0000000000000000
  0.0000000000000000  0.0000000000000000  0.0000000000000000
  0.0000000000000000  0.0000000000000000  0.0000000000000000
  0.0000000000000000  0.0000000000000000  0.0000000000000000
  0.0000000000000000  0.0000000000000000  0.0000000000000000
  0.0000000000000000  0.0000000000000000  0.0000000000000000
