C  N  H  Pb I                           
   1.0000000000000000     
     8.9441146823020770   -0.0565351877081033    0.0443676701724223
    -0.0550206558454758    8.6746021158275255   -0.0121169976047155
     0.0629462742065631   -0.0176640995327030   12.6785192754156935
  C               N               H               Pb              I             
     4     8    20     4    12
Direct
     0.4755168776193699    0.0497985231033979    0.2539283350004951
     0.0089883693773771    0.4575539139262546    0.7404206039096195
     0.9808020169017269    0.5409034618986510    0.2456805958376052
     0.4851086293155547    0.9665860106173412    0.7416673089028833
     0.5857991056821561    0.9367865049315398    0.2475154850504495
     0.0710337319034906    0.5662736132630855    0.6867151731349637
     0.1304277329307268    0.5719963749580756    0.2539523948017646
     0.6172983931321170    0.8869497002101667    0.7428529222535829
     0.3773735228483801    0.0762834041610816    0.1864252245340765
     0.8667733551992924    0.4128048499540853    0.7402281363356451
     0.9310755852921275    0.4461820145133899    0.1686804892154967
     0.4559467653589024    0.0905687718540875    0.6879473100135840
     0.4904266216243016    0.1304539467589407    0.3194554247308048
     0.0764625384968696    0.4072863584223398    0.8056336735393259
     0.9090640826193450    0.5953199143921495    0.2956862901591464
     0.4032172876006257    0.9096265257227003    0.7951648152135107
     0.6595533340045989    0.9330157140121571    0.2973546476098861
     0.1690476372538896    0.5858902966207680    0.7021890067695580
     0.1566463291176206    0.6484053801685192    0.3180368222448919
     0.6383775980817674    0.7941309919991397    0.7923741465350176
     0.5854638152514795    0.8666301733693516    0.1845610875017485
     0.0191945046092101    0.6233694958328542    0.6341550975323429
     0.2127418947514386    0.5192338493074757    0.2132746064116731
     0.6998452558429449    0.9242027869581335    0.6924641299886432
     0.3665167551326576    0.0031915415413266    0.1187610779366537
     0.7889534916877068    0.4652774980351282    0.6891829030709289
     0.0023297772851905    0.3903263122659411    0.1240230855944588
     0.5310440415955426    0.1366225500686298    0.6436285034339519
     0.3021870392832682    0.1506955503952625    0.1931690170211624
     0.8270514857419258    0.3372495996332816    0.7923708250256780
     0.8138151233880961    0.4407885486463528    0.1634807709700894
     0.3495871057708158    0.1247956878894385    0.6958731969122809
     0.5085597345071875    0.4911995997790726    0.9805302114575341
     0.0023169155611740    0.0098838825402154    0.4813594785484980
     0.9974823136255395    0.9870529915558279    0.9809551092307984
     0.4948584483914615    0.5085273916322279    0.4786347896396990
     0.7870697663706849    0.7088947627377991    0.5061276080797228
     0.9616503985031102    0.9896544252966279    0.2330544132305405
     0.6999833737137493    0.1962388178298227    0.9565994147584931
     0.2104291111515124    0.2899829712181869    0.0041045904449746
     0.2090439353842726    0.2983369591781013    0.4638182826776358
     0.2912426968126596    0.8051935700070061    0.4599590626551375
     0.7862709237695853    0.7002657219791502    0.9616008912991489
     0.6949371092860375    0.2080459790316240    0.4995020548123250
     0.4580414034157485    0.5061797654423401    0.7316471535835802
     0.0501227572890741    0.0021530230364135    0.7317485529141337
     0.2961662867393002    0.7856082887502041    0.0036117425466813
     0.5469340650645549    0.4870904568121190    0.2345817860757151

  0.00000000E+00  0.00000000E+00  0.00000000E+00
  0.00000000E+00  0.00000000E+00  0.00000000E+00
  0.00000000E+00  0.00000000E+00  0.00000000E+00
  0.00000000E+00  0.00000000E+00  0.00000000E+00
  0.00000000E+00  0.00000000E+00  0.00000000E+00
  0.00000000E+00  0.00000000E+00  0.00000000E+00
  0.00000000E+00  0.00000000E+00  0.00000000E+00
  0.00000000E+00  0.00000000E+00  0.00000000E+00
  0.00000000E+00  0.00000000E+00  0.00000000E+00
  0.00000000E+00  0.00000000E+00  0.00000000E+00
  0.00000000E+00  0.00000000E+00  0.00000000E+00
  0.00000000E+00  0.00000000E+00  0.00000000E+00
  0.00000000E+00  0.00000000E+00  0.00000000E+00
  0.00000000E+00  0.00000000E+00  0.00000000E+00
  0.00000000E+00  0.00000000E+00  0.00000000E+00
  0.00000000E+00  0.00000000E+00  0.00000000E+00
  0.00000000E+00  0.00000000E+00  0.00000000E+00
  0.00000000E+00  0.00000000E+00  0.00000000E+00
  0.00000000E+00  0.00000000E+00  0.00000000E+00
  0.00000000E+00  0.00000000E+00  0.00000000E+00
  0.00000000E+00  0.00000000E+00  0.00000000E+00
  0.00000000E+00  0.00000000E+00  0.00000000E+00
  0.00000000E+00  0.00000000E+00  0.00000000E+00
  0.00000000E+00  0.00000000E+00  0.00000000E+00
  0.00000000E+00  0.00000000E+00  0.00000000E+00
  0.00000000E+00  0.00000000E+00  0.00000000E+00
  0.00000000E+00  0.00000000E+00  0.00000000E+00
  0.00000000E+00  0.00000000E+00  0.00000000E+00
  0.00000000E+00  0.00000000E+00  0.00000000E+00
  0.00000000E+00  0.00000000E+00  0.00000000E+00
  0.00000000E+00  0.00000000E+00  0.00000000E+00
  0.00000000E+00  0.00000000E+00  0.00000000E+00
  0.00000000E+00  0.00000000E+00  0.00000000E+00
  0.00000000E+00  0.00000000E+00  0.00000000E+00
  0.00000000E+00  0.00000000E+00  0.00000000E+00
  0.00000000E+00  0.00000000E+00  0.00000000E+00
  0.00000000E+00  0.00000000E+00  0.00000000E+00
  0.00000000E+00  0.00000000E+00  0.00000000E+00
  0.00000000E+00  0.00000000E+00  0.00000000E+00
  0.00000000E+00  0.00000000E+00  0.00000000E+00
  0.00000000E+00  0.00000000E+00  0.00000000E+00
  0.00000000E+00  0.00000000E+00  0.00000000E+00
  0.00000000E+00  0.00000000E+00  0.00000000E+00
  0.00000000E+00  0.00000000E+00  0.00000000E+00
  0.00000000E+00  0.00000000E+00  0.00000000E+00
  0.00000000E+00  0.00000000E+00  0.00000000E+00
  0.00000000E+00  0.00000000E+00  0.00000000E+00
  0.00000000E+00  0.00000000E+00  0.00000000E+00
