C  N  H  Pb I 
 1.0000000000000000
     8.9441146823020770   -0.0565351877081033    0.0443676701724223
    -0.0550206558454758    8.6746021158275255   -0.0121169976047155
     0.0629462742065631   -0.0176640995327030   12.6785192754156935
 C   N   H   Pb  I  
   4   8  20   4  12
Direct
  0.4755168776193721  0.0497985231033984  0.2539283350004940
  0.0089883693773787  0.4575539139262562  0.7404206039096165
  0.9808020169017260  0.5409034618986494  0.2456805958376051
  0.4851086293155529  0.9665860106173396  0.7416673089028814
  0.5857991056821583  0.9367865049315369  0.2475154850504513
  0.0710337319034875  0.5662736132630839  0.6867151731349613
  0.1304277329307253  0.5719963749580792  0.2539523948017675
  0.6172983931321174  0.8869497002101677  0.7428529222535830
  0.3773735228483766  0.0762834041610835  0.1864252245340786
  0.8667733551992908  0.4128048499540839  0.7402281363356478
  0.9310755852921290  0.4461820145133924  0.1686804892154966
  0.4559467653589009  0.0905687718540907  0.6879473100135842
  0.4904266216243015  0.1304539467589392  0.3194554247308073
  0.0764625384968729  0.4072863584223386  0.8056336735393290
  0.9090640826193483  0.5953199143921527  0.2956862901591494
  0.4032172876006241  0.9096265257226981  0.7951648152135073
  0.6595533340045983  0.9330157140121554  0.2973546476098830
  0.1690476372538908  0.5858902966207707  0.7021890067695585
  0.1566463291176195  0.6484053801685168  0.3180368222448944
  0.6383775980817642  0.7941309919991402  0.7923741465350174
  0.5854638152514793  0.8666301733693532  0.1845610875017501
  0.0191945046092082  0.6233694958328510  0.6341550975323421
  0.2127418947514368  0.5192338493074776  0.2132746064116759
  0.6998452558429457  0.9242027869581340  0.6924641299886426
  0.3665167551326558  0.0031915415413296  0.1187610779366539
  0.7889534916877047  0.4652774980351291  0.6891829030709294
  0.0023297772851936  0.3903263122659397  0.1240230855944555
  0.5310440415955393  0.1366225500686321  0.6436285034339553
  0.3021870392832707  0.1506955503952629  0.1931690170211600
  0.8270514857419290  0.3372495996332820  0.7923708250256759
  0.8138151233880940  0.4407885486463560  0.1634807709700923
  0.3495871057708186  0.1247956878894397  0.6958731969122811
  0.5085597345071862  0.4911995997790742  0.9805302114575324
  0.0023169155611731  0.0098838825402142  0.4813594785484978
  0.9974823136255377  0.9870529915558282  0.9809551092308001
  0.4948584483914635  0.5085273916322304  0.4786347896397025
  0.7870697663706825  0.7088947627377961  0.5061276080797227
  0.9616503985031112  0.9896544252966297  0.2330544132305373
  0.6999833737137526  0.1962388178298231  0.9565994147584931
  0.2104291111515126  0.2899829712181851  0.0041045904449771
  0.2090439353842729  0.2983369591781019  0.4638182826776388
  0.2912426968126615  0.8051935700070080  0.4599590626551341
  0.7862709237695824  0.7002657219791514  0.9616008912991511
  0.6949371092860372  0.2080459790316262  0.4995020548123220
  0.4580414034157489  0.5061797654423374  0.7316471535835781
  0.0501227572890707  0.0021530230364100  0.7317485529141370
  0.2961662867392983  0.7856082887502016  0.0036117425466808
  0.5469340650645576  0.4870904568121224  0.2345817860757130
Cartesian
  0.0000000000000000  0.0000000000000000  0.0000000000000000
  0.0000000000000000  0.0000000000000000  0.0000000000000000
  0.0000000000000000  0.0000000000000000  0.0000000000000000
  0.0000000000000000  0.0000000000000000  0.0000000000000000
  0.0000000000000000  0.0000000000000000  0.0000000000000000
  0.0000000000000000  0.0000000000000000  0.0000000000000000
  0.0000000000000000  0.0000000000000000  0.0000000000000000
  0.0000000000000000  0.0000000000000000  0.0000000000000000
  0.0000000000000000  0.0000000000000000  0.0000000000000000
  0.0000000000000000  0.0000000000000000  0.0000000000000000
  0.0000000000000000  0.0000000000000000  0.0000000000000000
  0.0000000000000000  0.0000000000000000  0.0000000000000000
  0.0000000000000000  0.0000000000000000  0.0000000000000000
  0.0000000000000000  0.0000000000000000  0.0000000000000000
  0.0000000000000000  0.0000000000000000  0.0000000000000000
  0.0000000000000000  0.0000000000000000  0.0000000000000000
  0.0000000000000000  0.0000000000000000  0.0000000000000000
  0.0000000000000000  0.0000000000000000  0.0000000000000000
  0.0000000000000000  0.0000000000000000  0.0000000000000000
  0.0000000000000000  0.0000000000000000  0.0000000000000000
  0.0000000000000000  0.0000000000000000  0.0000000000000000
  0.0000000000000000  0.0000000000000000  0.0000000000000000
  0.0000000000000000  0.0000000000000000  0.0000000000000000
  0.0000000000000000  0.0000000000000000  0.0000000000000000
  0.0000000000000000  0.0000000000000000  0.0000000000000000
  0.0000000000000000  0.0000000000000000  0.0000000000000000
  0.0000000000000000  0.0000000000000000  0.0000000000000000
  0.0000000000000000  0.0000000000000000  0.0000000000000000
  0.0000000000000000  0.0000000000000000  0.0000000000000000
  0.0000000000000000  0.0000000000000000  0.0000000000000000
  0.0000000000000000  0.0000000000000000  0.0000000000000000
  0.0000000000000000  0.0000000000000000  0.0000000000000000
  0.0000000000000000  0.0000000000000000  0.0000000000000000
  0.0000000000000000  0.0000000000000000  0.0000000000000000
  0.0000000000000000  0.0000000000000000  0.0000000000000000
  0.0000000000000000  0.0000000000000000  0.0000000000000000
  0.0000000000000000  0.0000000000000000  0.0000000000000000
  0.0000000000000000  0.0000000000000000  0.0000000000000000
  0.0000000000000000  0.0000000000000000  0.0000000000000000
  0.0000000000000000  0.0000000000000000  0.0000000000000000
  0.0000000000000000  0.0000000000000000  0.0000000000000000
  0.0000000000000000  0.0000000000000000  0.0000000000000000
  0.0000000000000000  0.0000000000000000  0.0000000000000000
  0.0000000000000000  0.0000000000000000  0.0000000000000000
  0.0000000000000000  0.0000000000000000  0.0000000000000000
  0.0000000000000000  0.0000000000000000  0.0000000000000000
  0.0000000000000000  0.0000000000000000  0.0000000000000000
  0.0000000000000000  0.0000000000000000  0.0000000000000000
