C  N  H  Pb I                           
   1.0000000000000000     
     9.0193899931757802    0.0000000000000000    0.0000000000000000
     0.0000000000000000    8.7777678445653162    0.0000000000000000
     0.0000000000000000    0.0000000000000000   12.7961868062944486
  C               N               H               Pb              I             
     4     8    20     4    12
Direct
     0.5073232830374224    0.0447741759922664    0.2477988601374861
     0.0063890384453842    0.4573872373443635    0.7456541025186993
     0.9887414255426563    0.5469790450176362    0.2491040757373497
     0.4909092900774681    0.9594332282854836    0.7508359550125121
     0.5715054154637258    0.9334656540953077    0.1921889243555555
     0.0729563535675908    0.5680319180401838    0.6908459049568805
     0.1248224462202572    0.5816675976134391    0.2385545940009735
     0.6316698757906778    0.9150266109841283    0.7370843921436361
     0.3665921408229238    0.0891413995527301    0.2399181828935895
     0.8715537640623481    0.4166707659914550    0.7336052487696634
     0.9371611073607582    0.4294644475877618    0.1876113905614147
     0.4289561244731033    0.0647763773651562    0.6922635240742281
     0.5755966483909205    0.0960687260244271    0.3100205706806847
     0.0785750340544951    0.4046354534258541    0.8060012243149046
     0.9204462782030589    0.5943465743169369    0.3078257355299741
     0.4300064023696564    0.9046245384979059    0.8067156216349005
     0.6798330042732701    0.9204147551842325    0.1944839965427576
     0.1836541856295639    0.5885465570073478    0.6966231814539015
     0.1751547654786165    0.6627902676477717    0.2925860476353961
     0.6775710137753137    0.8381028390247138    0.7915031794992018
     0.5098627741274768    0.8772141123367874    0.1315354486577007
     0.0197866381679859    0.6196856712465433    0.6319643877804637
     0.1988715833134478    0.5353527781266507    0.1900368019883700
     0.6998828372421286    0.9594503449945506    0.6825378982453287
     0.2943743756397339    0.0407937206238174    0.1872064368495927
     0.7972669888757480    0.4632465049527354    0.6897538097203864
     0.9856091038257517    0.3840018994831595    0.1305831691463410
     0.4785725662072977    0.1188093643920212    0.6300471153608527
     0.3291331914106763    0.1605640173844947    0.2898849348270360
     0.8317853204313721    0.3405205817086099    0.7891266233305672
     0.8227547207597894    0.4185805845739168    0.1974199521490689
     0.3174287375099070    0.0806604713440180    0.6969343255526042
     0.5097458197911919    0.4880063665572223    0.9788812424607443
     0.0064773283094013    0.0155434296494192    0.4804772842559544
     0.0026440128287746    0.9896962324027072    0.9818551946065526
     0.5007919946606805    0.5109411002527082    0.4826033400200700
     0.7964884694725498    0.7062291384454298    0.5040546807612571
     0.9620906513151937    0.9925915039538822    0.2354606648928410
     0.7044744032618482    0.1979050985798665    0.9599526737593678
     0.1971803889465917    0.2858981516487020    0.0008468356189866
     0.2014369632188604    0.3059170397380342    0.4624463917310493
     0.2938519917707794    0.8060104823116134    0.4604022597549431
     0.7939964750242652    0.6971574961467155    0.9592626274433229
     0.7021853019924578    0.2127861252648700    0.5042655273075525
     0.4601056114778572    0.5000873625101718    0.7303902416944510
     0.0431199866622478    0.9959933120938445    0.7276099291633571
     0.2934252015174437    0.7882266601267887    0.0027381329022447
     0.5403986357661950    0.4904695953821090    0.2315773603048896

  0.00000000E+00  0.00000000E+00  0.00000000E+00
  0.00000000E+00  0.00000000E+00  0.00000000E+00
  0.00000000E+00  0.00000000E+00  0.00000000E+00
  0.00000000E+00  0.00000000E+00  0.00000000E+00
  0.00000000E+00  0.00000000E+00  0.00000000E+00
  0.00000000E+00  0.00000000E+00  0.00000000E+00
  0.00000000E+00  0.00000000E+00  0.00000000E+00
  0.00000000E+00  0.00000000E+00  0.00000000E+00
  0.00000000E+00  0.00000000E+00  0.00000000E+00
  0.00000000E+00  0.00000000E+00  0.00000000E+00
  0.00000000E+00  0.00000000E+00  0.00000000E+00
  0.00000000E+00  0.00000000E+00  0.00000000E+00
  0.00000000E+00  0.00000000E+00  0.00000000E+00
  0.00000000E+00  0.00000000E+00  0.00000000E+00
  0.00000000E+00  0.00000000E+00  0.00000000E+00
  0.00000000E+00  0.00000000E+00  0.00000000E+00
  0.00000000E+00  0.00000000E+00  0.00000000E+00
  0.00000000E+00  0.00000000E+00  0.00000000E+00
  0.00000000E+00  0.00000000E+00  0.00000000E+00
  0.00000000E+00  0.00000000E+00  0.00000000E+00
  0.00000000E+00  0.00000000E+00  0.00000000E+00
  0.00000000E+00  0.00000000E+00  0.00000000E+00
  0.00000000E+00  0.00000000E+00  0.00000000E+00
  0.00000000E+00  0.00000000E+00  0.00000000E+00
  0.00000000E+00  0.00000000E+00  0.00000000E+00
  0.00000000E+00  0.00000000E+00  0.00000000E+00
  0.00000000E+00  0.00000000E+00  0.00000000E+00
  0.00000000E+00  0.00000000E+00  0.00000000E+00
  0.00000000E+00  0.00000000E+00  0.00000000E+00
  0.00000000E+00  0.00000000E+00  0.00000000E+00
  0.00000000E+00  0.00000000E+00  0.00000000E+00
  0.00000000E+00  0.00000000E+00  0.00000000E+00
  0.00000000E+00  0.00000000E+00  0.00000000E+00
  0.00000000E+00  0.00000000E+00  0.00000000E+00
  0.00000000E+00  0.00000000E+00  0.00000000E+00
  0.00000000E+00  0.00000000E+00  0.00000000E+00
  0.00000000E+00  0.00000000E+00  0.00000000E+00
  0.00000000E+00  0.00000000E+00  0.00000000E+00
  0.00000000E+00  0.00000000E+00  0.00000000E+00
  0.00000000E+00  0.00000000E+00  0.00000000E+00
  0.00000000E+00  0.00000000E+00  0.00000000E+00
  0.00000000E+00  0.00000000E+00  0.00000000E+00
  0.00000000E+00  0.00000000E+00  0.00000000E+00
  0.00000000E+00  0.00000000E+00  0.00000000E+00
  0.00000000E+00  0.00000000E+00  0.00000000E+00
  0.00000000E+00  0.00000000E+00  0.00000000E+00
  0.00000000E+00  0.00000000E+00  0.00000000E+00
  0.00000000E+00  0.00000000E+00  0.00000000E+00
