C  N  H  Pb I 
 1.0000000000000000
     9.0193899931757802    0.0000000000000000    0.0000000000000000
     0.0000000000000000    8.7777678445653162    0.0000000000000000
     0.0000000000000000    0.0000000000000000   12.7961868062944486
 C   N   H   Pb  I  
   4   8  20   4  12
Direct
  0.5073232830374194  0.0447741759922698  0.2477988601374890
  0.0063890384453877  0.4573872373443642  0.7456541025187008
  0.9887414255426552  0.5469790450176377  0.2491040757373473
  0.4909092900774685  0.9594332282854836  0.7508359550125123
  0.5715054154637260  0.9334656540953046  0.1921889243555584
  0.0729563535675882  0.5680319180401809  0.6908459049568824
  0.1248224462202546  0.5816675976134362  0.2385545940009748
  0.6316698757906760  0.9150266109841276  0.7370843921436362
  0.3665921408229219  0.0891413995527318  0.2399181828935887
  0.8715537640623503  0.4166707659914560  0.7336052487696666
  0.9371611073607576  0.4294644475877617  0.1876113905614167
  0.4289561244731060  0.0647763773651567  0.6922635240742314
  0.5755966483909227  0.0960687260244277  0.3100205706806812
  0.0785750340544964  0.4046354534258514  0.8060012243149051
  0.9204462782030605  0.5943465743169354  0.3078257355299730
  0.4300064023696579  0.9046245384979068  0.8067156216349018
  0.6798330042732679  0.9204147551842324  0.1944839965427563
  0.1836541856295621  0.5885465570073484  0.6966231814539046
  0.1751547654786140  0.6627902676477696  0.2925860476353935
  0.6775710137753119  0.8381028390247159  0.7915031794992038
  0.5098627741274795  0.8772141123367866  0.1315354486576995
  0.0197866381679829  0.6196856712465456  0.6319643877804648
  0.1988715833134450  0.5353527781266538  0.1900368019883698
  0.6998828372421312  0.9594503449945497  0.6825378982453318
  0.2943743756397373  0.0407937206238197  0.1872064368495913
  0.7972669888757495  0.4632465049527325  0.6897538097203875
  0.9856091038257532  0.3840018994831619  0.1305831691463424
  0.4785725662072950  0.1188093643920229  0.6300471153608531
  0.3291331914106770  0.1605640173844969  0.2898849348270395
  0.8317853204313702  0.3405205817086068  0.7891266233305663
  0.8227547207597909  0.4185805845739201  0.1974199521490661
  0.3174287375099059  0.0806604713440209  0.6969343255526050
  0.5097458197911886  0.4880063665572226  0.9788812424607414
  0.0064773283094012  0.0155434296494207  0.4804772842559564
  0.0026440128287735  0.9896962324027105  0.9818551946065501
  0.5007919946606839  0.5109411002527101  0.4826033400200677
  0.7964884694725505  0.7062291384454281  0.5040546807612591
  0.9620906513151931  0.9925915039538808  0.2354606648928403
  0.7044744032618453  0.1979050985798650  0.9599526737593700
  0.1971803889465890  0.2858981516487014  0.0008468356189833
  0.2014369632188587  0.3059170397380349  0.4624463917310487
  0.2938519917707799  0.8060104823116133  0.4604022597549459
  0.7939964750242661  0.6971574961467131  0.9592626274433210
  0.7021853019924545  0.2127861252648714  0.5042655273075500
  0.4601056114778551  0.5000873625101733  0.7303902416944533
  0.0431199866622445  0.9959933120938473  0.7276099291633543
  0.2934252015174463  0.7882266601267899  0.0027381329022477
  0.5403986357661977  0.4904695953821067  0.2315773603048923
Cartesian
  0.0000000000000000  0.0000000000000000  0.0000000000000000
  0.0000000000000000  0.0000000000000000  0.0000000000000000
  0.0000000000000000  0.0000000000000000  0.0000000000000000
  0.0000000000000000  0.0000000000000000  0.0000000000000000
  0.0000000000000000  0.0000000000000000  0.0000000000000000
  0.0000000000000000  0.0000000000000000  0.0000000000000000
  0.0000000000000000  0.0000000000000000  0.0000000000000000
  0.0000000000000000  0.0000000000000000  0.0000000000000000
  0.0000000000000000  0.0000000000000000  0.0000000000000000
  0.0000000000000000  0.0000000000000000  0.0000000000000000
  0.0000000000000000  0.0000000000000000  0.0000000000000000
  0.0000000000000000  0.0000000000000000  0.0000000000000000
  0.0000000000000000  0.0000000000000000  0.0000000000000000
  0.0000000000000000  0.0000000000000000  0.0000000000000000
  0.0000000000000000  0.0000000000000000  0.0000000000000000
  0.0000000000000000  0.0000000000000000  0.0000000000000000
  0.0000000000000000  0.0000000000000000  0.0000000000000000
  0.0000000000000000  0.0000000000000000  0.0000000000000000
  0.0000000000000000  0.0000000000000000  0.0000000000000000
  0.0000000000000000  0.0000000000000000  0.0000000000000000
  0.0000000000000000  0.0000000000000000  0.0000000000000000
  0.0000000000000000  0.0000000000000000  0.0000000000000000
  0.0000000000000000  0.0000000000000000  0.0000000000000000
  0.0000000000000000  0.0000000000000000  0.0000000000000000
  0.0000000000000000  0.0000000000000000  0.0000000000000000
  0.0000000000000000  0.0000000000000000  0.0000000000000000
  0.0000000000000000  0.0000000000000000  0.0000000000000000
  0.0000000000000000  0.0000000000000000  0.0000000000000000
  0.0000000000000000  0.0000000000000000  0.0000000000000000
  0.0000000000000000  0.0000000000000000  0.0000000000000000
  0.0000000000000000  0.0000000000000000  0.0000000000000000
  0.0000000000000000  0.0000000000000000  0.0000000000000000
  0.0000000000000000  0.0000000000000000  0.0000000000000000
  0.0000000000000000  0.0000000000000000  0.0000000000000000
  0.0000000000000000  0.0000000000000000  0.0000000000000000
  0.0000000000000000  0.0000000000000000  0.0000000000000000
  0.0000000000000000  0.0000000000000000  0.0000000000000000
  0.0000000000000000  0.0000000000000000  0.0000000000000000
  0.0000000000000000  0.0000000000000000  0.0000000000000000
  0.0000000000000000  0.0000000000000000  0.0000000000000000
  0.0000000000000000  0.0000000000000000  0.0000000000000000
  0.0000000000000000  0.0000000000000000  0.0000000000000000
  0.0000000000000000  0.0000000000000000  0.0000000000000000
  0.0000000000000000  0.0000000000000000  0.0000000000000000
  0.0000000000000000  0.0000000000000000  0.0000000000000000
  0.0000000000000000  0.0000000000000000  0.0000000000000000
  0.0000000000000000  0.0000000000000000  0.0000000000000000
  0.0000000000000000  0.0000000000000000  0.0000000000000000
