C  N  H  Pb I                           
   1.0000000000000000     
     8.9515839677080429    0.0000000000000000    0.0000000000000000
     0.0000000000000000    8.9515839677080429    0.0000000000000000
     0.0000000000000000    0.0000000000000000    6.3289724258144924
  C               N               H               Pb              I             
     2     4    10     2     6
Direct
     0.5011363735444760    0.5023021343938936    0.5709188412836355
     0.9937101183183330    0.9981754554644056    0.5703685286386815
     0.5931075057320001    0.5898980688626168    0.4671201290806906
     0.4059356833322809    0.4081642775028769    0.4861248995437748
     0.0759430416971583    0.8928026800562705    0.4848865320184217
     0.9293562431792637    0.1087319434840097    0.4688218223113267
     0.5040778891561430    0.5082670079072855    0.7430471019075142
     0.6623705219859914    0.6587633501574146    0.5496408696090782
     0.6002011330506960    0.5939006320102962    0.3063925974081414
     0.3933810781581357    0.3930894703465739    0.3273926903309956
     0.3397316262586756    0.3454983164634555    0.5824007328945839
     0.9773907808813718    0.9934459848019941    0.7410706972752266
     0.1205128885545506    0.8122079631785653    0.5793551056853232
     0.0987800036513988    0.8858596385919171    0.3273217778522053
     0.9368063254189920    0.1244544162958832    0.3095712927213228
     0.8678348160980178    0.1844142633314974    0.5516660905719064
     0.9999996702832874    0.4999998411152120    0.9927896685767337
     0.4999997010236399    0.0000000324883942    0.9927896646371437
     0.9999999102034849    0.4999996263576136    0.4921929684839199
     0.4999999142446683    0.0000003677771616    0.4921929568124028
     0.2185734085131941    0.2185737368091125    0.9905351307177028
     0.2814254933831535    0.7185740284663780    0.9905345394682996
     0.7185734566697093    0.2814260629724075    0.9905349485405637
     0.7814255204687655    0.7814258469398112    0.9905345050794736

  0.00000000E+00  0.00000000E+00  0.00000000E+00
  0.00000000E+00  0.00000000E+00  0.00000000E+00
  0.00000000E+00  0.00000000E+00  0.00000000E+00
  0.00000000E+00  0.00000000E+00  0.00000000E+00
  0.00000000E+00  0.00000000E+00  0.00000000E+00
  0.00000000E+00  0.00000000E+00  0.00000000E+00
  0.00000000E+00  0.00000000E+00  0.00000000E+00
  0.00000000E+00  0.00000000E+00  0.00000000E+00
  0.00000000E+00  0.00000000E+00  0.00000000E+00
  0.00000000E+00  0.00000000E+00  0.00000000E+00
  0.00000000E+00  0.00000000E+00  0.00000000E+00
  0.00000000E+00  0.00000000E+00  0.00000000E+00
  0.00000000E+00  0.00000000E+00  0.00000000E+00
  0.00000000E+00  0.00000000E+00  0.00000000E+00
  0.00000000E+00  0.00000000E+00  0.00000000E+00
  0.00000000E+00  0.00000000E+00  0.00000000E+00
  0.00000000E+00  0.00000000E+00  0.00000000E+00
  0.00000000E+00  0.00000000E+00  0.00000000E+00
  0.00000000E+00  0.00000000E+00  0.00000000E+00
  0.00000000E+00  0.00000000E+00  0.00000000E+00
  0.00000000E+00  0.00000000E+00  0.00000000E+00
  0.00000000E+00  0.00000000E+00  0.00000000E+00
  0.00000000E+00  0.00000000E+00  0.00000000E+00
  0.00000000E+00  0.00000000E+00  0.00000000E+00
