48
Lattice="8.813535433999782 -0.04952670123770369 0.049520005672287 -0.0481999210479462 8.638989729299912 0.04202349008652443 0.07025610864047217 0.06126163723190368 12.577726963819147" Properties=species:S:1:pos:R:3:momenta:R:3 config_id=O-FAPI3_parity_01__strong_strain__sev-0.1 phase=O-FAPI3 mode=parity seed=325214090 source=O-FAPI3/CONTCAR distortion_family=strong_strain distortion_severity=0.1 original_config_id=O-FAPI3_parity_01 distortion_label=strong_strain pbc="T T T"
C        4.49230902       0.34158296       3.14104167       0.00000000       0.00000000       0.00000000
C        0.10049243       4.01332758       9.42273649       0.00000000       0.00000000       0.00000000
C        8.73476111       4.63710238       3.18602568       0.00000000       0.00000000       0.00000000
C        4.34294470       8.30884700       9.46772048       0.00000000       0.00000000       0.00000000
N        4.99719781       8.06458717       2.45387809       0.00000000       0.00000000       0.00000000
N        0.64343414       4.91601801       8.70239629       0.00000000       0.00000000       0.00000000
N        1.14358446       5.05251223       3.04916358       0.00000000       0.00000000       0.00000000
N        5.56946822       7.92826103       9.37674736       0.00000000       0.00000000       0.00000000
N        3.26471255       0.72123338       3.03993429       0.00000000       0.00000000       0.00000000
N        7.69059626       3.59698217       9.36751806       0.00000000       0.00000000       0.00000000
N        8.18368810       3.72732153       2.45063474       0.00000000       0.00000000       0.00000000
N        3.82992456       0.57875240       8.69915288       0.00000000       0.00000000       0.00000000
H        5.09630875       0.82307680       3.89439272       0.00000000       0.00000000       0.00000000
H        0.70986217       3.53234522      10.17140577       0.00000000       0.00000000       0.00000000
H        8.13374356       5.12536763       3.93260621       0.00000000       0.00000000       0.00000000
H        3.74729710       7.83463615      10.20961928       0.00000000       0.00000000       0.00000000
H        5.97728713       7.88594977       2.56439627       0.00000000       0.00000000       0.00000000
H        1.62158573       5.08468920       8.81460382       0.00000000       0.00000000       0.00000000
H        1.51107049       5.72695771       3.70382603       0.00000000       0.00000000       0.00000000
H        5.94446796       7.25600921      10.02485892       0.00000000       0.00000000       0.00000000
H        4.49449816       7.58482581       1.72015699       0.00000000       0.00000000       0.00000000
H        0.13538921       5.39431618       7.97333547       0.00000000       0.00000000       0.00000000
H        1.77440629       4.63933475       2.39201647       0.00000000       0.00000000       0.00000000
H        6.19575504       8.32791612       8.72355412       0.00000000       0.00000000       0.00000000
H        2.63106680       0.31516135       2.37568264       0.00000000       0.00000000       0.00000000
H        7.05241538       4.00374289       8.70722029       0.00000000       0.00000000       0.00000000
H        8.68359375       3.24192614       1.72254691       0.00000000       0.00000000       0.00000000
H        4.32448482       1.05141652       7.97572532       0.00000000       0.00000000       0.00000000
H        2.89696671       1.39981044       3.69046572       0.00000000       0.00000000       0.00000000
H        7.33036413       2.92886184      10.01149855       0.00000000       0.00000000       0.00000000
H        7.20671919       3.55968160       2.55015699       0.00000000       0.00000000       0.00000000
H        2.85101788       0.75842109       8.80036446       0.00000000       0.00000000       0.00000000
Pb       4.49855381       4.24798887      12.39229544       0.00000000       0.00000000       0.00000000
Pb       0.04828652       0.17790700       6.05561817       0.00000000       0.00000000       0.00000000
Pb       0.02364812       8.55880758      12.35068651       0.00000000       0.00000000       0.00000000
Pb       4.42511450       4.48517606       6.05831346       0.00000000       0.00000000       0.00000000
I        6.95912840       6.09443533       6.39672538       0.00000000       0.00000000       0.00000000
I        8.43364530       8.56104849       3.05654982       0.00000000       0.00000000       0.00000000
I        6.31453196       1.69693471      12.14314641       0.00000000       0.00000000       0.00000000
I        1.78809279       2.48075491       0.06260163       0.00000000       0.00000000       0.00000000
I        1.78202446       2.71913030       5.82479065       0.00000000       0.00000000       0.00000000
I        2.57359415       7.01346292       5.87075569       0.00000000       0.00000000       0.00000000
I        7.06737498       6.04952845      12.12432716       0.00000000       0.00000000       0.00000000
I        6.25184011       1.84298094       6.27873915       0.00000000       0.00000000       0.00000000
I        4.09800462       4.42548348       9.27625703       0.00000000       0.00000000       0.00000000
I        0.39128096       0.19204664       9.11262879       0.00000000       0.00000000       0.00000000
I        2.56461458       6.81249418       0.05265741       0.00000000       0.00000000       0.00000000
I        4.74160501       4.35090000       2.90089824       0.00000000       0.00000000       0.00000000
48
Lattice="8.961464436810912 -0.05176127471645762 0.06304265638217692 -0.050374632114100946 8.83034282496711 -0.042815102370692186 0.0894412602672391 -0.06241564572765579 13.055742117227025" Properties=species:S:1:pos:R:3:momenta:R:3 config_id=O-FAPI3_parity_02__strong_strain__sev-0.2 phase=O-FAPI3 mode=parity seed=190889748 source=O-FAPI3/CONTCAR distortion_family=strong_strain distortion_severity=0.2 original_config_id=O-FAPI3_parity_02 distortion_label=strong_strain pbc="T T T"
C        4.57211187       0.31761338       3.26281196       0.00000000       0.00000000       0.00000000
C        0.11501300       4.00873858       9.74123891       0.00000000       0.00000000       0.00000000
C        8.88508769       4.70772761       3.27192286       0.00000000       0.00000000       0.00000000
C        4.42798900       8.39885281       9.75034979       0.00000000       0.00000000       0.00000000
N        5.08321091       8.21884605       2.47292447       0.00000000       0.00000000       0.00000000
N        0.66588186       4.93858794       8.98515323       0.00000000       0.00000000       0.00000000
N        1.16630197       5.13427293       3.11610227       0.00000000       0.00000000       0.00000000
N        5.67502037       8.01063351       9.66127149       0.00000000       0.00000000       0.00000000
N        3.32371456       0.70678586       3.15250976       0.00000000       0.00000000       0.00000000
N        7.83243291       3.58314642       9.69767897       0.00000000       0.00000000       0.00000000
N        8.32386706       3.78510207       2.51695250       0.00000000       0.00000000       0.00000000
N        3.90653814       0.50484400       9.02918119       0.00000000       0.00000000       0.00000000
H        5.18724351       0.80226242       4.04077487       0.00000000       0.00000000       0.00000000
H        0.73575694       3.50959264      10.52397199       0.00000000       0.00000000       0.00000000
H        8.27497668       5.19945358       4.04126640       0.00000000       0.00000000       0.00000000
H        3.82349023       7.90678390      10.52446354       0.00000000       0.00000000       0.00000000
H        6.07992935       8.03507315       2.59067276       0.00000000       0.00000000       0.00000000
H        1.66057514       5.10981650       9.10118014       0.00000000       0.00000000       0.00000000
H        1.54077910       5.81715503       3.78939358       0.00000000       0.00000000       0.00000000
H        6.05735022       7.31698904      10.34123705       0.00000000       0.00000000       0.00000000
H        4.57110653       7.73576541       1.71544912       0.00000000       0.00000000       0.00000000
H        0.14819101       5.43478780       8.22292959       0.00000000       0.00000000       0.00000000
H        1.80683294       4.71841031       2.43888171       0.00000000       0.00000000       0.00000000
H        6.31081172       8.42560764       8.98002243       0.00000000       0.00000000       0.00000000
H        2.67855475       0.29834927       2.46624458       0.00000000       0.00000000       0.00000000
H        7.18253335       4.00554677       9.00738530       0.00000000       0.00000000       0.00000000
H        8.83119599       3.29613321       1.76664871       0.00000000       0.00000000       0.00000000
H        4.40828051       0.99515560       8.27412911       0.00000000       0.00000000       0.00000000
H        2.95061948       1.39398596       3.82054197       0.00000000       0.00000000       0.00000000
H        7.46719053       2.89381986      10.37238539       0.00000000       0.00000000       0.00000000
H        7.33067942       3.61282283       2.62070214       0.00000000       0.00000000       0.00000000
H        2.91132529       0.68756624       9.13120943       0.00000000       0.00000000       0.00000000
Pb       4.51239532       4.28745340      12.83852655       0.00000000       0.00000000       0.00000000
Pb       0.10906268       0.10582778       6.32027806       0.00000000       0.00000000       0.00000000
Pb       8.99777826       8.58595914      12.80027433       0.00000000       0.00000000       0.00000000
Pb       4.58224133       4.46642078       6.31878426       0.00000000       0.00000000       0.00000000
I        7.14180126       6.24179138       6.55887587       0.00000000       0.00000000       0.00000000
I        8.49255710       8.70065854       3.00610999       0.00000000       0.00000000       0.00000000
I        6.37393788       1.59361253      12.64835647       0.00000000       0.00000000       0.00000000
I        1.84892956       2.45236821       0.11246893       0.00000000       0.00000000       0.00000000
I        1.86392701       2.55849001       6.01920768       0.00000000       0.00000000       0.00000000
I        2.64592916       7.03677450       5.89827384       0.00000000       0.00000000       0.00000000
I        7.12658791       6.06849218      12.56637166       0.00000000       0.00000000       0.00000000
I        6.30878378       1.85092374       6.59715858       0.00000000       0.00000000       0.00000000
I        4.08473821       4.41191882       9.53106126       0.00000000       0.00000000       0.00000000
I        0.41498759      -0.00530222       9.60471859       0.00000000       0.00000000       0.00000000
I        2.56753035       6.94113544       0.05560718       0.00000000       0.00000000       0.00000000
I        4.90659020       4.29248361       3.01843263       0.00000000       0.00000000       0.00000000
48
Lattice="8.870283431520399 -0.040858019174714114 -0.04982144975202463 -0.039763465952330844 8.88315805095399 0.0013641778844734997 -0.07068377999728152 0.0019886918127535553 13.004643367798474" Properties=species:S:1:pos:R:3:momenta:R:3 config_id=O-FAPI3_parity_03__strong_strain__sev-0.3 phase=O-FAPI3 mode=parity seed=453804613 source=O-FAPI3/CONTCAR distortion_family=strong_strain distortion_severity=0.3 original_config_id=O-FAPI3_parity_03 distortion_label=strong_strain pbc="T T T"
C        4.48658180       0.34124727       3.19462826       0.00000000       0.00000000       0.00000000
C       -0.00054717       4.08123189       9.72243169       0.00000000       0.00000000       0.00000000
C        8.76072330       4.76304728       3.17119233       0.00000000       0.00000000       0.00000000
C        4.27359452       8.50303190       9.69899573       0.00000000       0.00000000       0.00000000
N        5.01072983       8.28669179       2.44015699       0.00000000       0.00000000       0.00000000
N        0.55499337       5.01359652       8.96688355       0.00000000       0.00000000       0.00000000
N        1.12212662       5.18199480       3.11484794       0.00000000       0.00000000       0.00000000
N        5.50871703       8.11355445       9.59271213       0.00000000       0.00000000       0.00000000
N        3.25253868       0.73069436       3.10231172       0.00000000       0.00000000       0.00000000
N        7.63912905       3.66225399       9.58017591       0.00000000       0.00000000       0.00000000
N        8.21336368       3.83045241       2.42159854       0.00000000       0.00000000       0.00000000
N        3.75762735       0.55735716       8.94832503       0.00000000       0.00000000       0.00000000
H        5.08655335       0.83341199       3.96429928       0.00000000       0.00000000       0.00000000
H        0.60385448       3.58371744      10.49195084       0.00000000       0.00000000       0.00000000
H        8.14791879       5.26079820       3.94767514       0.00000000       0.00000000       0.00000000
H        3.66522005       8.01110375      10.47532671       0.00000000       0.00000000       0.00000000
H        5.99576379       8.10360986       2.54405632       0.00000000       0.00000000       0.00000000
H        1.53842876       5.18763935       9.07083761       0.00000000       0.00000000       0.00000000
H        1.48536121       5.87277311       3.78423714       0.00000000       0.00000000       0.00000000
H        5.87815022       7.41957304      10.26188866       0.00000000       0.00000000       0.00000000
H        4.51249868       7.79633173       1.68961141       0.00000000       0.00000000       0.00000000
H        0.05235253       5.50837412       8.21648914       0.00000000       0.00000000       0.00000000
H        1.76400367       4.76105666       2.43012890       0.00000000       0.00000000       0.00000000
H        6.14685286       8.52842238       8.90812136       0.00000000       0.00000000       0.00000000
H        2.62180658       0.31561798       2.42474055       0.00000000       0.00000000       0.00000000
H        7.00465560       4.08298387       8.90273302       0.00000000       0.00000000       0.00000000
H        8.72419333       3.33544444       1.66538538       0.00000000       0.00000000       0.00000000
H        4.26404721       1.04748684       8.19226304       0.00000000       0.00000000       0.00000000
H        2.87580745       1.42488111       3.77585705       0.00000000       0.00000000       0.00000000
H        7.26859639       2.97168093      10.25350851       0.00000000       0.00000000       0.00000000
H        7.22873843       3.65644305       2.53656084       0.00000000       0.00000000       0.00000000
H        2.77140349       0.74047259       9.06334205       0.00000000       0.00000000       0.00000000
Pb       4.41135748       4.34626661      12.75664016       0.00000000       0.00000000       0.00000000
Pb       0.04324965       0.12608520       6.26194170       0.00000000       0.00000000       0.00000000
Pb       8.67353751       8.62820419      12.78661271       0.00000000       0.00000000       0.00000000
Pb       4.35924713       4.51620752       6.23705691       0.00000000       0.00000000       0.00000000
I        7.01638381       6.32219497       6.50664309       0.00000000       0.00000000       0.00000000
I        8.45498470       8.76472374       2.95315079       0.00000000       0.00000000       0.00000000
I        6.25246711       1.66771789      12.50006364       0.00000000       0.00000000       0.00000000
I        1.76438779       2.54780585      12.97579396       0.00000000       0.00000000       0.00000000
I        1.80788396       2.64733693       5.98307301       0.00000000       0.00000000       0.00000000
I        2.59492498       7.06041533       5.94042218       0.00000000       0.00000000       0.00000000
I        6.90142611       6.09885022      12.54604978       0.00000000       0.00000000       0.00000000
I        6.19025893       1.90096339       6.59996675       0.00000000       0.00000000       0.00000000
I        3.94401550       4.43900797       9.48901158       0.00000000       0.00000000       0.00000000
I        0.25238110       0.12602680       9.49439968       0.00000000       0.00000000       0.00000000
I        2.64930243       6.97890576      -0.00638602       0.00000000       0.00000000       0.00000000
I        4.66009103       4.38214158       2.95471722       0.00000000       0.00000000       0.00000000
48
Lattice="8.874660136670848 0.12814510080385536 -0.10697000253800631 0.12471219740201123 8.632338420394152 -0.08250234577311355 -0.1517628283267253 -0.12027151403006128 12.999084321266954" Properties=species:S:1:pos:R:3:momenta:R:3 config_id=O-FAPI3_parity_04__strong_strain__sev-0.4 phase=O-FAPI3 mode=parity seed=2643381725 source=O-FAPI3/CONTCAR distortion_family=strong_strain distortion_severity=0.4 original_config_id=O-FAPI3_parity_04 distortion_label=strong_strain pbc="T T T"
C        4.47542373       0.38661485       3.16080997       0.00000000       0.00000000       0.00000000
C        0.01441771       3.87597270       9.67930096       0.00000000       0.00000000       0.00000000
C        8.83392179       4.76481792       3.06777568       0.00000000       0.00000000       0.00000000
C        4.37291596       8.25417576       9.58626664       0.00000000       0.00000000       0.00000000
N        5.15170091       8.12530246       2.32804186       0.00000000       0.00000000       0.00000000
N        0.59223708       4.79959761       8.91166695       0.00000000       0.00000000       0.00000000
N        1.19928173       5.02834902       3.05705599       0.00000000       0.00000000       0.00000000
N        5.60215996       7.89995758       9.47570584       0.00000000       0.00000000       0.00000000
N        3.24849733       0.74266976       3.07285553       0.00000000       0.00000000       0.00000000
N        7.65137551       3.61427830       9.49150537       0.00000000       0.00000000       0.00000000
N        8.27366733       3.85511301       2.33091116       0.00000000       0.00000000       0.00000000
N        3.71420363       0.52940819       8.91453618       0.00000000       0.00000000       0.00000000
H        5.08003729       0.86909373       3.92157197       0.00000000       0.00000000       0.00000000
H        0.60513702       3.39671640      10.44925471       0.00000000       0.00000000       0.00000000
H        8.22516088       5.22977629       3.84316303       0.00000000       0.00000000       0.00000000
H        3.75026074       7.75739907      10.37084578       0.00000000       0.00000000       0.00000000
H        6.13323220       7.96499696       2.42723525       0.00000000       0.00000000       0.00000000
H        1.57878213       4.98633331       9.00754344       0.00000000       0.00000000       0.00000000
H        1.57133292       5.70031524       3.71723772       0.00000000       0.00000000       0.00000000
H        5.95477029       7.22626335      10.14874850       0.00000000       0.00000000       0.00000000
H        4.64879725       7.64631961       1.58571920       0.00000000       0.00000000       0.00000000
H        0.10316400       5.27793667       8.16019471       0.00000000       0.00000000       0.00000000
H        1.83798136       4.63773692       2.37247403       0.00000000       0.00000000       0.00000000
H        6.25259369       8.32155223       8.78336124       0.00000000       0.00000000       0.00000000
H        2.61395988       0.33367273       2.40362047       0.00000000       0.00000000       0.00000000
H        7.02857204       4.01748821       8.81450768       0.00000000       0.00000000       0.00000000
H        8.78032235       3.39070763       1.57641985       0.00000000       0.00000000       0.00000000
H        4.23468914       1.02232469       8.15089529       0.00000000       0.00000000       0.00000000
H        2.88021758       1.40394605       3.74196075       0.00000000       0.00000000       0.00000000
H        7.26365489       2.92989405      10.17347148       0.00000000       0.00000000       0.00000000
H        7.28456756       3.66635270       2.45385745       0.00000000       0.00000000       0.00000000
H        2.73011758       0.68768910       9.03416556       0.00000000       0.00000000       0.00000000
Pb       4.35681270       4.20820459      12.60610520       0.00000000       0.00000000       0.00000000
Pb       0.16351046      -0.01165089       6.15563093       0.00000000       0.00000000       0.00000000
Pb       8.79296669       8.59188368      12.56796309       0.00000000       0.00000000       0.00000000
Pb       4.51850956       4.41690970       6.21514582       0.00000000       0.00000000       0.00000000
I        7.15393400       6.16511707       6.41297518       0.00000000       0.00000000       0.00000000
I        8.61893650       8.59928535       2.89794284       0.00000000       0.00000000       0.00000000
I        6.11605429       1.58854198      12.42451605       0.00000000       0.00000000       0.00000000
I        1.77533224       2.42542686      12.92241232       0.00000000       0.00000000       0.00000000
I        1.81048790       2.48749019       5.92176077       0.00000000       0.00000000       0.00000000
I        2.65907795       6.94686004       5.85898121       0.00000000       0.00000000       0.00000000
I        6.92799805       6.02488630      12.44361151       0.00000000       0.00000000       0.00000000
I        6.21568138       1.86202431       6.36449679       0.00000000       0.00000000       0.00000000
I        3.89215968       4.37235663       9.45904036       0.00000000       0.00000000       0.00000000
I        0.34181937       8.52911990       9.37938991       0.00000000       0.00000000       0.00000000
I        2.67281405       6.76875049       0.02381632       0.00000000       0.00000000       0.00000000
I        4.83871157       4.25510005       2.90290416       0.00000000       0.00000000       0.00000000
48
Lattice="9.139145471252194 -0.1383466329605007 0.09773481512771394 -0.13464043877949386 8.668372835720136 -0.009668435351930248 0.13866048067542594 -0.014094597519400145 13.180072100380944" Properties=species:S:1:pos:R:3:momenta:R:3 config_id=O-FAPI3_parity_05__strong_strain__sev-0.5 phase=O-FAPI3 mode=parity seed=421189034 source=O-FAPI3/CONTCAR distortion_family=strong_strain distortion_severity=0.5 original_config_id=O-FAPI3_parity_05 distortion_label=strong_strain pbc="T T T"
C        4.67112290       0.27900445       3.31256637       0.00000000       0.00000000       0.00000000
C        0.11451877       3.96978092       9.84968769       0.00000000       0.00000000       0.00000000
C        9.02797958       4.54621851       3.35504477       0.00000000       0.00000000       0.00000000
C        4.47137564       8.23699497       9.89216607       0.00000000       0.00000000       0.00000000
N        5.11510761       8.02709603       2.54731476       0.00000000       0.00000000       0.00000000
N        0.66479951       4.87436134       9.09206924       0.00000000       0.00000000       0.00000000
N        1.15219200       5.03994821       3.16983652       0.00000000       0.00000000       0.00000000
N        5.74636733       7.84337003       9.80552816       0.00000000       0.00000000       0.00000000
N        3.39401361       0.67284465       3.19792507       0.00000000       0.00000000       0.00000000
N        7.98818890       3.47626645       9.83361671       0.00000000       0.00000000       0.00000000
N        8.46165050       3.64326930       2.58721737       0.00000000       0.00000000       0.00000000
N        4.01134254       0.49053464       9.13197179       0.00000000       0.00000000       0.00000000
H        5.29663268       0.75158399       4.10213757       0.00000000       0.00000000       0.00000000
H        0.75502897       3.47661067      10.64033617       0.00000000       0.00000000       0.00000000
H        8.40395353       5.03771323       4.13125336       0.00000000       0.00000000       0.00000000
H        3.86234996       7.76274001      10.66945197       0.00000000       0.00000000       0.00000000
H        6.13366133       7.83737243       2.66929495       0.00000000       0.00000000       0.00000000
H        1.67794038       5.03312761       9.21366063       0.00000000       0.00000000       0.00000000
H        1.53005327       5.70908894       3.85357689       0.00000000       0.00000000       0.00000000
H        6.14521719       7.16123304      10.49077569       0.00000000       0.00000000       0.00000000
H        4.59471840       7.55512242       1.77882628       0.00000000       0.00000000       0.00000000
H        0.12947882       5.36370582       8.32250843       0.00000000       0.00000000       0.00000000
H        1.80685533       4.62296355       2.48703379       0.00000000       0.00000000       0.00000000
H        6.38836258       8.24198255       9.12181566       0.00000000       0.00000000       0.00000000
H        2.73749448       0.27570832       2.50110048       0.00000000       0.00000000       0.00000000
H        7.31900155       3.89472749       9.13588235       0.00000000       0.00000000       0.00000000
H        8.98090716       3.15555773       1.82984694       0.00000000       0.00000000       0.00000000
H        4.51566761       0.96414115       8.37352902       0.00000000       0.00000000       0.00000000
H        3.00948038       1.35352639       3.87351231       0.00000000       0.00000000       0.00000000
H        7.62464424       2.80567038      10.51071106       0.00000000       0.00000000       0.00000000
H        7.45084382       3.48426577       2.68749546       0.00000000       0.00000000       0.00000000
H        2.99512296       0.68002100       9.23186106       0.00000000       0.00000000       0.00000000
Pb       4.76490643       4.16160470      12.95936986       0.00000000       0.00000000       0.00000000
Pb       9.19615149      -0.05123624       6.34659017       0.00000000       0.00000000       0.00000000
Pb       9.09619942       8.39502667      12.99972090       0.00000000       0.00000000       0.00000000
Pb       4.56767527       4.47192432       6.44189713       0.00000000       0.00000000       0.00000000
I        7.24121073       6.08698866       6.58491441       0.00000000       0.00000000       0.00000000
I        8.65654180       8.49554942       3.10675734       0.00000000       0.00000000       0.00000000
I        6.63503624       1.64340488      12.67168587       0.00000000       0.00000000       0.00000000
I        1.90759346       2.34697982      13.18602773       0.00000000       0.00000000       0.00000000
I        1.94160155       2.78791438       6.21416825       0.00000000       0.00000000       0.00000000
I        2.54848191       6.92616128       6.06670580       0.00000000       0.00000000       0.00000000
I        7.27260640       5.97662062      12.70142484       0.00000000       0.00000000       0.00000000
I        6.50756887       1.72491077       6.67596567       0.00000000       0.00000000       0.00000000
I        4.33772197       4.33152212       9.84236059       0.00000000       0.00000000       0.00000000
I        0.55700397       0.09955853       9.67293690       0.00000000       0.00000000       0.00000000
I        2.69784244       6.81971712       0.19063174       0.00000000       0.00000000       0.00000000
I        4.88902308       4.19483313       3.16581419       0.00000000       0.00000000       0.00000000
48
Lattice="8.905022187280322 -0.0506753960101299 0.06055710170273917 -0.04931784321832049 8.865256487749834 0.09789480026982894 0.08591489961320269 0.14271055851553446 13.281628206504026" Properties=species:S:1:pos:R:3:momenta:R:3 config_id=O-FAPI3_parity_06__strong_strain__sev-0.6 phase=O-FAPI3 mode=parity seed=3188385541 source=O-FAPI3/CONTCAR distortion_family=strong_strain distortion_severity=0.6 original_config_id=O-FAPI3_parity_06 distortion_label=strong_strain pbc="T T T"
C        4.54261167       0.37037394       3.32320392       0.00000000       0.00000000       0.00000000
C        0.11241313       4.17813445       9.97471898       0.00000000       0.00000000       0.00000000
C        8.82879270       4.77847067       3.40146654       0.00000000       0.00000000       0.00000000
C        4.39859434       8.58623117      10.05298159       0.00000000       0.00000000       0.00000000
N        5.05132479       8.29104276       2.64598766       0.00000000       0.00000000       0.00000000
N        0.66006174       5.09985631       9.22021681       0.00000000       0.00000000       0.00000000
N        1.15867701       5.20402314       3.25214040       0.00000000       0.00000000       0.00000000
N        5.63776217       8.19508811       9.95575385       0.00000000       0.00000000       0.00000000
N        3.30213175       0.75933761       3.21760153       0.00000000       0.00000000       0.00000000
N        7.78121686       3.75040256       9.92121499       0.00000000       0.00000000       0.00000000
N        8.27120046       3.84023158       2.61876889       0.00000000       0.00000000       0.00000000
N        3.87993754       0.64904515       9.19299798       0.00000000       0.00000000       0.00000000
H        5.15373408       0.86923488       4.12226197       0.00000000       0.00000000       0.00000000
H        0.72903010       3.68931064      10.76287061       0.00000000       0.00000000       0.00000000
H        8.22238944       5.28426007       4.19224505       0.00000000       0.00000000       0.00000000
H        3.79768559       8.10433594      10.83285371       0.00000000       0.00000000       0.00000000
H        6.04172576       8.10841513       2.76253279       0.00000000       0.00000000       0.00000000
H        1.64848004       5.27363375       9.34069745       0.00000000       0.00000000       0.00000000
H        1.53070024       5.90026139       3.94795668       0.00000000       0.00000000       0.00000000
H        6.01747338       7.50935725      10.63630969       0.00000000       0.00000000       0.00000000
H        4.54257643       7.79408232       1.86776673       0.00000000       0.00000000       0.00000000
H        0.14584412       5.58604826       8.45285225       0.00000000       0.00000000       0.00000000
H        1.79529410       4.77585303       2.55629178       0.00000000       0.00000000       0.00000000
H        6.26973907       8.60103973       9.26911597       0.00000000       0.00000000       0.00000000
H        2.66115576       0.33843773       2.51306490       0.00000000       0.00000000       0.00000000
H        7.13560056       4.16362462       9.22588910       0.00000000       0.00000000       0.00000000
H        8.77546470       3.33750644       1.84743677       0.00000000       0.00000000       0.00000000
H        4.37873242       1.12947238       8.43252222       0.00000000       0.00000000       0.00000000
H        2.93129122       1.45980327       3.90836608       0.00000000       0.00000000       0.00000000
H        7.41806430       3.06889902      10.59671904       0.00000000       0.00000000       0.00000000
H        7.28422844       3.66885649       2.72186730       0.00000000       0.00000000       0.00000000
H        2.89098280       0.83407516       9.30003187       0.00000000       0.00000000       0.00000000
Pb       4.62029736       4.33776191      13.14396791       0.00000000       0.00000000       0.00000000
Pb       0.10078564       0.20016436       6.30571892       0.00000000       0.00000000       0.00000000
Pb       8.83708812       8.81028229      13.31239680       0.00000000       0.00000000       0.00000000
Pb       4.43271203       4.65093520       6.47032489       0.00000000       0.00000000       0.00000000
I        7.02287726       6.43323306       6.86468631       0.00000000       0.00000000       0.00000000
I        8.66423776       0.03940109       3.09147676       0.00000000       0.00000000       0.00000000
I        6.27285960       1.77161402      12.83681825       0.00000000       0.00000000       0.00000000
I        1.95126974       2.48453317       0.16519878       0.00000000       0.00000000       0.00000000
I        1.75395607       2.72958872       6.23219152       0.00000000       0.00000000       0.00000000
I        2.55085541       7.15779427       6.32693244       0.00000000       0.00000000       0.00000000
I        7.14830307       6.19060078      12.92993907       0.00000000       0.00000000       0.00000000
I        6.27937921       1.94748895       6.64775725       0.00000000       0.00000000       0.00000000
I        4.18261137       4.48269192       9.80800513       0.00000000       0.00000000       0.00000000
I        0.34050395       8.92220163       9.83679301       0.00000000       0.00000000       0.00000000
I        2.56629646       6.99162779       0.16867430       0.00000000       0.00000000       0.00000000
I        4.86105540       4.31302022       3.12839970       0.00000000       0.00000000       0.00000000
48
Lattice="8.875532308876105 0.12597880965773015 -0.17856726429073036 0.12260393944013004 8.641703697092552 0.13513888647275762 -0.25334086596565747 0.197004804264752 12.856776011391528" Properties=species:S:1:pos:R:3:momenta:R:3 config_id=O-FAPI3_parity_07__strong_strain__sev-0.7 phase=O-FAPI3 mode=parity seed=1151819049 source=O-FAPI3/CONTCAR distortion_family=strong_strain distortion_severity=0.7 original_config_id=O-FAPI3_parity_07 distortion_label=strong_strain pbc="T T T"
C        4.45063078       0.46445151       3.09806417       0.00000000       0.00000000       0.00000000
C       -0.06248287       4.11745105       9.67230600       0.00000000       0.00000000       0.00000000
C        8.80849692       4.84628854       3.07919091       0.00000000       0.00000000       0.00000000
C        4.29538345       8.49928807       9.65343272       0.00000000       0.00000000       0.00000000
N        5.13095451       8.19302232       2.46377886       0.00000000       0.00000000       0.00000000
N        0.52104747       5.02356546       8.93133129       0.00000000       0.00000000       0.00000000
N        1.17379045       5.10966682       3.14060680       0.00000000       0.00000000       0.00000000
N        5.52561538       8.14194155       9.52460450       0.00000000       0.00000000       0.00000000
N        3.22426769       0.81878949       3.03055039       0.00000000       0.00000000       0.00000000
N        7.57609258       3.85106420       9.41454809       0.00000000       0.00000000       0.00000000
N        8.25428801       3.91737295       2.33213768       0.00000000       0.00000000       0.00000000
N        3.64438109       0.74791611       8.79969004       0.00000000       0.00000000       0.00000000
H        5.04914869       0.96616302       3.85759658       0.00000000       0.00000000       0.00000000
H        0.52237566       3.65638399      10.41678259       0.00000000       0.00000000       0.00000000
H        8.19352111       5.33077573       3.86313770       0.00000000       0.00000000       0.00000000
H        3.66674822       8.02099680      10.42232372       0.00000000       0.00000000       0.00000000
H        6.11177004       8.03495852       2.54945047       0.00000000       0.00000000       0.00000000
H        1.50679200       5.21291936       9.02243571       0.00000000       0.00000000       0.00000000
H        1.54046976       5.79865194       3.80741916       0.00000000       0.00000000       0.00000000
H        5.87318248       7.48380629      10.17035058       0.00000000       0.00000000       0.00000000
H        4.63400213       7.69526492       1.72170373       0.00000000       0.00000000       0.00000000
H        0.03769186       5.48416856       8.20424288       0.00000000       0.00000000       0.00000000
H        1.81797169       4.70184229       2.44810303       0.00000000       0.00000000       0.00000000
H        6.18133235       8.54720494       8.84481571       0.00000000       0.00000000       0.00000000
H        2.59508673       0.39289084       2.36366550       0.00000000       0.00000000       0.00000000
H        6.95844722       4.23825365       8.76037819       0.00000000       0.00000000       0.00000000
H        8.76699352       3.43394658       1.56974918       0.00000000       0.00000000       0.00000000
H        4.17068329       1.22285022       8.05228826       0.00000000       0.00000000       0.00000000
H        2.85054331       1.49726538       3.71225895       0.00000000       0.00000000       0.00000000
H        7.18325597       3.18241963      10.07519032       0.00000000       0.00000000       0.00000000
H        7.26427881       3.73133537       2.45746047       0.00000000       0.00000000       0.00000000
H        2.65930086       0.90929626       8.93044562       0.00000000       0.00000000       0.00000000
Pb       4.14125245       4.48004278      12.70184729       0.00000000       0.00000000       0.00000000
Pb       8.70851349       8.75122903       6.00928091       0.00000000       0.00000000       0.00000000
Pb       8.70535390       8.81499576      12.61427541       0.00000000       0.00000000       0.00000000
Pb       4.37242223       4.70924591       6.21180512       0.00000000       0.00000000       0.00000000
I        7.00573967       6.15762201       6.39553936       0.00000000       0.00000000       0.00000000
I        8.72190375       8.62185885       2.89661128       0.00000000       0.00000000       0.00000000
I        6.08477962       1.96041861      12.34702582       0.00000000       0.00000000       0.00000000
I        1.89651855       2.51173805       0.04379555       0.00000000       0.00000000       0.00000000
I        1.65454904       2.58423247       5.96125156       0.00000000       0.00000000       0.00000000
I        2.49767072       7.06588322       5.90379932       0.00000000       0.00000000       0.00000000
I        6.85437758       6.25165639      12.30991357       0.00000000       0.00000000       0.00000000
I        6.20752653       1.90716864       6.30066620       0.00000000       0.00000000       0.00000000
I        4.06113718       4.64872071       9.45634863       0.00000000       0.00000000       0.00000000
I        0.09156007       0.16265368       9.47349833       0.00000000       0.00000000       0.00000000
I        2.81452442       6.87119605       0.12275689       0.00000000       0.00000000       0.00000000
I        4.84102533       4.44133079       2.97585957       0.00000000       0.00000000       0.00000000
48
Lattice="8.819447548269485 0.12146348310475143 -0.060619771209431524 0.11820957482628845 8.685946328198767 -0.043632563327424406 -0.08600381147035716 -0.0636073362911826 12.422014257452286" Properties=species:S:1:pos:R:3:momenta:R:3 config_id=O-FAPI3_parity_08__strong_strain__sev-0.8 phase=O-FAPI3 mode=parity seed=3735268484 source=O-FAPI3/CONTCAR distortion_family=strong_strain distortion_severity=0.8 original_config_id=O-FAPI3_parity_08 distortion_label=strong_strain pbc="T T T"
C        4.46339519       0.39943227       3.04305618       0.00000000       0.00000000       0.00000000
C        0.06015293       3.94290371       9.26610822       0.00000000       0.00000000       0.00000000
C        8.79191403       4.80120477       2.99189450       0.00000000       0.00000000       0.00000000
C        4.38867195       8.34467622       9.21494652       0.00000000       0.00000000       0.00000000
N        5.12659025       8.18238737       2.28136452       0.00000000       0.00000000       0.00000000
N        0.63002387       4.86847372       8.53886372       0.00000000       0.00000000       0.00000000
N        1.20402961       5.07237221       2.94735239       0.00000000       0.00000000       0.00000000
N        5.61002087       7.98678065       9.11355490       0.00000000       0.00000000       0.00000000
N        3.24335963       0.75829922       2.95474527       0.00000000       0.00000000       0.00000000
N        7.64935085       3.67270764       9.12094777       0.00000000       0.00000000       0.00000000
N        8.23199712       3.88299653       2.28142987       0.00000000       0.00000000       0.00000000
N        3.73543087       0.56908291       8.53892902       0.00000000       0.00000000       0.00000000
H        5.06778083       0.88780876       3.77485076       0.00000000       0.00000000       0.00000000
H        0.65136878       3.46357254      10.00276404       0.00000000       0.00000000       0.00000000
H        8.19047406       5.27297431       3.73197726       0.00000000       0.00000000       0.00000000
H        3.77406214       7.84873819       9.95989055       0.00000000       0.00000000       0.00000000
H        6.10267572       8.02073938       2.38006553       0.00000000       0.00000000       0.00000000
H        1.61086167       5.05602211       8.63581050       0.00000000       0.00000000       0.00000000
H        1.57666582       5.75116337       3.58270595       0.00000000       0.00000000       0.00000000
H        5.96422989       7.31155463       9.75571015       0.00000000       0.00000000       0.00000000
H        4.62337844       7.69752970       1.56767741       0.00000000       0.00000000       0.00000000
H        0.13992150       5.34688305       7.82033769       0.00000000       0.00000000       0.00000000
H        1.83563056       4.67579123       2.29448912       0.00000000       0.00000000       0.00000000
H        6.25274410       8.40745032       8.45658621       0.00000000       0.00000000       0.00000000
H        2.60964481       0.34429192       2.31057908       0.00000000       0.00000000       0.00000000
H        7.02675818       4.07595118       8.47267618       0.00000000       0.00000000       0.00000000
H        8.73206315       3.41195624       1.56084681       0.00000000       0.00000000       0.00000000
H        4.24860624       1.06130960       7.81350701       0.00000000       0.00000000       0.00000000
H        2.88027078       1.42695783       3.59515576       0.00000000       0.00000000       0.00000000
H        7.26783479       2.98734899       9.76815991       0.00000000       0.00000000       0.00000000
H        7.24971156       3.69437740       2.39359165       0.00000000       0.00000000       0.00000000
H        2.75789761       0.72966017       8.64933654       0.00000000       0.00000000       0.00000000
Pb       4.34644824       4.17338665      12.20818484       0.00000000       0.00000000       0.00000000
Pb       0.07975716       0.14725433       5.90326540       0.00000000       0.00000000       0.00000000
Pb       8.81625122       8.72866292      12.17219050       0.00000000       0.00000000       0.00000000
Pb       4.38184282       4.50291663       5.92438156       0.00000000       0.00000000       0.00000000
I        7.01351261       6.18741279       6.19754374       0.00000000       0.00000000       0.00000000
I        8.42470401       8.69910018       2.67685340       0.00000000       0.00000000       0.00000000
I        6.08730328       1.60959463      11.92009277       0.00000000       0.00000000       0.00000000
I        1.71137524       2.53370997      12.29831452       0.00000000       0.00000000       0.00000000
I        1.84072183       2.74604131       5.60379287       0.00000000       0.00000000       0.00000000
I        2.55166542       6.89299818       5.72119086       0.00000000       0.00000000       0.00000000
I        6.99568496       6.13371003      11.93574984       0.00000000       0.00000000       0.00000000
I        6.26531357       1.84506790       6.30290968       0.00000000       0.00000000       0.00000000
I        4.11403335       4.18059623       9.04096773       0.00000000       0.00000000       0.00000000
I        0.57879508       8.64030783       9.15271890       0.00000000       0.00000000       0.00000000
I        2.61139548       6.84215154      -0.03847392       0.00000000       0.00000000       0.00000000
I        4.79405795       4.34400915       2.74982461       0.00000000       0.00000000       0.00000000
48
Lattice="9.062171117180885 0.19797841779588987 0.10497217402417532 0.19267473642469554 8.260495430482836 0.01520157729100053 0.14892842523635383 0.022160784633465002 13.137628893098505" Properties=species:S:1:pos:R:3:momenta:R:3 config_id=O-FAPI3_parity_09__strong_strain__sev-0.9 phase=O-FAPI3 mode=parity seed=2901549199 source=O-FAPI3/CONTCAR distortion_family=strong_strain distortion_severity=0.9 original_config_id=O-FAPI3_parity_09 distortion_label=strong_strain pbc="T T T"
C        4.64788613       0.44221996       3.30674602       0.00000000       0.00000000       0.00000000
C        0.27191991       3.81222084       9.82943784       0.00000000       0.00000000       0.00000000
C        9.13113781       4.66830720       3.36516296       0.00000000       0.00000000       0.00000000
C        4.75517178       8.03830808       9.88785477       0.00000000       0.00000000       0.00000000
N        5.37931701       7.84433657       2.56665612       0.00000000       0.00000000       0.00000000
N        0.85123788       4.69283754       9.07734672       0.00000000       0.00000000       0.00000000
N        1.33568881       4.85455851       3.17512182       0.00000000       0.00000000       0.00000000
N        6.00524538       7.70877325       9.80147238       0.00000000       0.00000000       0.00000000
N        3.39553813       0.77141637       3.19249737       0.00000000       0.00000000       0.00000000
N        8.06509465       3.62563109       9.81884793       0.00000000       0.00000000       0.00000000
N        8.53458310       3.78512556       2.59672057       0.00000000       0.00000000       0.00000000
N        4.00650410       0.63362655       9.10741110       0.00000000       0.00000000       0.00000000
H        5.28697735       0.91722534       4.09567453       0.00000000       0.00000000       0.00000000
H        0.88954512       3.36691835      10.61667284       0.00000000       0.00000000       0.00000000
H        8.53121741       5.11624423       4.13973935       0.00000000       0.00000000       0.00000000
H        4.13378532       7.56593734      10.66073768       0.00000000       0.00000000       0.00000000
H        6.38283159       7.70045770       2.68858269       0.00000000       0.00000000       0.00000000
H        1.86249847       4.88105086       9.19988432       0.00000000       0.00000000       0.00000000
H        1.73638146       5.50780797       3.85891139       0.00000000       0.00000000       0.00000000
H        6.37590276       7.07432736      10.48289223       0.00000000       0.00000000       0.00000000
H        4.84456169       7.37374980       1.79883551       0.00000000       0.00000000       0.00000000
H        0.33785015       5.13833547       8.31121184       0.00000000       0.00000000       0.00000000
H        1.96889432       4.47898951       2.49389110       0.00000000       0.00000000       0.00000000
H        6.65657952       8.11042472       9.12167189       0.00000000       0.00000000       0.00000000
H        2.72860459       0.36744355       2.49620646       0.00000000       0.00000000       0.00000000
H        7.41628961       3.99887892       9.12398724       0.00000000       0.00000000       0.00000000
H        9.03071724       3.33706030       1.84084131       0.00000000       0.00000000       0.00000000
H        4.52400573       1.10164598       8.35321757       0.00000000       0.00000000       0.00000000
H        3.04025753       1.40815035       3.86753006       0.00000000       0.00000000       0.00000000
H        7.67977877       2.97466964      10.49151084       0.00000000       0.00000000       0.00000000
H        7.52582953       3.59728529       2.69533797       0.00000000       0.00000000       0.00000000
H        3.00549651       0.77787850       9.20663952       0.00000000       0.00000000       0.00000000
Pb       4.78437978       4.24536351      12.91453543       0.00000000       0.00000000       0.00000000
Pb       0.07807892       0.24289748       6.24567113       0.00000000       0.00000000       0.00000000
Pb       0.35289844       8.11735045      12.97670141       0.00000000       0.00000000       0.00000000
Pb       4.78415203       4.48073205       6.27932006       0.00000000       0.00000000       0.00000000
I        7.36275242       5.96622560       6.43658644       0.00000000       0.00000000       0.00000000
I        8.87472090       8.42651162       3.13198254       0.00000000       0.00000000       0.00000000
I        6.72618593       1.76813027      12.61347058       0.00000000       0.00000000       0.00000000
I        1.87751968       2.50485804       0.26218792       0.00000000       0.00000000       0.00000000
I        1.97062634       2.50850108       6.02308052       0.00000000       0.00000000       0.00000000
I        2.78912621       6.77457468       6.08723566       0.00000000       0.00000000       0.00000000
I        7.52512791       5.91395443      12.98843273       0.00000000       0.00000000       0.00000000
I        6.41494264       1.71642828       6.54105015       0.00000000       0.00000000       0.00000000
I        4.46132336       4.25970056       9.64262867       0.00000000       0.00000000       0.00000000
I        0.43317899       0.10801119       9.51953697       0.00000000       0.00000000       0.00000000
I        2.96860386       6.45063040      13.11729864       0.00000000       0.00000000       0.00000000
I        5.08844195       4.14300021       3.26455430       0.00000000       0.00000000       0.00000000
48
Lattice="9.042640752137432 0.14005752512313363 0.22418279491926468 0.13630549752759555 8.182573718406449 0.22813933403664996 0.31805753212962334 0.332580399469559 12.98822281567058" Properties=species:S:1:pos:R:3:momenta:R:3 config_id=O-FAPI3_parity_10__strong_strain__sev-1.0 phase=O-FAPI3 mode=parity seed=1998473427 source=O-FAPI3/CONTCAR distortion_family=strong_strain distortion_severity=1.0 original_config_id=O-FAPI3_parity_10 distortion_label=strong_strain pbc="T T T"
C        4.67754704       0.48648590       3.33897317       0.00000000       0.00000000       0.00000000
C        0.37231395       4.00803838       9.81649410       0.00000000       0.00000000       0.00000000
C        9.12315964       4.64557331       3.56156776       0.00000000       0.00000000       0.00000000
C        4.81792673       8.16712579      10.03908868       0.00000000       0.00000000       0.00000000
N        5.34753131       7.79729086       2.80552066       0.00000000       0.00000000       0.00000000
N        0.93468772       4.85886109       9.10293016       0.00000000       0.00000000       0.00000000
N        1.34079974       4.87595842       3.27922536       0.00000000       0.00000000       0.00000000
N        6.06642976       7.83053685       9.96121633       0.00000000       0.00000000       0.00000000
N        3.42418676       0.81799586       3.21849613       0.00000000       0.00000000       0.00000000
N        8.14981674       3.77257427       9.90048710       0.00000000       0.00000000       0.00000000
N        8.52397432       3.75625807       2.77189026       0.00000000       0.00000000       0.00000000
N        4.11113086       0.81782833       9.06929970       0.00000000       0.00000000       0.00000000
H        5.32221616       0.97164251       4.13903215       0.00000000       0.00000000       0.00000000
H        1.00179720       3.58156844      10.59113602       0.00000000       0.00000000       0.00000000
H        8.53148740       5.11158072       4.33097572       0.00000000       0.00000000       0.00000000
H        4.21106856       7.72150674      10.78307961       0.00000000       0.00000000       0.00000000
H        6.35143414       7.65116035       2.93514483       0.00000000       0.00000000       0.00000000
H        1.94407039       5.04169014       9.24172599       0.00000000       0.00000000       0.00000000
H        1.74501542       5.53674385       3.97687121       0.00000000       0.00000000       0.00000000
H        6.44939735       7.21577383      10.62329845       0.00000000       0.00000000       0.00000000
H        4.80721559       7.31633799       2.02776661       0.00000000       0.00000000       0.00000000
H        0.40948826       5.28535146       8.35047654       0.00000000       0.00000000       0.00000000
H        1.96639846       4.48364294       2.60435332       0.00000000       0.00000000       0.00000000
H        6.70485338       8.20811028       9.30780959       0.00000000       0.00000000       0.00000000
H        2.75244843       0.40558641       2.51146089       0.00000000       0.00000000       0.00000000
H        7.49090318       4.13005390       9.21491716       0.00000000       0.00000000       0.00000000
H        9.01232633       3.29123780       2.01963867       0.00000000       0.00000000       0.00000000
H        4.61459903       1.26025127       8.34234852       0.00000000       0.00000000       0.00000000
H        3.07405844       1.46709761       3.89744046       0.00000000       0.00000000       0.00000000
H        7.77844030       3.14612749      10.54386764       0.00000000       0.00000000       0.00000000
H        7.51994576       3.57902758       2.85173438       0.00000000       0.00000000       0.00000000
H        3.11258209       0.96955742       9.15831546       0.00000000       0.00000000       0.00000000
Pb       4.86769367       4.21131285      13.10542461       0.00000000       0.00000000       0.00000000
Pb       0.43173368       8.32918899       6.41164758       0.00000000       0.00000000       0.00000000
Pb       9.34302571       8.59477866      13.11859444       0.00000000       0.00000000       0.00000000
Pb       4.64853256       4.39070999       6.49996161       0.00000000       0.00000000       0.00000000
I        7.52396869       5.92887920       6.95484955       0.00000000       0.00000000       0.00000000
I        8.80830640       0.31460761       3.23512725       0.00000000       0.00000000       0.00000000
I        6.63560883       1.80639552      12.74278287       0.00000000       0.00000000       0.00000000
I        2.33920682       2.50170566      13.03223615       0.00000000       0.00000000       0.00000000
I        2.03455926       2.59369751       6.10773445       0.00000000       0.00000000       0.00000000
I        2.98579945       6.74244196       6.15572970       0.00000000       0.00000000       0.00000000
I        7.66928140       6.13090973      12.99225198       0.00000000       0.00000000       0.00000000
I        6.44038555       2.04224593       6.72958844       0.00000000       0.00000000       0.00000000
I        4.49610668       4.38816156       9.93618225       0.00000000       0.00000000       0.00000000
I        0.88282883       8.36980973       9.56685282       0.00000000       0.00000000       0.00000000
I        2.87248955       6.51022224       0.27081741       0.00000000       0.00000000       0.00000000
I        5.09120206       4.25842186       3.12869218       0.00000000       0.00000000       0.00000000
48
Lattice="9.01938999317578 0.0 0.0 0.0 8.777767844565316 0.0 0.0 0.0 12.796186806294449" Properties=species:S:1:pos:R:3:momenta:R:3 config_id=O-FAPI3_parity_11__global_rattle__sev-0.1 phase=O-FAPI3 mode=parity seed=1508704073 source=O-FAPI3/CONTCAR distortion_family=global_rattle distortion_severity=0.1 original_config_id=O-FAPI3_parity_11 distortion_label=global_rattle pbc="T T T"
C        4.65262252       0.32690976       3.17531539       0.00000000       0.00000000       0.00000000
C        0.09475385       4.04511200       9.52677599       0.00000000       0.00000000       0.00000000
C        8.95447596       4.71418583       3.25379006       0.00000000       0.00000000       0.00000000
C        4.44555411       8.30009455       9.58425974       0.00000000       0.00000000       0.00000000
N        5.13183440       8.23721770       2.36367749       0.00000000       0.00000000       0.00000000
N        0.64670004       4.95116775       8.80375862       0.00000000       0.00000000       0.00000000
N        1.24577292       5.10361590       3.06255604       0.00000000       0.00000000       0.00000000
N        5.68833547       8.05326389       9.54143155       0.00000000       0.00000000       0.00000000
N        3.33912617       0.68454351       3.07850615       0.00000000       0.00000000       0.00000000
N        7.82755064       3.60098918       9.42368320       0.00000000       0.00000000       0.00000000
N        8.30570441       3.91316604       2.51779124       0.00000000       0.00000000       0.00000000
N        3.83570717       0.56640646       8.88501452       0.00000000       0.00000000       0.00000000
H        5.09844189       0.90831848       4.01920991       0.00000000       0.00000000       0.00000000
H        0.75782493       3.64428264      10.32780482       0.00000000       0.00000000       0.00000000
H        8.34736855       5.24682751       3.91546481       0.00000000       0.00000000       0.00000000
H        3.80567530       7.87029338      10.31000483       0.00000000       0.00000000       0.00000000
H        6.10229362       8.05378671       2.50115365       0.00000000       0.00000000       0.00000000
H        1.59215329       5.08680004       8.86887544       0.00000000       0.00000000       0.00000000
H        1.63383463       5.86891570       3.68579736       0.00000000       0.00000000       0.00000000
H        6.11414540       7.39352653      10.12552244       0.00000000       0.00000000       0.00000000
H        4.58658834       7.77837698       1.63386589       0.00000000       0.00000000       0.00000000
H        0.14923272       5.41253377       8.05650445       0.00000000       0.00000000       0.00000000
H        1.76735887       4.77530736       2.43084968       0.00000000       0.00000000       0.00000000
H        6.21641220       8.41289687       8.84740907       0.00000000       0.00000000       0.00000000
H        2.69392238       0.34268038       2.45230999       0.00000000       0.00000000       0.00000000
H        7.23193885       4.03638395       8.71889956       0.00000000       0.00000000       0.00000000
H        8.87029849       3.41448440       1.67376671       0.00000000       0.00000000       0.00000000
H        4.34808268       1.08968180       8.07577672       0.00000000       0.00000000       0.00000000
H        2.93664787       1.33438161       3.59949090       0.00000000       0.00000000       0.00000000
H        7.43414359       2.91697935      10.11716218       0.00000000       0.00000000       0.00000000
H        7.32531117       3.73090377       2.63856553       0.00000000       0.00000000       0.00000000
H        2.78600948       0.84037330       8.98221419       0.00000000       0.00000000       0.00000000
Pb       4.54834823       4.24860733      12.53755841       0.00000000       0.00000000       0.00000000
Pb       0.02996876       0.06178075       6.08909877       0.00000000       0.00000000       0.00000000
Pb       0.02008286       8.64133729      12.58426392       0.00000000       0.00000000       0.00000000
Pb       4.56086951       4.44762588       6.14906292       0.00000000       0.00000000       0.00000000
I        7.09710985       6.25514758       6.32095595       0.00000000       0.00000000       0.00000000
I        8.64789593       8.73153762       3.00861362       0.00000000       0.00000000       0.00000000
I        6.28141013       1.75586525      12.37769731       0.00000000       0.00000000       0.00000000
I        1.76331201       2.56492193       0.08967708       0.00000000       0.00000000       0.00000000
I        1.88395085       2.59295119       5.88104978       0.00000000       0.00000000       0.00000000
I        2.64928730       7.00064038       5.98930159       0.00000000       0.00000000       0.00000000
I        7.12302336       6.17503314      12.22221970       0.00000000       0.00000000       0.00000000
I        6.39108176       1.90175781       6.45467375       0.00000000       0.00000000       0.00000000
I        4.25036555       4.46124132       9.33199314       0.00000000       0.00000000       0.00000000
I        0.40729497       8.75931983       9.33536977       0.00000000       0.00000000       0.00000000
I        2.73134125       7.02652692       0.02997191       0.00000000       0.00000000       0.00000000
I        4.86928588       4.38704079       2.86886440       0.00000000       0.00000000       0.00000000
48
Lattice="9.01938999317578 0.0 0.0 0.0 8.777767844565316 0.0 0.0 0.0 12.796186806294449" Properties=species:S:1:pos:R:3:momenta:R:3 config_id=O-FAPI3_parity_12__global_rattle__sev-0.2 phase=O-FAPI3 mode=parity seed=629855035 source=O-FAPI3/CONTCAR distortion_family=global_rattle distortion_severity=0.2 original_config_id=O-FAPI3_parity_12 distortion_label=global_rattle pbc="T T T"
C        4.64497781       0.36437230       3.22079505       0.00000000       0.00000000       0.00000000
C        0.10089388       3.97486253       9.66730504       0.00000000       0.00000000       0.00000000
C        8.94338533       4.69675938       3.19505688       0.00000000       0.00000000       0.00000000
C        4.43184341       8.58647083       9.47266258       0.00000000       0.00000000       0.00000000
N        5.19019861       8.20457439       2.42481599       0.00000000       0.00000000       0.00000000
N        0.63016703       5.00731658       8.80996617       0.00000000       0.00000000       0.00000000
N        1.19530613       5.14704412       3.09338807       0.00000000       0.00000000       0.00000000
N        5.68419429       7.99808661       9.48039015       0.00000000       0.00000000       0.00000000
N        3.24285338       0.71378245       3.04802739       0.00000000       0.00000000       0.00000000
N        7.81636782       3.76092297       9.39457830       0.00000000       0.00000000       0.00000000
N        8.31328132       3.80275801       2.44852650       0.00000000       0.00000000       0.00000000
N        3.90622120       0.51181854       8.75600975       0.00000000       0.00000000       0.00000000
H        5.29391729       0.94401641       3.77353040       0.00000000       0.00000000       0.00000000
H        0.54498438       3.56041260      10.39217389       0.00000000       0.00000000       0.00000000
H        8.36323095       5.17039808       3.87057349       0.00000000       0.00000000       0.00000000
H        3.84865825       7.93665471      10.31508193       0.00000000       0.00000000       0.00000000
H        6.20287278       8.05513234       2.45592583       0.00000000       0.00000000       0.00000000
H        1.72157166       5.01507663       8.90819605       0.00000000       0.00000000       0.00000000
H        1.46497753       5.78241944       3.70060734       0.00000000       0.00000000       0.00000000
H        6.13646620       7.60861642      10.10693958       0.00000000       0.00000000       0.00000000
H        4.76142412       7.74100407       1.67801053       0.00000000       0.00000000       0.00000000
H        0.12386798       5.46106090       8.07698254       0.00000000       0.00000000       0.00000000
H        1.83116412       4.74672183       2.41773167       0.00000000       0.00000000       0.00000000
H        6.42017525       8.48224600       8.93669962       0.00000000       0.00000000       0.00000000
H        2.71709425       0.39043439       2.31970561       0.00000000       0.00000000       0.00000000
H        7.19265314       4.07535479       8.76913224       0.00000000       0.00000000       0.00000000
H        8.89080061       3.23990949       1.66443262       0.00000000       0.00000000       0.00000000
H        4.41679314       1.06307797       7.97183464       0.00000000       0.00000000       0.00000000
H        3.09942751       1.42842430       3.82155831       0.00000000       0.00000000       0.00000000
H        7.33140791       2.88057110      10.10316208       0.00000000       0.00000000       0.00000000
H        7.35863470       3.77034013       2.58100630       0.00000000       0.00000000       0.00000000
H        2.79839333       0.79856759       8.91018605       0.00000000       0.00000000       0.00000000
Pb       4.40125322       4.25390076      12.58414608       0.00000000       0.00000000       0.00000000
Pb       8.97907218       0.06981850       6.19309094       0.00000000       0.00000000       0.00000000
Pb       8.95157999       8.71377509      12.56506558       0.00000000       0.00000000       0.00000000
Pb       4.44616482       4.40175649       6.19243683       0.00000000       0.00000000       0.00000000
I        7.24589099       6.33642008       6.46250408       0.00000000       0.00000000       0.00000000
I        8.67005475       8.68211637       2.92188595       0.00000000       0.00000000       0.00000000
I        6.38544950       1.73570434      12.31666394       0.00000000       0.00000000       0.00000000
I        1.92676016       2.52823847      12.68081039       0.00000000       0.00000000       0.00000000
I        1.82037530       2.68780019       5.82183655       0.00000000       0.00000000       0.00000000
I        2.71307868       7.11410936       5.86429644       0.00000000       0.00000000       0.00000000
I        7.33295185       6.08203042      12.24144913       0.00000000       0.00000000       0.00000000
I        6.44088726       1.81255161       6.26392367       0.00000000       0.00000000       0.00000000
I        4.26350726       4.46687263       9.43229938       0.00000000       0.00000000       0.00000000
I        0.34784794       8.76809000       9.37986688       0.00000000       0.00000000       0.00000000
I        2.79177003       6.87981398      12.71173467       0.00000000       0.00000000       0.00000000
I        4.88402332       4.27963252       2.88376506       0.00000000       0.00000000       0.00000000
48
Lattice="9.01938999317578 0.0 0.0 0.0 8.777767844565316 0.0 0.0 0.0 12.796186806294449" Properties=species:S:1:pos:R:3:momenta:R:3 config_id=O-FAPI3_parity_13__global_rattle__sev-0.3 phase=O-FAPI3 mode=parity seed=1195520627 source=O-FAPI3/CONTCAR distortion_family=global_rattle distortion_severity=0.3 original_config_id=O-FAPI3_parity_13 distortion_label=global_rattle pbc="T T T"
C        4.67119031       0.33143218       3.22700424       0.00000000       0.00000000       0.00000000
C        0.13149553       3.99727589       9.42611674       0.00000000       0.00000000       0.00000000
C        8.92617579       4.76056187       3.15710715       0.00000000       0.00000000       0.00000000
C        4.28339183       8.36947614       9.51636080       0.00000000       0.00000000       0.00000000
N        5.16234924       8.22033224       2.34575082       0.00000000       0.00000000       0.00000000
N        0.59674451       4.98339504       8.86051693       0.00000000       0.00000000       0.00000000
N        1.05559295       5.11193420       2.97714917       0.00000000       0.00000000       0.00000000
N        5.83643044       8.09788897       9.36292403       0.00000000       0.00000000       0.00000000
N        3.33344925       0.76098088       3.11934855       0.00000000       0.00000000       0.00000000
N        7.86120408       3.71739796       9.40130867       0.00000000       0.00000000       0.00000000
N        8.44041760       3.84649609       2.49842749       0.00000000       0.00000000       0.00000000
N        3.84578169       0.59400544       8.87199813       0.00000000       0.00000000       0.00000000
H        5.17091035       0.95339178       3.99782385       0.00000000       0.00000000       0.00000000
H        0.63071905       3.45657985      10.43218548       0.00000000       0.00000000       0.00000000
H        8.36017058       5.12606058       3.95473917       0.00000000       0.00000000       0.00000000
H        3.57402004       7.98946735      10.50206248       0.00000000       0.00000000       0.00000000
H        6.13444513       7.94592417       2.54589373       0.00000000       0.00000000       0.00000000
H        1.59720773       5.08803895       8.98003649       0.00000000       0.00000000       0.00000000
H        1.45486741       5.84399072       3.69705291       0.00000000       0.00000000       0.00000000
H        6.08147761       7.45180927      10.12194069       0.00000000       0.00000000       0.00000000
H        4.49979536       7.80953208       1.66550522       0.00000000       0.00000000       0.00000000
H        0.02952786       5.37616207       8.10728511       0.00000000       0.00000000       0.00000000
H        1.84041414       4.64930675       2.44966583       0.00000000       0.00000000       0.00000000
H        6.36865019       8.34817154       8.74490563       0.00000000       0.00000000       0.00000000
H        2.72938361       0.31686152       2.38131527       0.00000000       0.00000000       0.00000000
H        7.09999148       4.15537039       8.82831147       0.00000000       0.00000000       0.00000000
H        8.79313891       3.37178244       1.68886068       0.00000000       0.00000000       0.00000000
H        4.39556999       1.14576321       8.02465529       0.00000000       0.00000000       0.00000000
H        2.95790274       1.43521446       3.70976722       0.00000000       0.00000000       0.00000000
H        7.46022230       2.97407619      10.01206590       0.00000000       0.00000000       0.00000000
H        7.53804108       3.59797517       2.63190073       0.00000000       0.00000000       0.00000000
H        2.92136176       0.80117451       8.83848312       0.00000000       0.00000000       0.00000000
Pb       4.58426841       4.18376624      12.47771275       0.00000000       0.00000000       0.00000000
Pb       0.14037245       0.07534919       6.27404075       0.00000000       0.00000000       0.00000000
Pb       0.11908002       8.71368937      12.44506062       0.00000000       0.00000000       0.00000000
Pb       4.62363963       4.51876857       6.17130612       0.00000000       0.00000000       0.00000000
I        7.15012737       6.26774275       6.37121789       0.00000000       0.00000000       0.00000000
I        8.62752699       8.77364467       2.95639637       0.00000000       0.00000000       0.00000000
I        6.41393138       1.69714913      12.30629018       0.00000000       0.00000000       0.00000000
I        1.79329559       2.56114559       0.03169310       0.00000000       0.00000000       0.00000000
I        1.78849328       2.67883204       5.72113542       0.00000000       0.00000000       0.00000000
I        2.61552616       6.99972045       5.88111540       0.00000000       0.00000000       0.00000000
I        7.21195240       6.15667106      12.18070278       0.00000000       0.00000000       0.00000000
I        6.36209896       1.94115549       6.61034125       0.00000000       0.00000000       0.00000000
I        4.12342713       4.26361833       9.44543705       0.00000000       0.00000000       0.00000000
I        0.41479782       8.74883586       9.35367031       0.00000000       0.00000000       0.00000000
I        2.62146777       6.99492826      12.75317660       0.00000000       0.00000000       0.00000000
I        4.96162645       4.32688238       3.05831417       0.00000000       0.00000000       0.00000000
48
Lattice="9.01938999317578 0.0 0.0 0.0 8.777767844565316 0.0 0.0 0.0 12.796186806294449" Properties=species:S:1:pos:R:3:momenta:R:3 config_id=O-FAPI3_parity_14__global_rattle__sev-0.4 phase=O-FAPI3 mode=parity seed=2119906931 source=O-FAPI3/CONTCAR distortion_family=global_rattle distortion_severity=0.4 original_config_id=O-FAPI3_parity_14 distortion_label=global_rattle pbc="T T T"
C        4.71428930       0.24220880       3.18190540       0.00000000       0.00000000       0.00000000
C        8.96650237       4.00182430       9.48388312       0.00000000       0.00000000       0.00000000
C        9.00780637       4.78444083       3.31121700       0.00000000       0.00000000       0.00000000
C        4.41407140       8.36882201       9.58380028       0.00000000       0.00000000       0.00000000
N        5.10878057       8.09628460       2.46522009       0.00000000       0.00000000       0.00000000
N        0.76819359       4.93661644       8.69175621       0.00000000       0.00000000       0.00000000
N        1.32697586       5.27393965       2.93377388       0.00000000       0.00000000       0.00000000
N        5.76773965       8.03392668       9.65838694       0.00000000       0.00000000       0.00000000
N        3.30918582       0.74369375       2.99530703       0.00000000       0.00000000       0.00000000
N        7.85155624       3.62902706       9.58963007       0.00000000       0.00000000       0.00000000
N        8.40470822       3.92668771       2.28903017       0.00000000       0.00000000       0.00000000
N        3.93064566       0.77969859       8.88414610       0.00000000       0.00000000       0.00000000
H        5.29996311       1.00660779       3.88958994       0.00000000       0.00000000       0.00000000
H        0.65666221       3.41602073      10.30501928       0.00000000       0.00000000       0.00000000
H        8.42395723       5.46024091       3.91903728       0.00000000       0.00000000       0.00000000
H        3.81936211       7.94857223      10.39571017       0.00000000       0.00000000       0.00000000
H        6.26333421       8.05360195       2.54306723       0.00000000       0.00000000       0.00000000
H        1.54459252       5.08471403       9.04754800       0.00000000       0.00000000       0.00000000
H        1.49359057       5.80412728       3.75965219       0.00000000       0.00000000       0.00000000
H        6.16647604       7.24830652      10.03138174       0.00000000       0.00000000       0.00000000
H        4.46961521       7.81828426       1.49565502       0.00000000       0.00000000       0.00000000
H        8.99826704       5.44755895       8.23427995       0.00000000       0.00000000       0.00000000
H        1.70831672       4.68581078       2.37544388       0.00000000       0.00000000       0.00000000
H        6.24051963       8.48504862       8.79657549       0.00000000       0.00000000       0.00000000
H        2.62122982       0.29428880       2.37553664       0.00000000       0.00000000       0.00000000
H        7.31781212       4.05849570       8.84403250       0.00000000       0.00000000       0.00000000
H        8.97366639       3.40533233       1.68682455       0.00000000       0.00000000       0.00000000
H        4.30460477       1.05519499       8.14594477       0.00000000       0.00000000       0.00000000
H        2.93360084       1.41940347       3.78233539       0.00000000       0.00000000       0.00000000
H        7.57713376       3.10070590      10.17898824       0.00000000       0.00000000       0.00000000
H        7.39016475       3.74214748       2.58046981       0.00000000       0.00000000       0.00000000
H        2.83669356       0.86807787       8.99395634       0.00000000       0.00000000       0.00000000
Pb       4.48968606       4.33088151      12.66193027       0.00000000       0.00000000       0.00000000
Pb       0.12575320       0.09235066       6.09607129       0.00000000       0.00000000       0.00000000
Pb       0.10174298       8.72598785      12.65713695       0.00000000       0.00000000       0.00000000
Pb       4.41744427       4.58509178       6.25318911       0.00000000       0.00000000       0.00000000
I        7.24737043       6.23463711       6.47243072       0.00000000       0.00000000       0.00000000
I        8.44995212       8.74299826       2.93450276       0.00000000       0.00000000       0.00000000
I        6.42320400       1.79845581      12.19309820       0.00000000       0.00000000       0.00000000
I        1.86096798       2.67028860       0.15106125       0.00000000       0.00000000       0.00000000
I        1.85314499       2.69580252       5.94524758       0.00000000       0.00000000       0.00000000
I        2.63253294       7.04546651       5.84063259       0.00000000       0.00000000       0.00000000
I        7.25181283       6.11559683      12.36769958       0.00000000       0.00000000       0.00000000
I        6.33171768       1.82351319       6.41056314       0.00000000       0.00000000       0.00000000
I        4.14904273       4.42810873       9.36769458       0.00000000       0.00000000       0.00000000
I        0.44984729       8.76026583       9.45474762       0.00000000       0.00000000       0.00000000
I        2.61779295       6.96623458       0.13819693       0.00000000       0.00000000       0.00000000
I        4.88346478       4.42177919       3.01898022       0.00000000       0.00000000       0.00000000
48
Lattice="9.01938999317578 0.0 0.0 0.0 8.777767844565316 0.0 0.0 0.0 12.796186806294449" Properties=species:S:1:pos:R:3:momenta:R:3 config_id=O-FAPI3_parity_15__global_rattle__sev-0.5 phase=O-FAPI3 mode=parity seed=2252567379 source=O-FAPI3/CONTCAR distortion_family=global_rattle distortion_severity=0.5 original_config_id=O-FAPI3_parity_15 distortion_label=global_rattle pbc="T T T"
C        4.44024886       0.43552236       3.15734858       0.00000000       0.00000000       0.00000000
C        8.96416797       4.04196548       9.42881003       0.00000000       0.00000000       0.00000000
C        8.82425073       4.78168641       3.22028157       0.00000000       0.00000000       0.00000000
C        4.54984917       8.21978533       9.63100097       0.00000000       0.00000000       0.00000000
N        5.07125804       8.23336048       2.53644321       0.00000000       0.00000000       0.00000000
N        0.62213584       4.84378364       8.85534104       0.00000000       0.00000000       0.00000000
N        1.02903211       5.23710489       3.14482672       0.00000000       0.00000000       0.00000000
N        5.76716089       7.89319116       9.51421832       0.00000000       0.00000000       0.00000000
N        3.15369039       0.81603519       3.10856490       0.00000000       0.00000000       0.00000000
N        7.64977880       3.58076995       9.44964073       0.00000000       0.00000000       0.00000000
N        8.39057329       3.84978811       2.47009355       0.00000000       0.00000000       0.00000000
N        3.89905907       0.53919773       8.78902145       0.00000000       0.00000000       0.00000000
H        5.44818202       0.80166326       4.00908262       0.00000000       0.00000000       0.00000000
H        0.76805654       3.48153501      10.49274921       0.00000000       0.00000000       0.00000000
H        8.14629051       5.19345611       3.91050596       0.00000000       0.00000000       0.00000000
H        3.81440832       8.02756147      10.27398512       0.00000000       0.00000000       0.00000000
H        6.22203378       8.05895768       2.58514571       0.00000000       0.00000000       0.00000000
H        1.58051681       5.12482481       8.90326201       0.00000000       0.00000000       0.00000000
H        1.58331155       5.78415400       3.75255571       0.00000000       0.00000000       0.00000000
H        5.95992040       7.57557890      10.17331359       0.00000000       0.00000000       0.00000000
H        4.50662315       7.73402164       1.46186052       0.00000000       0.00000000       0.00000000
H        0.10262933       5.53957078       8.03089005       0.00000000       0.00000000       0.00000000
H        1.66768246       4.70122685       2.36888325       0.00000000       0.00000000       0.00000000
H        6.52737026       8.26872330       8.87099332       0.00000000       0.00000000       0.00000000
H        2.60668042       0.33223429       2.41985898       0.00000000       0.00000000       0.00000000
H        7.14476426       4.08280300       8.93303420       0.00000000       0.00000000       0.00000000
H        8.90766564       3.59690142       1.76686947       0.00000000       0.00000000       0.00000000
H        4.29195480       1.07670818       8.10280676       0.00000000       0.00000000       0.00000000
H        2.84893364       1.65581646       3.77675972       0.00000000       0.00000000       0.00000000
H        7.43225959       2.90639805       9.95721563       0.00000000       0.00000000       0.00000000
H        7.33498804       3.72163198       2.57605981       0.00000000       0.00000000       0.00000000
H        2.74861725       0.77198458       8.94222897       0.00000000       0.00000000       0.00000000
Pb       4.57194587       4.43891763      12.58629502       0.00000000       0.00000000       0.00000000
Pb       0.10602052       0.10980742       6.15120848       0.00000000       0.00000000       0.00000000
Pb       0.04145494       8.63780759      12.38375620       0.00000000       0.00000000       0.00000000
Pb       4.57681293       4.54164121       6.14304851       0.00000000       0.00000000       0.00000000
I        7.16071636       6.35332164       6.58528341       0.00000000       0.00000000       0.00000000
I        8.67831273       8.63746042       3.02801047       0.00000000       0.00000000       0.00000000
I        6.54000968       1.56294264      12.26521096       0.00000000       0.00000000       0.00000000
I        1.76524139       2.58951592      12.77408311       0.00000000       0.00000000       0.00000000
I        1.83515411       2.73916101       5.93736993       0.00000000       0.00000000       0.00000000
I        2.54900501       7.14251153       5.84495556       0.00000000       0.00000000       0.00000000
I        7.19604786       5.95610199      12.23321733       0.00000000       0.00000000       0.00000000
I        6.27534333       1.93858022       6.60591913       0.00000000       0.00000000       0.00000000
I        4.32143200       4.40202726       9.32949580       0.00000000       0.00000000       0.00000000
I        0.36442279       8.64954740       9.61506600       0.00000000       0.00000000       0.00000000
I        2.67357903       6.77736545      12.69408849       0.00000000       0.00000000       0.00000000
I        5.00114871       4.55617222       3.20607804       0.00000000       0.00000000       0.00000000
48
Lattice="9.01938999317578 0.0 0.0 0.0 8.777767844565316 0.0 0.0 0.0 12.796186806294449" Properties=species:S:1:pos:R:3:momenta:R:3 config_id=O-FAPI3_parity_16__global_rattle__sev-0.6 phase=O-FAPI3 mode=parity seed=3081827767 source=O-FAPI3/CONTCAR distortion_family=global_rattle distortion_severity=0.6 original_config_id=O-FAPI3_parity_16 distortion_label=global_rattle pbc="T T T"
C        4.55234606       0.40146985       3.02200866       0.00000000       0.00000000       0.00000000
C        0.03233781       3.93915692       9.58078476       0.00000000       0.00000000       0.00000000
C        8.78641351       4.63591291       2.98214177       0.00000000       0.00000000       0.00000000
C        4.68238289       8.36192456       9.47865456       0.00000000       0.00000000       0.00000000
N        5.36904376       8.11277917       2.47715074       0.00000000       0.00000000       0.00000000
N        0.51819751       5.22969787       8.86521919       0.00000000       0.00000000       0.00000000
N        1.07504279       5.11257784       3.27982944       0.00000000       0.00000000       0.00000000
N        5.91429257       8.06283673       9.43374945       0.00000000       0.00000000       0.00000000
N        3.24473281       0.69327399       3.01798297       0.00000000       0.00000000       0.00000000
N        7.72661854       3.75714327       9.40445606       0.00000000       0.00000000       0.00000000
N        8.26700832       3.77145431       2.31631707       0.00000000       0.00000000       0.00000000
N        3.80059127       0.73653536       8.97225554       0.00000000       0.00000000       0.00000000
H        5.16849938       0.84877298       3.99094020       0.00000000       0.00000000       0.00000000
H        0.80050115       3.43378122      10.24957835       0.00000000       0.00000000       0.00000000
H        8.35340472       5.22546329       3.94176246       0.00000000       0.00000000       0.00000000
H        3.62271336       7.98557171      10.05323743       0.00000000       0.00000000       0.00000000
H        6.00927045       7.92746806       2.52620691       0.00000000       0.00000000       0.00000000
H        1.79169537       5.06291694       8.98938501       0.00000000       0.00000000       0.00000000
H        1.34412077       5.69435596       3.56243646       0.00000000       0.00000000       0.00000000
H        6.14237810       7.43709444       9.96439310       0.00000000       0.00000000       0.00000000
H        4.45776264       7.72220240       1.71414492       0.00000000       0.00000000       0.00000000
H        0.10998205       5.34861663       8.23594170       0.00000000       0.00000000       0.00000000
H        1.89946394       4.51087361       2.44484600       0.00000000       0.00000000       0.00000000
H        6.19114747       8.35461821       8.72680339       0.00000000       0.00000000       0.00000000
H        2.54427252       0.50778021       2.36891791       0.00000000       0.00000000       0.00000000
H        7.29807098       4.04497567       8.72274677       0.00000000       0.00000000       0.00000000
H        8.86026535       3.29448190       1.68971018       0.00000000       0.00000000       0.00000000
H        4.24637285       1.07781462       8.01755952       0.00000000       0.00000000       0.00000000
H        2.97175707       1.36365673       3.75168081       0.00000000       0.00000000       0.00000000
H        7.54793469       2.88826008      10.26775181       0.00000000       0.00000000       0.00000000
H        7.25740879       3.60311034       2.52641016       0.00000000       0.00000000       0.00000000
H        3.00196567       0.74277923       8.86361513       0.00000000       0.00000000       0.00000000
Pb       4.82946593       4.33018098      12.35528585       0.00000000       0.00000000       0.00000000
Pb       8.92842996       0.29235608       5.93600441       0.00000000       0.00000000       0.00000000
Pb       8.93104525       8.77267180      12.56866086       0.00000000       0.00000000       0.00000000
Pb       4.40702021       4.38031449       6.25829643       0.00000000       0.00000000       0.00000000
I        7.15270481       6.17966251       6.16882784       0.00000000       0.00000000       0.00000000
I        8.75971875       8.57313994       3.06326555       0.00000000       0.00000000       0.00000000
I        6.56148272       1.72293156      12.27797149       0.00000000       0.00000000       0.00000000
I        1.75421182       2.71537621       0.00029352       0.00000000       0.00000000       0.00000000
I        1.98095796       2.65726868       6.12916054       0.00000000       0.00000000       0.00000000
I        2.65822984       7.13342930       5.93886674       0.00000000       0.00000000       0.00000000
I        7.12253701       5.89223355      12.24803943       0.00000000       0.00000000       0.00000000
I        6.42675744       1.88667957       6.53489388       0.00000000       0.00000000       0.00000000
I        3.99750324       4.38878017       9.20016080       0.00000000       0.00000000       0.00000000
I        0.29236739       0.10511292       9.44277962       0.00000000       0.00000000       0.00000000
I        2.81264384       7.01277836       0.23258998       0.00000000       0.00000000       0.00000000
I        4.87811270       4.58254799       3.09387923       0.00000000       0.00000000       0.00000000
48
Lattice="9.01938999317578 0.0 0.0 0.0 8.777767844565316 0.0 0.0 0.0 12.796186806294449" Properties=species:S:1:pos:R:3:momenta:R:3 config_id=O-FAPI3_parity_17__global_rattle__sev-0.7 phase=O-FAPI3 mode=parity seed=965541105 source=O-FAPI3/CONTCAR distortion_family=global_rattle distortion_severity=0.7 original_config_id=O-FAPI3_parity_17 distortion_label=global_rattle pbc="T T T"
C        4.50828993       0.51577187       3.15177367       0.00000000       0.00000000       0.00000000
C        0.27607615       4.10971911       9.42885781       0.00000000       0.00000000       0.00000000
C        0.03582959       4.52079820       3.08290643       0.00000000       0.00000000       0.00000000
C        4.33709341       8.37330949       9.43795740       0.00000000       0.00000000       0.00000000
N        5.23574930       8.01123236       2.40599272       0.00000000       0.00000000       0.00000000
N        0.45596874       5.04767245       8.87976164       0.00000000       0.00000000       0.00000000
N        1.01955191       5.17495724       3.02978025       0.00000000       0.00000000       0.00000000
N        5.62862030       8.23369562       9.51915402       0.00000000       0.00000000       0.00000000
N        3.38439068       0.74713595       3.17011168       0.00000000       0.00000000       0.00000000
N        7.68194484       3.53229058       9.48429903       0.00000000       0.00000000       0.00000000
N        8.26964979       3.78942645       2.33477466       0.00000000       0.00000000       0.00000000
N        3.74852011       0.51077123       8.89636131       0.00000000       0.00000000       0.00000000
H        5.18933226       0.81729306       3.65353242       0.00000000       0.00000000       0.00000000
H        0.44920163       3.31403864      10.41145430       0.00000000       0.00000000       0.00000000
H        8.39192017       5.12500876       4.05211476       0.00000000       0.00000000       0.00000000
H        3.88672012       8.00426364      10.39690849       0.00000000       0.00000000       0.00000000
H        6.14344486       8.03596373       2.49760049       0.00000000       0.00000000       0.00000000
H        1.41138510       4.97653958       8.85728633       0.00000000       0.00000000       0.00000000
H        1.33975626       5.75370934       3.75410140       0.00000000       0.00000000       0.00000000
H        5.90914233       7.36653506      10.27277567       0.00000000       0.00000000       0.00000000
H        4.66057175       7.56672038       1.79010314       0.00000000       0.00000000       0.00000000
H        0.10832790       5.73664265       8.16591560       0.00000000       0.00000000       0.00000000
H        2.05823492       4.60166642       2.52204057       0.00000000       0.00000000       0.00000000
H        6.26996142       8.50030810       8.78922528       0.00000000       0.00000000       0.00000000
H        2.79018322       0.47681501       2.36712932       0.00000000       0.00000000       0.00000000
H        7.15890471       3.97462321       8.63552296       0.00000000       0.00000000       0.00000000
H        8.99642219       3.48447637       1.53389105       0.00000000       0.00000000       0.00000000
H        4.28834272       0.92892208       8.21991159       0.00000000       0.00000000       0.00000000
H        2.87225317       1.56952786       3.48487368       0.00000000       0.00000000       0.00000000
H        7.45957902       2.74386294      10.27572953       0.00000000       0.00000000       0.00000000
H        7.24407111       3.56563761       2.79321585       0.00000000       0.00000000       0.00000000
H        3.16235529       0.74332688       8.67705968       0.00000000       0.00000000       0.00000000
Pb       4.51946152       4.28550312      12.32326724       0.00000000       0.00000000       0.00000000
Pb       8.99629624       0.13249221       6.22887355       0.00000000       0.00000000       0.00000000
Pb       8.85939859       8.61523954      12.44819699       0.00000000       0.00000000       0.00000000
Pb       4.60310815       4.45431170       6.08747306       0.00000000       0.00000000       0.00000000
I        7.16264238       6.25616830       6.46095210       0.00000000       0.00000000       0.00000000
I        8.98028186       8.74360847       2.98872865       0.00000000       0.00000000       0.00000000
I        6.48763353       1.68029451      12.37710710       0.00000000       0.00000000       0.00000000
I        1.79216969       2.43384645       0.08773451       0.00000000       0.00000000       0.00000000
I        1.89517637       2.62086801       6.22907255       0.00000000       0.00000000       0.00000000
I        2.49185146       7.08516488       6.16147519       0.00000000       0.00000000       0.00000000
I        7.15099430       6.35770058      12.31050633       0.00000000       0.00000000       0.00000000
I        6.45103240       1.60465900       6.23072068       0.00000000       0.00000000       0.00000000
I        4.14698744       4.60938301       9.26278887       0.00000000       0.00000000       0.00000000
I        0.25450188       0.16334775       9.18631001       0.00000000       0.00000000       0.00000000
I        2.58338922       6.82988321      12.66417052       0.00000000       0.00000000       0.00000000
I        4.95093638       4.35448449       3.10106034       0.00000000       0.00000000       0.00000000
48
Lattice="9.01938999317578 0.0 0.0 0.0 8.777767844565316 0.0 0.0 0.0 12.796186806294449" Properties=species:S:1:pos:R:3:momenta:R:3 config_id=O-FAPI3_parity_18__global_rattle__sev-0.8 phase=O-FAPI3 mode=parity seed=3391614287 source=O-FAPI3/CONTCAR distortion_family=global_rattle distortion_severity=0.8 original_config_id=O-FAPI3_parity_18 distortion_label=global_rattle pbc="T T T"
C        4.36512651       0.44921604       3.31512485       0.00000000       0.00000000       0.00000000
C        0.23963504       4.05559502       9.73958197       0.00000000       0.00000000       0.00000000
C        8.99771536       4.53609223       3.20334095       0.00000000       0.00000000       0.00000000
C        4.57023998       8.42441148       9.47526347       0.00000000       0.00000000       0.00000000
N        5.00691376       8.09753691       2.31581995       0.00000000       0.00000000       0.00000000
N        0.53415569       5.26269283       8.83246065       0.00000000       0.00000000       0.00000000
N        1.27585876       5.19948579       3.07987182       0.00000000       0.00000000       0.00000000
N        5.88714886       8.04547820       9.28936593       0.00000000       0.00000000       0.00000000
N        3.51173662       0.56809145       3.09410013       0.00000000       0.00000000       0.00000000
N        7.69744510       3.76447521       9.35248156       0.00000000       0.00000000       0.00000000
N        8.36258763       3.88138002       2.51408552       0.00000000       0.00000000       0.00000000
N        4.21213496       0.61825411       9.11615283       0.00000000       0.00000000       0.00000000
H        5.18582053       0.79203082       4.07772689       0.00000000       0.00000000       0.00000000
H        0.91117159       3.35267785      10.43343976       0.00000000       0.00000000       0.00000000
H        8.21648650       5.47506776       3.88694250       0.00000000       0.00000000       0.00000000
H        3.91580577       7.66389563      10.34332491       0.00000000       0.00000000       0.00000000
H        6.29066832       7.93095830       2.56613632       0.00000000       0.00000000       0.00000000
H        1.47076608       5.17704684       8.95387845       0.00000000       0.00000000       0.00000000
H        1.53632105       5.86308742       3.45443162       0.00000000       0.00000000       0.00000000
H        6.04035892       7.41796376      10.04841591       0.00000000       0.00000000       0.00000000
H        4.86705993       7.85117993       1.54780888       0.00000000       0.00000000       0.00000000
H        0.30351418       5.40117632       8.10644073       0.00000000       0.00000000       0.00000000
H        1.71522920       4.55157452       2.59590349       0.00000000       0.00000000       0.00000000
H        6.16508317       8.53015523       8.77564118       0.00000000       0.00000000       0.00000000
H        2.76236869       0.35157687       2.51233538       0.00000000       0.00000000       0.00000000
H        7.09686037       4.24463386       8.93041987       0.00000000       0.00000000       0.00000000
H        8.84587259       3.44092205       1.63121853       0.00000000       0.00000000       0.00000000
H        4.51499723       1.06080040       7.90021174       0.00000000       0.00000000       0.00000000
H        2.92488601       1.51288580       3.71782591       0.00000000       0.00000000       0.00000000
H        7.44963584       3.14186134       9.86077111       0.00000000       0.00000000       0.00000000
H        7.27240934       3.71676720       2.44224813       0.00000000       0.00000000       0.00000000
H        3.04480769       0.72177729       8.85061123       0.00000000       0.00000000       0.00000000
Pb       4.32695831       4.25905717      12.54093979       0.00000000       0.00000000       0.00000000
Pb       8.62496173       0.17306156       6.30242203       0.00000000       0.00000000       0.00000000
Pb       8.89686027       8.53829448      12.62220651       0.00000000       0.00000000       0.00000000
Pb       4.20932246       4.37740488       6.31586170       0.00000000       0.00000000       0.00000000
I        7.22780767       6.20524636       6.48545697       0.00000000       0.00000000       0.00000000
I        8.78140352       8.71574730       2.85142797       0.00000000       0.00000000       0.00000000
I        6.42454705       1.85277789      12.43875877       0.00000000       0.00000000       0.00000000
I        1.75521380       2.54850645      12.71864756       0.00000000       0.00000000       0.00000000
I        1.97499936       2.53568395       5.61514326       0.00000000       0.00000000       0.00000000
I        2.73079870       7.15314174       6.08824854       0.00000000       0.00000000       0.00000000
I        7.10659922       6.05541455      12.22379205       0.00000000       0.00000000       0.00000000
I        6.16160811       1.91553215       6.55390186       0.00000000       0.00000000       0.00000000
I        4.39723438       4.37182698       9.21644134       0.00000000       0.00000000       0.00000000
I        0.45200947       0.07637487       9.45469803       0.00000000       0.00000000       0.00000000
I        2.90899149       6.90469425       0.14872612       0.00000000       0.00000000       0.00000000
I        4.55105789       4.41786962       2.94315024       0.00000000       0.00000000       0.00000000
48
Lattice="9.01938999317578 0.0 0.0 0.0 8.777767844565316 0.0 0.0 0.0 12.796186806294449" Properties=species:S:1:pos:R:3:momenta:R:3 config_id=O-FAPI3_parity_19__global_rattle__sev-0.9 phase=O-FAPI3 mode=parity seed=3963824007 source=O-FAPI3/CONTCAR distortion_family=global_rattle distortion_severity=0.9 original_config_id=O-FAPI3_parity_19 distortion_label=global_rattle pbc="T T T"
C        4.37297056       0.35773248       3.21324933       0.00000000       0.00000000       0.00000000
C        0.28335283       4.03868652       9.68147780       0.00000000       0.00000000       0.00000000
C        0.16183813       4.71495532       3.06191351       0.00000000       0.00000000       0.00000000
C        4.41394698       8.38208716       9.74316348       0.00000000       0.00000000       0.00000000
N        5.10690645       8.27892143       2.64458577       0.00000000       0.00000000       0.00000000
N        0.55403493       5.04149250       9.05251292       0.00000000       0.00000000       0.00000000
N        1.13874622       5.07005087       3.31636737       0.00000000       0.00000000       0.00000000
N        6.03580379       8.20987622      10.04927406       0.00000000       0.00000000       0.00000000
N        3.25841732       0.79456229       3.23654234       0.00000000       0.00000000       0.00000000
N        7.53888959       3.52392792       9.47169669       0.00000000       0.00000000       0.00000000
N        8.30587268       4.10193204       2.45010196       0.00000000       0.00000000       0.00000000
N        4.06683703       0.60351699       8.76932942       0.00000000       0.00000000       0.00000000
H        5.28037232       0.79542423       3.98278310       0.00000000       0.00000000       0.00000000
H        0.66049481       3.84253243      10.33595461       0.00000000       0.00000000       0.00000000
H        8.27588668       5.33907367       3.57390247       0.00000000       0.00000000       0.00000000
H        3.67746659       7.93534940      10.23901125       0.00000000       0.00000000       0.00000000
H        6.01450192       8.12768455       2.69332876       0.00000000       0.00000000       0.00000000
H        1.58888235       5.21354326       8.93813623       0.00000000       0.00000000       0.00000000
H        1.36864434       5.87314479       3.47599291       0.00000000       0.00000000       0.00000000
H        6.22265304       7.25816960      10.22744529       0.00000000       0.00000000       0.00000000
H        4.62009109       7.79642270       1.93250016       0.00000000       0.00000000       0.00000000
H        0.19121069       5.46270910       8.23387627       0.00000000       0.00000000       0.00000000
H        1.77421146       4.74363033       2.30881335       0.00000000       0.00000000       0.00000000
H        6.31491203       8.44437352       8.85090293       0.00000000       0.00000000       0.00000000
H        3.01121760       0.26324835       2.21664294       0.00000000       0.00000000       0.00000000
H        7.47254019       4.33451622       8.69738781       0.00000000       0.00000000       0.00000000
H        0.01276983       3.41273759       1.61363962       0.00000000       0.00000000       0.00000000
H        4.32009119       1.14122184       7.94063934       0.00000000       0.00000000       0.00000000
H        2.88778039       1.48796606       3.95714557       0.00000000       0.00000000       0.00000000
H        7.52813268       3.11354233      10.06554382       0.00000000       0.00000000       0.00000000
H        7.32032482       3.66235002       2.54781718       0.00000000       0.00000000       0.00000000
H        3.01051549       0.87817938       9.02010898       0.00000000       0.00000000       0.00000000
Pb       4.58405218       4.47964623      12.59289048       0.00000000       0.00000000       0.00000000
Pb       8.98101902       0.01625495       6.06360946       0.00000000       0.00000000       0.00000000
Pb       8.97092672       8.72522547      12.27944928       0.00000000       0.00000000       0.00000000
Pb       4.68168903       4.56883603       6.05848153       0.00000000       0.00000000       0.00000000
I        7.16000325       6.38507250       6.59125356       0.00000000       0.00000000       0.00000000
I        8.82387608       0.08946623       2.95115947       0.00000000       0.00000000       0.00000000
I        6.44446932       1.66746903      12.38726230       0.00000000       0.00000000       0.00000000
I        1.84937579       2.40097938       0.28416907       0.00000000       0.00000000       0.00000000
I        1.83071835       2.70609548       5.97754323       0.00000000       0.00000000       0.00000000
I        2.53691848       7.30417205       5.76757767       0.00000000       0.00000000       0.00000000
I        7.17394143       6.26223957      12.40904430       0.00000000       0.00000000       0.00000000
I        6.27670359       2.02578996       6.33246337       0.00000000       0.00000000       0.00000000
I        3.98830978       4.49659751       9.21436360       0.00000000       0.00000000       0.00000000
I        0.51670270       0.07017767       9.34096089       0.00000000       0.00000000       0.00000000
I        2.57570143       7.08380991       0.15720591       0.00000000       0.00000000       0.00000000
I        4.95731471       4.33626812       3.06032331       0.00000000       0.00000000       0.00000000
48
Lattice="9.01938999317578 0.0 0.0 0.0 8.777767844565316 0.0 0.0 0.0 12.796186806294449" Properties=species:S:1:pos:R:3:momenta:R:3 config_id=O-FAPI3_parity_20__global_rattle__sev-1.0 phase=O-FAPI3 mode=parity seed=3256580899 source=O-FAPI3/CONTCAR distortion_family=global_rattle distortion_severity=1.0 original_config_id=O-FAPI3_parity_20 distortion_label=global_rattle pbc="T T T"
C        4.51295480       0.56739129       3.39526411       0.00000000       0.00000000       0.00000000
C        8.84502629       4.28240721       9.33245847       0.00000000       0.00000000       0.00000000
C        8.95146327       4.45566205       3.01343039       0.00000000       0.00000000       0.00000000
C        4.19097318       8.01674082       9.86201699       0.00000000       0.00000000       0.00000000
N        5.20422748       8.11573098       2.54079301       0.00000000       0.00000000       0.00000000
N        0.59577833       5.14917370       8.83766429       0.00000000       0.00000000       0.00000000
N        0.91383042       5.20763298       3.23077774       0.00000000       0.00000000       0.00000000
N        5.47742420       8.20345876       9.56687422       0.00000000       0.00000000       0.00000000
N        3.22284556       0.88142849       3.16203767       0.00000000       0.00000000       0.00000000
N        8.02238097       3.98253434       9.73681126       0.00000000       0.00000000       0.00000000
N        8.53529526       3.66361983       2.04586732       0.00000000       0.00000000       0.00000000
N        3.89118472       0.14304755       8.46123751       0.00000000       0.00000000       0.00000000
H        5.15697988       0.89040297       3.94806886       0.00000000       0.00000000       0.00000000
H        0.73440152       3.73836304      10.12131347       0.00000000       0.00000000       0.00000000
H        8.48533883       4.84275828       3.81286096       0.00000000       0.00000000       0.00000000
H        3.65143853       7.82455533      10.18025949       0.00000000       0.00000000       0.00000000
H        6.16869652       7.93256103       2.79448942       0.00000000       0.00000000       0.00000000
H        1.76678735       5.01966206       8.76736252       0.00000000       0.00000000       0.00000000
H        1.30943717       5.74496215       3.77284956       0.00000000       0.00000000       0.00000000
H        6.18775114       7.52180412      10.31808690       0.00000000       0.00000000       0.00000000
H        4.73244537       7.73358132       1.62561827       0.00000000       0.00000000       0.00000000
H        0.35586533       5.23496464       8.19638487       0.00000000       0.00000000       0.00000000
H        1.73601913       4.45046952       2.48388914       0.00000000       0.00000000       0.00000000
H        6.50072762       8.72513707       9.00048124       0.00000000       0.00000000       0.00000000
H        2.83969868       0.50965286       2.55902664       0.00000000       0.00000000       0.00000000
H        7.51202551       4.25835522       8.71683063       0.00000000       0.00000000       0.00000000
H        8.68083963       3.22681821       1.57762143       0.00000000       0.00000000       0.00000000
H        4.50932213       1.00945036       8.13156512       0.00000000       0.00000000       0.00000000
H        2.99716385       1.48614399       3.40003303       0.00000000       0.00000000       0.00000000
H        7.51760484       2.97950407      10.18045884       0.00000000       0.00000000       0.00000000
H        7.28341708       3.51537059       2.29726004       0.00000000       0.00000000       0.00000000
H        2.53869139       0.56917253       8.87096675       0.00000000       0.00000000       0.00000000
Pb       4.75131751       4.14833251      12.47502581       0.00000000       0.00000000       0.00000000
Pb       0.22945872       0.02477120       6.39087959       0.00000000       0.00000000       0.00000000
Pb       0.12354836       0.06966195      12.48425398       0.00000000       0.00000000       0.00000000
Pb       4.51888914       4.32851975       5.82855322       0.00000000       0.00000000       0.00000000
I        7.24258404       6.09671636       6.46872780       0.00000000       0.00000000       0.00000000
I        8.53998190       0.15994755       3.13636192       0.00000000       0.00000000       0.00000000
I        6.45779401       1.52604817      11.99971776       0.00000000       0.00000000       0.00000000
I        1.82243742       2.65106230      12.78433099       0.00000000       0.00000000       0.00000000
I        2.12498842       2.58788441       5.92677519       0.00000000       0.00000000       0.00000000
I        2.67825429       6.97003270       6.11619360       0.00000000       0.00000000       0.00000000
I        7.26277168       6.15993660      12.26247229       0.00000000       0.00000000       0.00000000
I        6.34867147       2.04673608       6.23249234       0.00000000       0.00000000       0.00000000
I        4.32709658       4.56523776       9.40895252       0.00000000       0.00000000       0.00000000
I        0.35593060       0.11044732       9.45511381       0.00000000       0.00000000       0.00000000
I        3.00893591       6.68078412       0.09709483       0.00000000       0.00000000       0.00000000
I        4.74403396       4.24425056       3.03036585       0.00000000       0.00000000       0.00000000
48
Lattice="9.01938999317578 0.0 0.0 0.0 8.777767844565316 0.0 0.0 0.0 12.796186806294449" Properties=species:S:1:pos:R:3:momenta:R:3 config_id=O-FAPI3_parity_21__cage_rattle__sev-0.1 phase=O-FAPI3 mode=parity seed=1560329700 source=O-FAPI3/CONTCAR distortion_family=cage_rattle distortion_severity=0.1 original_config_id=O-FAPI3_parity_21 distortion_label=cage_rattle pbc="T T T"
C        4.58144029       0.35721994       3.16826706       0.00000000       0.00000000       0.00000000
C        0.07174524       4.03166402       9.56636042       0.00000000       0.00000000       0.00000000
C        8.94764466       4.74610384       3.16826714       0.00000000       0.00000000       0.00000000
C        4.43794979       8.42054792       9.56636048       0.00000000       0.00000000       0.00000000
N        5.14641592       8.21104204       2.42775928       0.00000000       0.00000000       0.00000000
N        0.63672090       4.95560973       8.82585276       0.00000000       0.00000000       0.00000000
N        1.18184367       5.12533409       3.07055868       0.00000000       0.00000000       0.00000000
N        5.69153871       8.04131766       9.46865213       0.00000000       0.00000000       0.00000000
N        3.32785132       0.73645021       3.07055870       0.00000000       0.00000000       0.00000000
N        7.83754632       3.65243376       9.46865215       0.00000000       0.00000000       0.00000000
N        8.38266906       3.82215805       2.42775938       0.00000000       0.00000000       0.00000000
N        3.87297416       0.56672577       8.82585280       0.00000000       0.00000000       0.00000000
H        5.19802154       0.84618877       3.92887723       0.00000000       0.00000000       0.00000000
H        0.68832651       3.54269529      10.32697070       0.00000000       0.00000000       0.00000000
H        8.33106347       5.23507262       3.92887735       0.00000000       0.00000000       0.00000000
H        3.82136857       7.93157924      10.32697083       0.00000000       0.00000000       0.00000000
H        6.14780018       8.03459813       2.53546294       0.00000000       0.00000000       0.00000000
H        1.63810518       5.13205364       8.93355632       0.00000000       0.00000000       0.00000000
H        1.55804586       5.80949951       3.73115812       0.00000000       0.00000000       0.00000000
H        6.06774094       7.35715222      10.12925155       0.00000000       0.00000000       0.00000000
H        4.63340450       7.72431708       1.68653056       0.00000000       0.00000000       0.00000000
H        0.12370953       5.44233472       8.08462394       0.00000000       0.00000000       0.00000000
H        1.82884427       4.71238905       2.40039504       0.00000000       0.00000000       0.00000000
H        6.33853940       8.45426265       8.79848842       0.00000000       0.00000000       0.00000000
H        2.68085064       0.32350507       2.40039511       0.00000000       0.00000000       0.00000000
H        7.19054559       4.06537885       8.79848849       0.00000000       0.00000000       0.00000000
H        8.89568041       3.33543309       1.68653065       0.00000000       0.00000000       0.00000000
H        4.38598548       1.05345074       8.08462396       0.00000000       0.00000000       0.00000000
H        2.95164911       1.42061566       3.73115812       0.00000000       0.00000000       0.00000000
H        7.46134412       2.96826826      10.12925150       0.00000000       0.00000000       0.00000000
H        7.38128478       3.64571414       2.53546309       0.00000000       0.00000000       0.00000000
H        2.87158987       0.74316970       8.93355639       0.00000000       0.00000000       0.00000000
Pb       4.51741693       4.25137505      12.67993916       0.00000000       0.00000000       0.00000000
Pb       0.04581358       0.07064138       6.17804870       0.00000000       0.00000000       0.00000000
Pb       0.00015849       8.75847540      12.54683337       0.00000000       0.00000000       0.00000000
Pb       4.50372899       4.32606708       6.19907545       0.00000000       0.00000000       0.00000000
I        7.11044748       6.09068674       6.33543454       0.00000000       0.00000000       0.00000000
I        8.63412819       0.00804188       2.96914293       0.00000000       0.00000000       0.00000000
I        6.34047124       1.78538449      12.31470203       0.00000000       0.00000000       0.00000000
I        1.86763296       2.59220174      12.78685575       0.00000000       0.00000000       0.00000000
I        1.82934547       2.74872941       5.90399564       0.00000000       0.00000000       0.00000000
I        2.61982934       7.00937794       5.85144211       0.00000000       0.00000000       0.00000000
I        7.03657139       6.16104999      12.18158472       0.00000000       0.00000000       0.00000000
I        6.29238112       1.89062709       6.48173505       0.00000000       0.00000000       0.00000000
I        4.30200413       4.52363863       9.44621267       0.00000000       0.00000000       0.00000000
I        0.31058715       0.04354470       9.33804267       0.00000000       0.00000000       0.00000000
I        2.61720834       6.95858341       0.09538574       0.00000000       0.00000000       0.00000000
I        4.75589927       4.28294951       2.88780318       0.00000000       0.00000000       0.00000000
48
Lattice="9.01938999317578 0.0 0.0 0.0 8.777767844565316 0.0 0.0 0.0 12.796186806294449" Properties=species:S:1:pos:R:3:momenta:R:3 config_id=O-FAPI3_parity_22__cage_rattle__sev-0.2 phase=O-FAPI3 mode=parity seed=2069057920 source=O-FAPI3/CONTCAR distortion_family=cage_rattle distortion_severity=0.2 original_config_id=O-FAPI3_parity_22 distortion_label=cage_rattle pbc="T T T"
C        4.58144029       0.35721994       3.16826706       0.00000000       0.00000000       0.00000000
C        0.07174524       4.03166402       9.56636042       0.00000000       0.00000000       0.00000000
C        8.94764466       4.74610384       3.16826714       0.00000000       0.00000000       0.00000000
C        4.43794979       8.42054792       9.56636048       0.00000000       0.00000000       0.00000000
N        5.14641592       8.21104204       2.42775928       0.00000000       0.00000000       0.00000000
N        0.63672090       4.95560973       8.82585276       0.00000000       0.00000000       0.00000000
N        1.18184367       5.12533409       3.07055868       0.00000000       0.00000000       0.00000000
N        5.69153871       8.04131766       9.46865213       0.00000000       0.00000000       0.00000000
N        3.32785132       0.73645021       3.07055870       0.00000000       0.00000000       0.00000000
N        7.83754632       3.65243376       9.46865215       0.00000000       0.00000000       0.00000000
N        8.38266906       3.82215805       2.42775938       0.00000000       0.00000000       0.00000000
N        3.87297416       0.56672577       8.82585280       0.00000000       0.00000000       0.00000000
H        5.19802154       0.84618877       3.92887723       0.00000000       0.00000000       0.00000000
H        0.68832651       3.54269529      10.32697070       0.00000000       0.00000000       0.00000000
H        8.33106347       5.23507262       3.92887735       0.00000000       0.00000000       0.00000000
H        3.82136857       7.93157924      10.32697083       0.00000000       0.00000000       0.00000000
H        6.14780018       8.03459813       2.53546294       0.00000000       0.00000000       0.00000000
H        1.63810518       5.13205364       8.93355632       0.00000000       0.00000000       0.00000000
H        1.55804586       5.80949951       3.73115812       0.00000000       0.00000000       0.00000000
H        6.06774094       7.35715222      10.12925155       0.00000000       0.00000000       0.00000000
H        4.63340450       7.72431708       1.68653056       0.00000000       0.00000000       0.00000000
H        0.12370953       5.44233472       8.08462394       0.00000000       0.00000000       0.00000000
H        1.82884427       4.71238905       2.40039504       0.00000000       0.00000000       0.00000000
H        6.33853940       8.45426265       8.79848842       0.00000000       0.00000000       0.00000000
H        2.68085064       0.32350507       2.40039511       0.00000000       0.00000000       0.00000000
H        7.19054559       4.06537885       8.79848849       0.00000000       0.00000000       0.00000000
H        8.89568041       3.33543309       1.68653065       0.00000000       0.00000000       0.00000000
H        4.38598548       1.05345074       8.08462396       0.00000000       0.00000000       0.00000000
H        2.95164911       1.42061566       3.73115812       0.00000000       0.00000000       0.00000000
H        7.46134412       2.96826826      10.12925150       0.00000000       0.00000000       0.00000000
H        7.38128478       3.64571414       2.53546309       0.00000000       0.00000000       0.00000000
H        2.87158987       0.74316970       8.93355639       0.00000000       0.00000000       0.00000000
Pb       4.64118671       4.20400547      12.57888587       0.00000000       0.00000000       0.00000000
Pb       8.92668853       0.14823804       6.18034927       0.00000000       0.00000000       0.00000000
Pb       0.10108448       8.66884317      12.56479453       0.00000000       0.00000000       0.00000000
Pb       4.46439558       4.48821565       6.17339409       0.00000000       0.00000000       0.00000000
I        7.09918664       6.35314320       6.38887757       0.00000000       0.00000000       0.00000000
I        8.64332900       8.51432507       2.89167566       0.00000000       0.00000000       0.00000000
I        6.39322308       1.74167410      12.36129409       0.00000000       0.00000000       0.00000000
I        1.81226974       2.36846409       0.07444623       0.00000000       0.00000000       0.00000000
I        1.98831961       2.57847311       5.88178027       0.00000000       0.00000000       0.00000000
I        2.78303768       7.00575801       5.90003037       0.00000000       0.00000000       0.00000000
I        7.13222422       6.03074655      12.26043831       0.00000000       0.00000000       0.00000000
I        6.33085752       1.80271525       6.40251029       0.00000000       0.00000000       0.00000000
I        4.22917161       4.54991079       9.45661991       0.00000000       0.00000000       0.00000000
I        0.54307256       0.07755644       9.40561573       0.00000000       0.00000000       0.00000000
I        2.53103788       6.96627184       0.00361960       0.00000000       0.00000000       0.00000000
I        4.85437975       4.32947515       2.92194215       0.00000000       0.00000000       0.00000000
48
Lattice="9.01938999317578 0.0 0.0 0.0 8.777767844565316 0.0 0.0 0.0 12.796186806294449" Properties=species:S:1:pos:R:3:momenta:R:3 config_id=O-FAPI3_parity_23__cage_rattle__sev-0.3 phase=O-FAPI3 mode=parity seed=2485477814 source=O-FAPI3/CONTCAR distortion_family=cage_rattle distortion_severity=0.3 original_config_id=O-FAPI3_parity_23 distortion_label=cage_rattle pbc="T T T"
C        4.58144029       0.35721994       3.16826706       0.00000000       0.00000000       0.00000000
C        0.07174524       4.03166402       9.56636042       0.00000000       0.00000000       0.00000000
C        8.94764466       4.74610384       3.16826714       0.00000000       0.00000000       0.00000000
C        4.43794979       8.42054792       9.56636048       0.00000000       0.00000000       0.00000000
N        5.14641592       8.21104204       2.42775928       0.00000000       0.00000000       0.00000000
N        0.63672090       4.95560973       8.82585276       0.00000000       0.00000000       0.00000000
N        1.18184367       5.12533409       3.07055868       0.00000000       0.00000000       0.00000000
N        5.69153871       8.04131766       9.46865213       0.00000000       0.00000000       0.00000000
N        3.32785132       0.73645021       3.07055870       0.00000000       0.00000000       0.00000000
N        7.83754632       3.65243376       9.46865215       0.00000000       0.00000000       0.00000000
N        8.38266906       3.82215805       2.42775938       0.00000000       0.00000000       0.00000000
N        3.87297416       0.56672577       8.82585280       0.00000000       0.00000000       0.00000000
H        5.19802154       0.84618877       3.92887723       0.00000000       0.00000000       0.00000000
H        0.68832651       3.54269529      10.32697070       0.00000000       0.00000000       0.00000000
H        8.33106347       5.23507262       3.92887735       0.00000000       0.00000000       0.00000000
H        3.82136857       7.93157924      10.32697083       0.00000000       0.00000000       0.00000000
H        6.14780018       8.03459813       2.53546294       0.00000000       0.00000000       0.00000000
H        1.63810518       5.13205364       8.93355632       0.00000000       0.00000000       0.00000000
H        1.55804586       5.80949951       3.73115812       0.00000000       0.00000000       0.00000000
H        6.06774094       7.35715222      10.12925155       0.00000000       0.00000000       0.00000000
H        4.63340450       7.72431708       1.68653056       0.00000000       0.00000000       0.00000000
H        0.12370953       5.44233472       8.08462394       0.00000000       0.00000000       0.00000000
H        1.82884427       4.71238905       2.40039504       0.00000000       0.00000000       0.00000000
H        6.33853940       8.45426265       8.79848842       0.00000000       0.00000000       0.00000000
H        2.68085064       0.32350507       2.40039511       0.00000000       0.00000000       0.00000000
H        7.19054559       4.06537885       8.79848849       0.00000000       0.00000000       0.00000000
H        8.89568041       3.33543309       1.68653065       0.00000000       0.00000000       0.00000000
H        4.38598548       1.05345074       8.08462396       0.00000000       0.00000000       0.00000000
H        2.95164911       1.42061566       3.73115812       0.00000000       0.00000000       0.00000000
H        7.46134412       2.96826826      10.12925150       0.00000000       0.00000000       0.00000000
H        7.38128478       3.64571414       2.53546309       0.00000000       0.00000000       0.00000000
H        2.87158987       0.74316970       8.93355639       0.00000000       0.00000000       0.00000000
Pb       4.73275709       4.50148824      12.63385390       0.00000000       0.00000000       0.00000000
Pb       8.79799843       0.15047971       6.15348327       0.00000000       0.00000000       0.00000000
Pb       0.04256446       8.70287118      12.63738036       0.00000000       0.00000000       0.00000000
Pb       4.59048024       4.64781440       6.08833977       0.00000000       0.00000000       0.00000000
I        7.28615671       6.36598757       6.49685888       0.00000000       0.00000000       0.00000000
I        8.67788278       0.09542296       3.01711086       0.00000000       0.00000000       0.00000000
I        6.32100908       1.76214575      12.24928930       0.00000000       0.00000000       0.00000000
I        1.81768138       2.24971537       0.20640164       0.00000000       0.00000000       0.00000000
I        1.85024388       2.46092076       5.93957091       0.00000000       0.00000000       0.00000000
I        2.66816033       7.17692552       6.03005468       0.00000000       0.00000000       0.00000000
I        7.25310321       6.15940663      12.31979793       0.00000000       0.00000000       0.00000000
I        6.23158648       1.73504689       6.35527642       0.00000000       0.00000000       0.00000000
I        3.97391260       4.44012617       9.30609851       0.00000000       0.00000000       0.00000000
I        0.21227331       8.72999458       9.43228712       0.00000000       0.00000000       0.00000000
I        2.74103130       7.14348448      12.66034703       0.00000000       0.00000000       0.00000000
I        4.93194190       4.46302329       2.81891080       0.00000000       0.00000000       0.00000000
48
Lattice="9.01938999317578 0.0 0.0 0.0 8.777767844565316 0.0 0.0 0.0 12.796186806294449" Properties=species:S:1:pos:R:3:momenta:R:3 config_id=O-FAPI3_parity_24__cage_rattle__sev-0.4 phase=O-FAPI3 mode=parity seed=244203023 source=O-FAPI3/CONTCAR distortion_family=cage_rattle distortion_severity=0.4 original_config_id=O-FAPI3_parity_24 distortion_label=cage_rattle pbc="T T T"
C        4.58144029       0.35721994       3.16826706       0.00000000       0.00000000       0.00000000
C        0.07174524       4.03166402       9.56636042       0.00000000       0.00000000       0.00000000
C        8.94764466       4.74610384       3.16826714       0.00000000       0.00000000       0.00000000
C        4.43794979       8.42054792       9.56636048       0.00000000       0.00000000       0.00000000
N        5.14641592       8.21104204       2.42775928       0.00000000       0.00000000       0.00000000
N        0.63672090       4.95560973       8.82585276       0.00000000       0.00000000       0.00000000
N        1.18184367       5.12533409       3.07055868       0.00000000       0.00000000       0.00000000
N        5.69153871       8.04131766       9.46865213       0.00000000       0.00000000       0.00000000
N        3.32785132       0.73645021       3.07055870       0.00000000       0.00000000       0.00000000
N        7.83754632       3.65243376       9.46865215       0.00000000       0.00000000       0.00000000
N        8.38266906       3.82215805       2.42775938       0.00000000       0.00000000       0.00000000
N        3.87297416       0.56672577       8.82585280       0.00000000       0.00000000       0.00000000
H        5.19802154       0.84618877       3.92887723       0.00000000       0.00000000       0.00000000
H        0.68832651       3.54269529      10.32697070       0.00000000       0.00000000       0.00000000
H        8.33106347       5.23507262       3.92887735       0.00000000       0.00000000       0.00000000
H        3.82136857       7.93157924      10.32697083       0.00000000       0.00000000       0.00000000
H        6.14780018       8.03459813       2.53546294       0.00000000       0.00000000       0.00000000
H        1.63810518       5.13205364       8.93355632       0.00000000       0.00000000       0.00000000
H        1.55804586       5.80949951       3.73115812       0.00000000       0.00000000       0.00000000
H        6.06774094       7.35715222      10.12925155       0.00000000       0.00000000       0.00000000
H        4.63340450       7.72431708       1.68653056       0.00000000       0.00000000       0.00000000
H        0.12370953       5.44233472       8.08462394       0.00000000       0.00000000       0.00000000
H        1.82884427       4.71238905       2.40039504       0.00000000       0.00000000       0.00000000
H        6.33853940       8.45426265       8.79848842       0.00000000       0.00000000       0.00000000
H        2.68085064       0.32350507       2.40039511       0.00000000       0.00000000       0.00000000
H        7.19054559       4.06537885       8.79848849       0.00000000       0.00000000       0.00000000
H        8.89568041       3.33543309       1.68653065       0.00000000       0.00000000       0.00000000
H        4.38598548       1.05345074       8.08462396       0.00000000       0.00000000       0.00000000
H        2.95164911       1.42061566       3.73115812       0.00000000       0.00000000       0.00000000
H        7.46134412       2.96826826      10.12925150       0.00000000       0.00000000       0.00000000
H        7.38128478       3.64571414       2.53546309       0.00000000       0.00000000       0.00000000
H        2.87158987       0.74316970       8.93355639       0.00000000       0.00000000       0.00000000
Pb       4.54683755       4.14496874      12.54649393       0.00000000       0.00000000       0.00000000
Pb       0.10387326       0.09138128       6.13503866       0.00000000       0.00000000       0.00000000
Pb       8.96552814       8.66891514      12.56408402       0.00000000       0.00000000       0.00000000
Pb       4.29459822       4.53645028       6.20011331       0.00000000       0.00000000       0.00000000
I        7.15196100       6.20300001       6.27530191       0.00000000       0.00000000       0.00000000
I        8.58387613       8.68165015       3.11051323       0.00000000       0.00000000       0.00000000
I        6.51739660       1.80742057      12.27097438       0.00000000       0.00000000       0.00000000
I        1.77502489       2.49003505       0.10677708       0.00000000       0.00000000       0.00000000
I        1.76170496       2.80262939       6.06721843       0.00000000       0.00000000       0.00000000
I        2.65917426       7.20098841       5.91846396       0.00000000       0.00000000       0.00000000
I        7.17306902       5.90900543      12.27871659       0.00000000       0.00000000       0.00000000
I        6.22121035       1.94765849       6.53188447       0.00000000       0.00000000       0.00000000
I        3.92623349       4.39876175       9.30551639       0.00000000       0.00000000       0.00000000
I        0.38623304       8.77455569       9.45253904       0.00000000       0.00000000       0.00000000
I        2.73203562       6.92418120       0.08968593       0.00000000       0.00000000       0.00000000
I        4.85009471       4.07283701       2.90238200       0.00000000       0.00000000       0.00000000
48
Lattice="9.01938999317578 0.0 0.0 0.0 8.777767844565316 0.0 0.0 0.0 12.796186806294449" Properties=species:S:1:pos:R:3:momenta:R:3 config_id=O-FAPI3_parity_25__cage_rattle__sev-0.5 phase=O-FAPI3 mode=parity seed=574807470 source=O-FAPI3/CONTCAR distortion_family=cage_rattle distortion_severity=0.5 original_config_id=O-FAPI3_parity_25 distortion_label=cage_rattle pbc="T T T"
C        4.58144029       0.35721994       3.16826706       0.00000000       0.00000000       0.00000000
C        0.07174524       4.03166402       9.56636042       0.00000000       0.00000000       0.00000000
C        8.94764466       4.74610384       3.16826714       0.00000000       0.00000000       0.00000000
C        4.43794979       8.42054792       9.56636048       0.00000000       0.00000000       0.00000000
N        5.14641592       8.21104204       2.42775928       0.00000000       0.00000000       0.00000000
N        0.63672090       4.95560973       8.82585276       0.00000000       0.00000000       0.00000000
N        1.18184367       5.12533409       3.07055868       0.00000000       0.00000000       0.00000000
N        5.69153871       8.04131766       9.46865213       0.00000000       0.00000000       0.00000000
N        3.32785132       0.73645021       3.07055870       0.00000000       0.00000000       0.00000000
N        7.83754632       3.65243376       9.46865215       0.00000000       0.00000000       0.00000000
N        8.38266906       3.82215805       2.42775938       0.00000000       0.00000000       0.00000000
N        3.87297416       0.56672577       8.82585280       0.00000000       0.00000000       0.00000000
H        5.19802154       0.84618877       3.92887723       0.00000000       0.00000000       0.00000000
H        0.68832651       3.54269529      10.32697070       0.00000000       0.00000000       0.00000000
H        8.33106347       5.23507262       3.92887735       0.00000000       0.00000000       0.00000000
H        3.82136857       7.93157924      10.32697083       0.00000000       0.00000000       0.00000000
H        6.14780018       8.03459813       2.53546294       0.00000000       0.00000000       0.00000000
H        1.63810518       5.13205364       8.93355632       0.00000000       0.00000000       0.00000000
H        1.55804586       5.80949951       3.73115812       0.00000000       0.00000000       0.00000000
H        6.06774094       7.35715222      10.12925155       0.00000000       0.00000000       0.00000000
H        4.63340450       7.72431708       1.68653056       0.00000000       0.00000000       0.00000000
H        0.12370953       5.44233472       8.08462394       0.00000000       0.00000000       0.00000000
H        1.82884427       4.71238905       2.40039504       0.00000000       0.00000000       0.00000000
H        6.33853940       8.45426265       8.79848842       0.00000000       0.00000000       0.00000000
H        2.68085064       0.32350507       2.40039511       0.00000000       0.00000000       0.00000000
H        7.19054559       4.06537885       8.79848849       0.00000000       0.00000000       0.00000000
H        8.89568041       3.33543309       1.68653065       0.00000000       0.00000000       0.00000000
H        4.38598548       1.05345074       8.08462396       0.00000000       0.00000000       0.00000000
H        2.95164911       1.42061566       3.73115812       0.00000000       0.00000000       0.00000000
H        7.46134412       2.96826826      10.12925150       0.00000000       0.00000000       0.00000000
H        7.38128478       3.64571414       2.53546309       0.00000000       0.00000000       0.00000000
H        2.87158987       0.74316970       8.93355639       0.00000000       0.00000000       0.00000000
Pb       4.35630273       4.41556601      12.62370628       0.00000000       0.00000000       0.00000000
Pb       0.08394751       0.31946644       6.10642960       0.00000000       0.00000000       0.00000000
Pb       9.01347130       8.42810920      12.57734757       0.00000000       0.00000000       0.00000000
Pb       4.40591720       4.30084116       6.40773157       0.00000000       0.00000000       0.00000000
I        6.90559731       6.26264872       6.40556256       0.00000000       0.00000000       0.00000000
I        8.59916355       0.08935088       3.32645944       0.00000000       0.00000000       0.00000000
I        6.42808009       1.92686043      12.24379630       0.00000000       0.00000000       0.00000000
I        2.11939819       2.56754385      12.79252119       0.00000000       0.00000000       0.00000000
I        1.81656542       2.61836294       5.86119182       0.00000000       0.00000000       0.00000000
I        2.60529112       6.85603513       5.84950793       0.00000000       0.00000000       0.00000000
I        7.25637763       6.07370028      12.18929240       0.00000000       0.00000000       0.00000000
I        6.35842410       1.78641789       6.54923961       0.00000000       0.00000000       0.00000000
I        4.03764682       4.51396501       9.11840833       0.00000000       0.00000000       0.00000000
I        0.47018134       0.00725620       9.34183826       0.00000000       0.00000000       0.00000000
I        2.53855860       7.22585541       0.09640286       0.00000000       0.00000000       0.00000000
I        4.87562168       4.54734341       2.96559363       0.00000000       0.00000000       0.00000000
48
Lattice="9.01938999317578 0.0 0.0 0.0 8.777767844565316 0.0 0.0 0.0 12.796186806294449" Properties=species:S:1:pos:R:3:momenta:R:3 config_id=O-FAPI3_parity_26__cage_rattle__sev-0.6 phase=O-FAPI3 mode=parity seed=210030372 source=O-FAPI3/CONTCAR distortion_family=cage_rattle distortion_severity=0.6 original_config_id=O-FAPI3_parity_26 distortion_label=cage_rattle pbc="T T T"
C        4.58144029       0.35721994       3.16826706       0.00000000       0.00000000       0.00000000
C        0.07174524       4.03166402       9.56636042       0.00000000       0.00000000       0.00000000
C        8.94764466       4.74610384       3.16826714       0.00000000       0.00000000       0.00000000
C        4.43794979       8.42054792       9.56636048       0.00000000       0.00000000       0.00000000
N        5.14641592       8.21104204       2.42775928       0.00000000       0.00000000       0.00000000
N        0.63672090       4.95560973       8.82585276       0.00000000       0.00000000       0.00000000
N        1.18184367       5.12533409       3.07055868       0.00000000       0.00000000       0.00000000
N        5.69153871       8.04131766       9.46865213       0.00000000       0.00000000       0.00000000
N        3.32785132       0.73645021       3.07055870       0.00000000       0.00000000       0.00000000
N        7.83754632       3.65243376       9.46865215       0.00000000       0.00000000       0.00000000
N        8.38266906       3.82215805       2.42775938       0.00000000       0.00000000       0.00000000
N        3.87297416       0.56672577       8.82585280       0.00000000       0.00000000       0.00000000
H        5.19802154       0.84618877       3.92887723       0.00000000       0.00000000       0.00000000
H        0.68832651       3.54269529      10.32697070       0.00000000       0.00000000       0.00000000
H        8.33106347       5.23507262       3.92887735       0.00000000       0.00000000       0.00000000
H        3.82136857       7.93157924      10.32697083       0.00000000       0.00000000       0.00000000
H        6.14780018       8.03459813       2.53546294       0.00000000       0.00000000       0.00000000
H        1.63810518       5.13205364       8.93355632       0.00000000       0.00000000       0.00000000
H        1.55804586       5.80949951       3.73115812       0.00000000       0.00000000       0.00000000
H        6.06774094       7.35715222      10.12925155       0.00000000       0.00000000       0.00000000
H        4.63340450       7.72431708       1.68653056       0.00000000       0.00000000       0.00000000
H        0.12370953       5.44233472       8.08462394       0.00000000       0.00000000       0.00000000
H        1.82884427       4.71238905       2.40039504       0.00000000       0.00000000       0.00000000
H        6.33853940       8.45426265       8.79848842       0.00000000       0.00000000       0.00000000
H        2.68085064       0.32350507       2.40039511       0.00000000       0.00000000       0.00000000
H        7.19054559       4.06537885       8.79848849       0.00000000       0.00000000       0.00000000
H        8.89568041       3.33543309       1.68653065       0.00000000       0.00000000       0.00000000
H        4.38598548       1.05345074       8.08462396       0.00000000       0.00000000       0.00000000
H        2.95164911       1.42061566       3.73115812       0.00000000       0.00000000       0.00000000
H        7.46134412       2.96826826      10.12925150       0.00000000       0.00000000       0.00000000
H        7.38128478       3.64571414       2.53546309       0.00000000       0.00000000       0.00000000
H        2.87158987       0.74316970       8.93355639       0.00000000       0.00000000       0.00000000
Pb       4.75863716       4.40135306      12.78074849       0.00000000       0.00000000       0.00000000
Pb       0.14727273       0.13274829       6.09027164       0.00000000       0.00000000       0.00000000
Pb       0.13005491       8.72445694      12.61724904       0.00000000       0.00000000       0.00000000
Pb       4.42038261       4.54866042       6.24783988       0.00000000       0.00000000       0.00000000
I        7.31241661       6.28859593       6.15150603       0.00000000       0.00000000       0.00000000
I        8.50820479       8.57551735       2.77298369       0.00000000       0.00000000       0.00000000
I        6.40615340       1.72985684      12.19731606       0.00000000       0.00000000       0.00000000
I        2.00399941       2.62836440      12.65726559       0.00000000       0.00000000       0.00000000
I        2.04320619       2.77503285       5.85090556       0.00000000       0.00000000       0.00000000
I        2.61899424       7.09819506       6.13400241       0.00000000       0.00000000       0.00000000
I        6.98830277       6.14295173      12.41756449       0.00000000       0.00000000       0.00000000
I        6.25251954       1.86879556       6.48021590       0.00000000       0.00000000       0.00000000
I        3.98197773       4.41507510       9.46681597       0.00000000       0.00000000       0.00000000
I        0.27450814       8.72782804       8.95606960       0.00000000       0.00000000       0.00000000
I        2.75483616       6.78753248       0.14187711       0.00000000       0.00000000       0.00000000
I        4.89380180       4.36509992       2.86272205       0.00000000       0.00000000       0.00000000
48
Lattice="9.01938999317578 0.0 0.0 0.0 8.777767844565316 0.0 0.0 0.0 12.796186806294449" Properties=species:S:1:pos:R:3:momenta:R:3 config_id=O-FAPI3_parity_27__cage_rattle__sev-0.7 phase=O-FAPI3 mode=parity seed=3737742803 source=O-FAPI3/CONTCAR distortion_family=cage_rattle distortion_severity=0.7 original_config_id=O-FAPI3_parity_27 distortion_label=cage_rattle pbc="T T T"
C        4.58144029       0.35721994       3.16826706       0.00000000       0.00000000       0.00000000
C        0.07174524       4.03166402       9.56636042       0.00000000       0.00000000       0.00000000
C        8.94764466       4.74610384       3.16826714       0.00000000       0.00000000       0.00000000
C        4.43794979       8.42054792       9.56636048       0.00000000       0.00000000       0.00000000
N        5.14641592       8.21104204       2.42775928       0.00000000       0.00000000       0.00000000
N        0.63672090       4.95560973       8.82585276       0.00000000       0.00000000       0.00000000
N        1.18184367       5.12533409       3.07055868       0.00000000       0.00000000       0.00000000
N        5.69153871       8.04131766       9.46865213       0.00000000       0.00000000       0.00000000
N        3.32785132       0.73645021       3.07055870       0.00000000       0.00000000       0.00000000
N        7.83754632       3.65243376       9.46865215       0.00000000       0.00000000       0.00000000
N        8.38266906       3.82215805       2.42775938       0.00000000       0.00000000       0.00000000
N        3.87297416       0.56672577       8.82585280       0.00000000       0.00000000       0.00000000
H        5.19802154       0.84618877       3.92887723       0.00000000       0.00000000       0.00000000
H        0.68832651       3.54269529      10.32697070       0.00000000       0.00000000       0.00000000
H        8.33106347       5.23507262       3.92887735       0.00000000       0.00000000       0.00000000
H        3.82136857       7.93157924      10.32697083       0.00000000       0.00000000       0.00000000
H        6.14780018       8.03459813       2.53546294       0.00000000       0.00000000       0.00000000
H        1.63810518       5.13205364       8.93355632       0.00000000       0.00000000       0.00000000
H        1.55804586       5.80949951       3.73115812       0.00000000       0.00000000       0.00000000
H        6.06774094       7.35715222      10.12925155       0.00000000       0.00000000       0.00000000
H        4.63340450       7.72431708       1.68653056       0.00000000       0.00000000       0.00000000
H        0.12370953       5.44233472       8.08462394       0.00000000       0.00000000       0.00000000
H        1.82884427       4.71238905       2.40039504       0.00000000       0.00000000       0.00000000
H        6.33853940       8.45426265       8.79848842       0.00000000       0.00000000       0.00000000
H        2.68085064       0.32350507       2.40039511       0.00000000       0.00000000       0.00000000
H        7.19054559       4.06537885       8.79848849       0.00000000       0.00000000       0.00000000
H        8.89568041       3.33543309       1.68653065       0.00000000       0.00000000       0.00000000
H        4.38598548       1.05345074       8.08462396       0.00000000       0.00000000       0.00000000
H        2.95164911       1.42061566       3.73115812       0.00000000       0.00000000       0.00000000
H        7.46134412       2.96826826      10.12925150       0.00000000       0.00000000       0.00000000
H        7.38128478       3.64571414       2.53546309       0.00000000       0.00000000       0.00000000
H        2.87158987       0.74316970       8.93355639       0.00000000       0.00000000       0.00000000
Pb       4.65282716       4.34028664      12.53004779       0.00000000       0.00000000       0.00000000
Pb       8.83106002       0.19538399       6.07973901       0.00000000       0.00000000       0.00000000
Pb       8.98467674       8.53208144      12.78502060       0.00000000       0.00000000       0.00000000
Pb       4.62194337       4.26266109       6.42710764       0.00000000       0.00000000       0.00000000
I        7.28499414       6.17205594       6.19275078       0.00000000       0.00000000       0.00000000
I        8.91860761       0.12678757       3.04053427       0.00000000       0.00000000       0.00000000
I        6.24617560       1.62145602      12.26161281       0.00000000       0.00000000       0.00000000
I        1.63921005       2.72341181       0.08164461       0.00000000       0.00000000       0.00000000
I        1.83726411       2.85942763       5.98970676       0.00000000       0.00000000       0.00000000
I        2.68655890       7.06886480       6.10269521       0.00000000       0.00000000       0.00000000
I        7.13728857       6.05398545      12.38515337       0.00000000       0.00000000       0.00000000
I        6.13769081       1.62985468       6.37205055       0.00000000       0.00000000       0.00000000
I        4.08698399       4.45271425       9.30348851       0.00000000       0.00000000       0.00000000
I        0.64787465       0.02439131       9.15864244       0.00000000       0.00000000       0.00000000
I        2.41600602       7.02838777       0.24115298       0.00000000       0.00000000       0.00000000
I        4.99297367       4.59296950       2.48060312       0.00000000       0.00000000       0.00000000
48
Lattice="9.01938999317578 0.0 0.0 0.0 8.777767844565316 0.0 0.0 0.0 12.796186806294449" Properties=species:S:1:pos:R:3:momenta:R:3 config_id=O-FAPI3_parity_28__cage_rattle__sev-0.8 phase=O-FAPI3 mode=parity seed=3936924065 source=O-FAPI3/CONTCAR distortion_family=cage_rattle distortion_severity=0.8 original_config_id=O-FAPI3_parity_28 distortion_label=cage_rattle pbc="T T T"
C        4.58144029       0.35721994       3.16826706       0.00000000       0.00000000       0.00000000
C        0.07174524       4.03166402       9.56636042       0.00000000       0.00000000       0.00000000
C        8.94764466       4.74610384       3.16826714       0.00000000       0.00000000       0.00000000
C        4.43794979       8.42054792       9.56636048       0.00000000       0.00000000       0.00000000
N        5.14641592       8.21104204       2.42775928       0.00000000       0.00000000       0.00000000
N        0.63672090       4.95560973       8.82585276       0.00000000       0.00000000       0.00000000
N        1.18184367       5.12533409       3.07055868       0.00000000       0.00000000       0.00000000
N        5.69153871       8.04131766       9.46865213       0.00000000       0.00000000       0.00000000
N        3.32785132       0.73645021       3.07055870       0.00000000       0.00000000       0.00000000
N        7.83754632       3.65243376       9.46865215       0.00000000       0.00000000       0.00000000
N        8.38266906       3.82215805       2.42775938       0.00000000       0.00000000       0.00000000
N        3.87297416       0.56672577       8.82585280       0.00000000       0.00000000       0.00000000
H        5.19802154       0.84618877       3.92887723       0.00000000       0.00000000       0.00000000
H        0.68832651       3.54269529      10.32697070       0.00000000       0.00000000       0.00000000
H        8.33106347       5.23507262       3.92887735       0.00000000       0.00000000       0.00000000
H        3.82136857       7.93157924      10.32697083       0.00000000       0.00000000       0.00000000
H        6.14780018       8.03459813       2.53546294       0.00000000       0.00000000       0.00000000
H        1.63810518       5.13205364       8.93355632       0.00000000       0.00000000       0.00000000
H        1.55804586       5.80949951       3.73115812       0.00000000       0.00000000       0.00000000
H        6.06774094       7.35715222      10.12925155       0.00000000       0.00000000       0.00000000
H        4.63340450       7.72431708       1.68653056       0.00000000       0.00000000       0.00000000
H        0.12370953       5.44233472       8.08462394       0.00000000       0.00000000       0.00000000
H        1.82884427       4.71238905       2.40039504       0.00000000       0.00000000       0.00000000
H        6.33853940       8.45426265       8.79848842       0.00000000       0.00000000       0.00000000
H        2.68085064       0.32350507       2.40039511       0.00000000       0.00000000       0.00000000
H        7.19054559       4.06537885       8.79848849       0.00000000       0.00000000       0.00000000
H        8.89568041       3.33543309       1.68653065       0.00000000       0.00000000       0.00000000
H        4.38598548       1.05345074       8.08462396       0.00000000       0.00000000       0.00000000
H        2.95164911       1.42061566       3.73115812       0.00000000       0.00000000       0.00000000
H        7.46134412       2.96826826      10.12925150       0.00000000       0.00000000       0.00000000
H        7.38128478       3.64571414       2.53546309       0.00000000       0.00000000       0.00000000
H        2.87158987       0.74316970       8.93355639       0.00000000       0.00000000       0.00000000
Pb       4.57326240       4.29026362      12.79292670       0.00000000       0.00000000       0.00000000
Pb       0.05923133       0.41586604       5.95301541       0.00000000       0.00000000       0.00000000
Pb       8.91556100       8.45474536      12.55659012       0.00000000       0.00000000       0.00000000
Pb       4.71651353       4.62394837       6.32930404       0.00000000       0.00000000       0.00000000
I        7.32951822       6.46305379       6.39652576       0.00000000       0.00000000       0.00000000
I        8.75304821       0.10733767       3.00122992       0.00000000       0.00000000       0.00000000
I        6.55701569       1.35148419      12.45293827       0.00000000       0.00000000       0.00000000
I        1.82972322       2.98029768       0.01589189       0.00000000       0.00000000       0.00000000
I        1.79021011       2.72044218       6.00381564       0.00000000       0.00000000       0.00000000
I        3.02009989       6.93318863       5.96935489       0.00000000       0.00000000       0.00000000
I        7.39761867       5.87701679      12.43030883       0.00000000       0.00000000       0.00000000
I        6.35122932       2.00618609       6.61320932       0.00000000       0.00000000       0.00000000
I        4.19891614       4.49172354       9.33679657       0.00000000       0.00000000       0.00000000
I        0.48408370       0.12494879       9.69296771       0.00000000       0.00000000       0.00000000
I        2.91657272       6.89052290      12.63092061       0.00000000       0.00000000       0.00000000
I        4.89935475       4.23945064       3.54740637       0.00000000       0.00000000       0.00000000
48
Lattice="9.01938999317578 0.0 0.0 0.0 8.777767844565316 0.0 0.0 0.0 12.796186806294449" Properties=species:S:1:pos:R:3:momenta:R:3 config_id=O-FAPI3_parity_29__cage_rattle__sev-0.9 phase=O-FAPI3 mode=parity seed=1456796555 source=O-FAPI3/CONTCAR distortion_family=cage_rattle distortion_severity=0.9 original_config_id=O-FAPI3_parity_29 distortion_label=cage_rattle pbc="T T T"
C        4.58144029       0.35721994       3.16826706       0.00000000       0.00000000       0.00000000
C        0.07174524       4.03166402       9.56636042       0.00000000       0.00000000       0.00000000
C        8.94764466       4.74610384       3.16826714       0.00000000       0.00000000       0.00000000
C        4.43794979       8.42054792       9.56636048       0.00000000       0.00000000       0.00000000
N        5.14641592       8.21104204       2.42775928       0.00000000       0.00000000       0.00000000
N        0.63672090       4.95560973       8.82585276       0.00000000       0.00000000       0.00000000
N        1.18184367       5.12533409       3.07055868       0.00000000       0.00000000       0.00000000
N        5.69153871       8.04131766       9.46865213       0.00000000       0.00000000       0.00000000
N        3.32785132       0.73645021       3.07055870       0.00000000       0.00000000       0.00000000
N        7.83754632       3.65243376       9.46865215       0.00000000       0.00000000       0.00000000
N        8.38266906       3.82215805       2.42775938       0.00000000       0.00000000       0.00000000
N        3.87297416       0.56672577       8.82585280       0.00000000       0.00000000       0.00000000
H        5.19802154       0.84618877       3.92887723       0.00000000       0.00000000       0.00000000
H        0.68832651       3.54269529      10.32697070       0.00000000       0.00000000       0.00000000
H        8.33106347       5.23507262       3.92887735       0.00000000       0.00000000       0.00000000
H        3.82136857       7.93157924      10.32697083       0.00000000       0.00000000       0.00000000
H        6.14780018       8.03459813       2.53546294       0.00000000       0.00000000       0.00000000
H        1.63810518       5.13205364       8.93355632       0.00000000       0.00000000       0.00000000
H        1.55804586       5.80949951       3.73115812       0.00000000       0.00000000       0.00000000
H        6.06774094       7.35715222      10.12925155       0.00000000       0.00000000       0.00000000
H        4.63340450       7.72431708       1.68653056       0.00000000       0.00000000       0.00000000
H        0.12370953       5.44233472       8.08462394       0.00000000       0.00000000       0.00000000
H        1.82884427       4.71238905       2.40039504       0.00000000       0.00000000       0.00000000
H        6.33853940       8.45426265       8.79848842       0.00000000       0.00000000       0.00000000
H        2.68085064       0.32350507       2.40039511       0.00000000       0.00000000       0.00000000
H        7.19054559       4.06537885       8.79848849       0.00000000       0.00000000       0.00000000
H        8.89568041       3.33543309       1.68653065       0.00000000       0.00000000       0.00000000
H        4.38598548       1.05345074       8.08462396       0.00000000       0.00000000       0.00000000
H        2.95164911       1.42061566       3.73115812       0.00000000       0.00000000       0.00000000
H        7.46134412       2.96826826      10.12925150       0.00000000       0.00000000       0.00000000
H        7.38128478       3.64571414       2.53546309       0.00000000       0.00000000       0.00000000
H        2.87158987       0.74316970       8.93355639       0.00000000       0.00000000       0.00000000
Pb       4.47686001       3.95439623      12.66078365       0.00000000       0.00000000       0.00000000
Pb       8.65527133       0.04030252       6.03512207       0.00000000       0.00000000       0.00000000
Pb       8.84198354       8.66224206      12.28795199       0.00000000       0.00000000       0.00000000
Pb       4.14248727       4.68656924       6.02320321       0.00000000       0.00000000       0.00000000
I        7.05030242       6.15533583       6.25007010       0.00000000       0.00000000       0.00000000
I        8.60490828       0.10047675       2.89087369       0.00000000       0.00000000       0.00000000
I        6.31886802       1.69081093      12.18691057       0.00000000       0.00000000       0.00000000
I        1.78967287       2.32470420      12.78655351       0.00000000       0.00000000       0.00000000
I        1.99141397       2.82181178       5.62772550       0.00000000       0.00000000       0.00000000
I        2.32972147       6.90887935       6.08280457       0.00000000       0.00000000       0.00000000
I        6.97998170       6.18905908      12.36454401       0.00000000       0.00000000       0.00000000
I        6.29976896       1.91613963       6.31301009       0.00000000       0.00000000       0.00000000
I        3.76819030       4.47333521       9.51882166       0.00000000       0.00000000       0.00000000
I        0.35878324       8.57830110       9.03310111       0.00000000       0.00000000       0.00000000
I        2.59761211       6.86469674      12.72861525       0.00000000       0.00000000       0.00000000
I        4.68227147       4.47990858       3.05691487       0.00000000       0.00000000       0.00000000
48
Lattice="9.01938999317578 0.0 0.0 0.0 8.777767844565316 0.0 0.0 0.0 12.796186806294449" Properties=species:S:1:pos:R:3:momenta:R:3 config_id=O-FAPI3_parity_30__cage_rattle__sev-1.0 phase=O-FAPI3 mode=parity seed=2356252177 source=O-FAPI3/CONTCAR distortion_family=cage_rattle distortion_severity=1.0 original_config_id=O-FAPI3_parity_30 distortion_label=cage_rattle pbc="T T T"
C        4.58144029       0.35721994       3.16826706       0.00000000       0.00000000       0.00000000
C        0.07174524       4.03166402       9.56636042       0.00000000       0.00000000       0.00000000
C        8.94764466       4.74610384       3.16826714       0.00000000       0.00000000       0.00000000
C        4.43794979       8.42054792       9.56636048       0.00000000       0.00000000       0.00000000
N        5.14641592       8.21104204       2.42775928       0.00000000       0.00000000       0.00000000
N        0.63672090       4.95560973       8.82585276       0.00000000       0.00000000       0.00000000
N        1.18184367       5.12533409       3.07055868       0.00000000       0.00000000       0.00000000
N        5.69153871       8.04131766       9.46865213       0.00000000       0.00000000       0.00000000
N        3.32785132       0.73645021       3.07055870       0.00000000       0.00000000       0.00000000
N        7.83754632       3.65243376       9.46865215       0.00000000       0.00000000       0.00000000
N        8.38266906       3.82215805       2.42775938       0.00000000       0.00000000       0.00000000
N        3.87297416       0.56672577       8.82585280       0.00000000       0.00000000       0.00000000
H        5.19802154       0.84618877       3.92887723       0.00000000       0.00000000       0.00000000
H        0.68832651       3.54269529      10.32697070       0.00000000       0.00000000       0.00000000
H        8.33106347       5.23507262       3.92887735       0.00000000       0.00000000       0.00000000
H        3.82136857       7.93157924      10.32697083       0.00000000       0.00000000       0.00000000
H        6.14780018       8.03459813       2.53546294       0.00000000       0.00000000       0.00000000
H        1.63810518       5.13205364       8.93355632       0.00000000       0.00000000       0.00000000
H        1.55804586       5.80949951       3.73115812       0.00000000       0.00000000       0.00000000
H        6.06774094       7.35715222      10.12925155       0.00000000       0.00000000       0.00000000
H        4.63340450       7.72431708       1.68653056       0.00000000       0.00000000       0.00000000
H        0.12370953       5.44233472       8.08462394       0.00000000       0.00000000       0.00000000
H        1.82884427       4.71238905       2.40039504       0.00000000       0.00000000       0.00000000
H        6.33853940       8.45426265       8.79848842       0.00000000       0.00000000       0.00000000
H        2.68085064       0.32350507       2.40039511       0.00000000       0.00000000       0.00000000
H        7.19054559       4.06537885       8.79848849       0.00000000       0.00000000       0.00000000
H        8.89568041       3.33543309       1.68653065       0.00000000       0.00000000       0.00000000
H        4.38598548       1.05345074       8.08462396       0.00000000       0.00000000       0.00000000
H        2.95164911       1.42061566       3.73115812       0.00000000       0.00000000       0.00000000
H        7.46134412       2.96826826      10.12925150       0.00000000       0.00000000       0.00000000
H        7.38128478       3.64571414       2.53546309       0.00000000       0.00000000       0.00000000
H        2.87158987       0.74316970       8.93355639       0.00000000       0.00000000       0.00000000
Pb       4.27089564       3.97129680      12.28789118       0.00000000       0.00000000       0.00000000
Pb       8.92727789       0.24172050       6.34233697       0.00000000       0.00000000       0.00000000
Pb       8.85513854       8.77368597       0.00972212       0.00000000       0.00000000       0.00000000
Pb       4.39129909       4.51817191       5.95724978       0.00000000       0.00000000       0.00000000
I        7.17363061       6.21563111       6.44834165       0.00000000       0.00000000       0.00000000
I        8.45067636       8.73345746       3.08403028       0.00000000       0.00000000       0.00000000
I        6.46772091       1.67923104      12.25811323       0.00000000       0.00000000       0.00000000
I        1.91151290       2.22726292       0.28701368       0.00000000       0.00000000       0.00000000
I        1.68928354       2.74383687       6.16876396       0.00000000       0.00000000       0.00000000
I        2.28876358       6.89685892       5.91061771       0.00000000       0.00000000       0.00000000
I        7.22140443       5.80444501      12.60443438       0.00000000       0.00000000       0.00000000
I        6.18172697       1.65427022       6.35381764       0.00000000       0.00000000       0.00000000
I        4.09192473       4.41800845       9.53677305       0.00000000       0.00000000       0.00000000
I        0.31374552       0.17702756       9.65490740       0.00000000       0.00000000       0.00000000
I        2.83349925       7.00300401       0.23877770       0.00000000       0.00000000       0.00000000
I        4.69593093       4.44693628       3.17038381       0.00000000       0.00000000       0.00000000
48
Lattice="9.01938999317578 0.0 0.0 0.0 8.777767844565316 0.0 0.0 0.0 12.796186806294449" Properties=species:S:1:pos:R:3:momenta:R:3 config_id=O-FAPI3_parity_31__fa_rotation_cage_rattle__sev-0.1 phase=O-FAPI3 mode=parity seed=1224571273 source=O-FAPI3/CONTCAR distortion_family=fa_rotation_cage_rattle distortion_severity=0.1 original_config_id=O-FAPI3_parity_31 distortion_label=fa_rotation_cage_rattle pbc="T T T"
C        4.58144029       0.35721994       3.16826706       0.00000000       0.00000000       0.00000000
C        0.07174524       4.03166402       9.56636042       0.00000000       0.00000000       0.00000000
C        8.94764466       4.74610384       3.16826714       0.00000000       0.00000000       0.00000000
C        4.73333895       8.44409456       8.88104018       0.00000000       0.00000000       0.00000000
N        5.14641592       8.21104204       2.42775928       0.00000000       0.00000000       0.00000000
N        0.63672090       4.95560973       8.82585276       0.00000000       0.00000000       0.00000000
N        1.18184367       5.12533409       3.07055868       0.00000000       0.00000000       0.00000000
N        4.88815636       0.96391835       9.01194177       0.00000000       0.00000000       0.00000000
N        3.32785132       0.73645021       3.07055870       0.00000000       0.00000000       0.00000000
N        7.83754632       3.65243376       9.46865215       0.00000000       0.00000000       0.00000000
N        8.38266906       3.82215805       2.42775938       0.00000000       0.00000000       0.00000000
N        4.43024511       7.62168921       9.85726162       0.00000000       0.00000000       0.00000000
H        5.19802154       0.84618877       3.92887723       0.00000000       0.00000000       0.00000000
H        0.68832651       3.54269529      10.32697070       0.00000000       0.00000000       0.00000000
H        8.33106347       5.23507262       3.92887735       0.00000000       0.00000000       0.00000000
H        4.87342186       8.01805106       7.88271428       0.00000000       0.00000000       0.00000000
H        6.14780018       8.03459813       2.53546294       0.00000000       0.00000000       0.00000000
H        1.63810518       5.13205364       8.93355632       0.00000000       0.00000000       0.00000000
H        1.55804586       5.80949951       3.73115812       0.00000000       0.00000000       0.00000000
H        5.18682793       1.52291376       8.20924539       0.00000000       0.00000000       0.00000000
H        4.63340450       7.72431708       1.68653056       0.00000000       0.00000000       0.00000000
H        0.12370953       5.44233472       8.08462394       0.00000000       0.00000000       0.00000000
H        1.82884427       4.71238905       2.40039504       0.00000000       0.00000000       0.00000000
H        4.79083581       1.44001796       9.90754812       0.00000000       0.00000000       0.00000000
H        2.68085064       0.32350507       2.40039511       0.00000000       0.00000000       0.00000000
H        7.19054559       4.06537885       8.79848849       0.00000000       0.00000000       0.00000000
H        8.89568041       3.33543309       1.68653065       0.00000000       0.00000000       0.00000000
H        4.26910100       7.95368691      10.81293527       0.00000000       0.00000000       0.00000000
H        2.95164911       1.42061566       3.73115812       0.00000000       0.00000000       0.00000000
H        7.46134412       2.96826826      10.12925150       0.00000000       0.00000000       0.00000000
H        7.38128478       3.64571414       2.53546309       0.00000000       0.00000000       0.00000000
H        4.26519957       6.63613584       9.64058777       0.00000000       0.00000000       0.00000000
Pb       4.50290815       4.33769309      12.56775586       0.00000000       0.00000000       0.00000000
Pb       0.04561131       0.18539397       6.12003881       0.00000000       0.00000000       0.00000000
Pb       8.93558638       8.62651917      12.54079026       0.00000000       0.00000000       0.00000000
Pb       4.44136218       4.46541738       6.15210395       0.00000000       0.00000000       0.00000000
I        7.15033917       6.20227590       6.47572187       0.00000000       0.00000000       0.00000000
I        8.75901957       8.75470589       2.91555568       0.00000000       0.00000000       0.00000000
I        6.36760740       1.64084212      12.31270666       0.00000000       0.00000000       0.00000000
I        1.78146141       2.49884230       0.01059090       0.00000000       0.00000000       0.00000000
I        1.80493419       2.66121955       5.83920317       0.00000000       0.00000000       0.00000000
I        2.65004477       7.08099815       5.91770245       0.00000000       0.00000000       0.00000000
I        7.17162973       6.14518313      12.20914822       0.00000000       0.00000000       0.00000000
I        6.36804085       1.84619421       6.43350151       0.00000000       0.00000000       0.00000000
I        4.15099889       4.44131733       9.38376735       0.00000000       0.00000000       0.00000000
I        0.31608456       0.13423996       9.46126885       0.00000000       0.00000000       0.00000000
I        2.78888909       6.93222595       0.05879131       0.00000000       0.00000000       0.00000000
I        4.84733553       4.32071408       2.95901263       0.00000000       0.00000000       0.00000000
48
Lattice="9.01938999317578 0.0 0.0 0.0 8.777767844565316 0.0 0.0 0.0 12.796186806294449" Properties=species:S:1:pos:R:3:momenta:R:3 config_id=O-FAPI3_parity_32__fa_rotation_cage_rattle__sev-0.2 phase=O-FAPI3 mode=parity seed=2071077401 source=O-FAPI3/CONTCAR distortion_family=fa_rotation_cage_rattle distortion_severity=0.2 original_config_id=O-FAPI3_parity_32 distortion_label=fa_rotation_cage_rattle pbc="T T T"
C        4.58144029       0.35721994       3.16826706       0.00000000       0.00000000       0.00000000
C        0.07174524       4.03166402       9.56636042       0.00000000       0.00000000       0.00000000
C        8.90268868       4.37943378       2.60945871       0.00000000       0.00000000       0.00000000
C        4.64638552       0.13767478       8.97137649       0.00000000       0.00000000       0.00000000
N        5.14641592       8.21104204       2.42775928       0.00000000       0.00000000       0.00000000
N        0.63672090       4.95560973       8.82585276       0.00000000       0.00000000       0.00000000
N        0.76715574       3.58183927       3.16397437       0.00000000       0.00000000       0.00000000
N        4.58041276       7.66305538       8.58147716       0.00000000       0.00000000       0.00000000
N        3.32785132       0.73645021       3.07055870       0.00000000       0.00000000       0.00000000
N        7.83754632       3.65243376       9.46865215       0.00000000       0.00000000       0.00000000
N        8.83579884       5.67550775       2.80166433       0.00000000       0.00000000       0.00000000
N        4.80995343       0.53018468      10.21250753       0.00000000       0.00000000       0.00000000
H        5.19802154       0.84618877       3.92887723       0.00000000       0.00000000       0.00000000
H        0.68832651       3.54269529      10.32697070       0.00000000       0.00000000       0.00000000
H        8.17116966       3.92774009       1.93222650       0.00000000       0.00000000       0.00000000
H        4.55222573       0.91054323       8.20222164       0.00000000       0.00000000       0.00000000
H        6.14780018       8.03459813       2.53546294       0.00000000       0.00000000       0.00000000
H        1.63810518       5.13205364       8.93355632       0.00000000       0.00000000       0.00000000
H        0.78714850       2.59145164       2.90954428       0.00000000       0.00000000       0.00000000
H        4.38789659       7.44635169       7.60067184       0.00000000       0.00000000       0.00000000
H        4.63340450       7.72431708       1.68653056       0.00000000       0.00000000       0.00000000
H        0.12370953       5.44233472       8.08462394       0.00000000       0.00000000       0.00000000
H        1.49211520       3.92097551       3.79458763       0.00000000       0.00000000       0.00000000
H        4.64379809       6.88206374       9.23285049       0.00000000       0.00000000       0.00000000
H        2.68085064       0.32350507       2.40039511       0.00000000       0.00000000       0.00000000
H        7.19054559       4.06537885       8.79848849       0.00000000       0.00000000       0.00000000
H        0.45869300       6.16163403       3.43463683       0.00000000       0.00000000       0.00000000
H        4.92124540       8.63906665      10.98043187       0.00000000       0.00000000       0.00000000
H        2.95164911       1.42061566       3.73115812       0.00000000       0.00000000       0.00000000
H        7.46134412       2.96826826      10.12925150       0.00000000       0.00000000       0.00000000
H        8.06790156       6.19973648       2.37619870       0.00000000       0.00000000       0.00000000
H        4.91631940       1.52862351      10.40566345       0.00000000       0.00000000       0.00000000
Pb       4.50532690       4.41157151      12.56941116       0.00000000       0.00000000       0.00000000
Pb       0.07154849       0.20805794       6.12432382       0.00000000       0.00000000       0.00000000
Pb       0.00036513       8.61382237      12.53813646       0.00000000       0.00000000       0.00000000
Pb       4.44933044       4.47870982       6.12167085       0.00000000       0.00000000       0.00000000
I        7.20237022       6.28401844       6.43725652       0.00000000       0.00000000       0.00000000
I        8.73931510       8.72111706       2.91191328       0.00000000       0.00000000       0.00000000
I        6.32621619       1.72404779      12.31919838       0.00000000       0.00000000       0.00000000
I        1.87494753       2.56708844       0.04197531       0.00000000       0.00000000       0.00000000
I        1.90010971       2.66928882       5.85054328       0.00000000       0.00000000       0.00000000
I        2.66632993       7.04467202       5.88981858       0.00000000       0.00000000       0.00000000
I        7.13478585       6.11141644      12.27546271       0.00000000       0.00000000       0.00000000
I        6.39267290       1.94355038       6.36123519       0.00000000       0.00000000       0.00000000
I        4.14257861       4.37015608       9.29688898       0.00000000       0.00000000       0.00000000
I        0.42361690       0.08763456       9.33441252       0.00000000       0.00000000       0.00000000
I        2.65097409       6.96299468       0.07065895       0.00000000       0.00000000       0.00000000
I        4.88567714       4.40703347       2.84575076       0.00000000       0.00000000       0.00000000
48
Lattice="9.01938999317578 0.0 0.0 0.0 8.777767844565316 0.0 0.0 0.0 12.796186806294449" Properties=species:S:1:pos:R:3:momenta:R:3 config_id=O-FAPI3_parity_33__fa_rotation_cage_rattle__sev-0.3 phase=O-FAPI3 mode=parity seed=4219772410 source=O-FAPI3/CONTCAR distortion_family=fa_rotation_cage_rattle distortion_severity=0.3 original_config_id=O-FAPI3_parity_33 distortion_label=fa_rotation_cage_rattle pbc="T T T"
C        4.58144029       0.35721994       3.16826706       0.00000000       0.00000000       0.00000000
C        0.07174524       4.03166402       9.56636042       0.00000000       0.00000000       0.00000000
C        8.94764466       4.74610384       3.16826714       0.00000000       0.00000000       0.00000000
C        4.65980973       8.18846947       9.32681423       0.00000000       0.00000000       0.00000000
N        5.14641592       8.21104204       2.42775928       0.00000000       0.00000000       0.00000000
N        0.63672090       4.95560973       8.82585276       0.00000000       0.00000000       0.00000000
N        1.18184367       5.12533409       3.07055868       0.00000000       0.00000000       0.00000000
N        5.66673890       0.04895089       9.87779448       0.00000000       0.00000000       0.00000000
N        3.32785132       0.73645021       3.07055870       0.00000000       0.00000000       0.00000000
N        7.83754632       3.65243376       9.46865215       0.00000000       0.00000000       0.00000000
N        8.38266906       3.82215805       2.42775938       0.00000000       0.00000000       0.00000000
N        3.71130516       8.75225887       8.61709221       0.00000000       0.00000000       0.00000000
H        5.19802154       0.84618877       3.92887723       0.00000000       0.00000000       0.00000000
H        0.68832651       3.54269529      10.32697070       0.00000000       0.00000000       0.00000000
H        8.33106347       5.23507262       3.92887735       0.00000000       0.00000000       0.00000000
H        4.60688536       7.10563745       9.47669651       0.00000000       0.00000000       0.00000000
H        6.14780018       8.03459813       2.53546294       0.00000000       0.00000000       0.00000000
H        1.63810518       5.13205364       8.93355632       0.00000000       0.00000000       0.00000000
H        1.55804586       5.80949951       3.73115812       0.00000000       0.00000000       0.00000000
H        6.32813763       8.31743262      10.46871025       0.00000000       0.00000000       0.00000000
H        4.63340450       7.72431708       1.68653056       0.00000000       0.00000000       0.00000000
H        0.12370953       5.44233472       8.08462394       0.00000000       0.00000000       0.00000000
H        1.82884427       4.71238905       2.40039504       0.00000000       0.00000000       0.00000000
H        5.78424407       1.05815734       9.80067301       0.00000000       0.00000000       0.00000000
H        2.68085064       0.32350507       2.40039511       0.00000000       0.00000000       0.00000000
H        7.19054559       4.06537885       8.79848849       0.00000000       0.00000000       0.00000000
H        8.89568041       3.33543309       1.68653065       0.00000000       0.00000000       0.00000000
H        3.70692207       0.98046377       8.42343884       0.00000000       0.00000000       0.00000000
H        2.95164911       1.42061566       3.73115812       0.00000000       0.00000000       0.00000000
H        7.46134412       2.96826826      10.12925150       0.00000000       0.00000000       0.00000000
H        7.38128478       3.64571414       2.53546309       0.00000000       0.00000000       0.00000000
H        3.00656384       8.15908759       8.17325605       0.00000000       0.00000000       0.00000000
Pb       4.53996435       4.23607004      12.55871687       0.00000000       0.00000000       0.00000000
Pb       0.09937376       0.09048193       6.21632230       0.00000000       0.00000000       0.00000000
Pb       0.00145322       8.67724386      12.68704442       0.00000000       0.00000000       0.00000000
Pb       4.46671699       4.50546124       6.12767604       0.00000000       0.00000000       0.00000000
I        7.10378915       6.29395266       6.36955559       0.00000000       0.00000000       0.00000000
I        8.60786848       8.71763900       2.94854004       0.00000000       0.00000000       0.00000000
I        6.36628679       1.73122738      12.19967199       0.00000000       0.00000000       0.00000000
I        1.83716807       2.59899735       0.00340713       0.00000000       0.00000000       0.00000000
I        1.91166677       2.63313786       5.87867150       0.00000000       0.00000000       0.00000000
I        2.67270992       7.08325899       5.88200618       0.00000000       0.00000000       0.00000000
I        7.09411099       6.13102673      12.33433157       0.00000000       0.00000000       0.00000000
I        6.18830800       1.91664628       6.50918713       0.00000000       0.00000000       0.00000000
I        4.07444701       4.43337909       9.43409287       0.00000000       0.00000000       0.00000000
I        0.39865751       0.03236310       9.42045584       0.00000000       0.00000000       0.00000000
I        2.68315255       6.96319183       0.07962876       0.00000000       0.00000000       0.00000000
I        4.82003270       4.26870196       2.82572192       0.00000000       0.00000000       0.00000000
48
Lattice="9.01938999317578 0.0 0.0 0.0 8.777767844565316 0.0 0.0 0.0 12.796186806294449" Properties=species:S:1:pos:R:3:momenta:R:3 config_id=O-FAPI3_parity_34__fa_rotation_cage_rattle__sev-0.4 phase=O-FAPI3 mode=parity seed=2275992225 source=O-FAPI3/CONTCAR distortion_family=fa_rotation_cage_rattle distortion_severity=0.4 original_config_id=O-FAPI3_parity_34 distortion_label=fa_rotation_cage_rattle pbc="T T T"
C        4.15516118       8.74209856       3.20278528       0.00000000       0.00000000       0.00000000
C        0.07174524       4.03166402       9.56636042       0.00000000       0.00000000       0.00000000
C        8.94764466       4.74610384       3.16826714       0.00000000       0.00000000       0.00000000
C        4.89784936       8.76309225       8.93460148       0.00000000       0.00000000       0.00000000
N        5.20579308       0.70780766       3.45702853       0.00000000       0.00000000       0.00000000
N        0.63672090       4.95560973       8.82585276       0.00000000       0.00000000       0.00000000
N        1.18184367       5.12533409       3.07055868       0.00000000       0.00000000       0.00000000
N        3.75375900       8.16147610       8.70230219       0.00000000       0.00000000       0.00000000
N        3.62598060       8.57013695       2.01314460       0.00000000       0.00000000       0.00000000
N        7.83754632       3.65243376       9.46865215       0.00000000       0.00000000       0.00000000
N        8.38266906       3.82215805       2.42775938       0.00000000       0.00000000       0.00000000
N        5.42721361       0.15941084      10.12232710       0.00000000       0.00000000       0.00000000
H        3.68615976       8.22082205       4.04308240       0.00000000       0.00000000       0.00000000
H        0.68832651       3.54269529      10.32697070       0.00000000       0.00000000       0.00000000
H        8.33106347       5.23507262       3.92887735       0.00000000       0.00000000       0.00000000
H        5.44677220       0.37475717       8.07157384       0.00000000       0.00000000       0.00000000
H        5.50099569       0.83152325       4.42813761       0.00000000       0.00000000       0.00000000
H        1.63810518       5.13205364       8.93355632       0.00000000       0.00000000       0.00000000
H        1.55804586       5.80949951       3.73115812       0.00000000       0.00000000       0.00000000
H        3.38392680       8.12482453       7.74947331       0.00000000       0.00000000       0.00000000
H        5.68436784       1.23636205       2.72143465       0.00000000       0.00000000       0.00000000
H        0.12370953       5.44233472       8.08462394       0.00000000       0.00000000       0.00000000
H        1.82884427       4.71238905       2.40039504       0.00000000       0.00000000       0.00000000
H        3.17195513       7.78312022       9.44836112       0.00000000       0.00000000       0.00000000
H        4.00805207       0.22806544       1.17502593       0.00000000       0.00000000       0.00000000
H        7.19054559       4.06537885       8.79848849       0.00000000       0.00000000       0.00000000
H        8.89568041       3.33543309       1.68653065       0.00000000       0.00000000       0.00000000
H        4.97618028       8.58436800      10.97179492       0.00000000       0.00000000       0.00000000
H        2.84370402       7.92208110       1.89453164       0.00000000       0.00000000       0.00000000
H        7.46134412       2.96826826      10.12925150       0.00000000       0.00000000       0.00000000
H        7.38128478       3.64571414       2.53546309       0.00000000       0.00000000       0.00000000
H        6.35598790       0.58117650      10.19300285       0.00000000       0.00000000       0.00000000
Pb       4.53540749       4.27479789      12.60397529       0.00000000       0.00000000       0.00000000
Pb       0.01968763       0.16767122       6.17717375       0.00000000       0.00000000       0.00000000
Pb       9.01118629       8.67364778      12.64747374       0.00000000       0.00000000       0.00000000
Pb       4.52780161       4.40039007       6.15824491       0.00000000       0.00000000       0.00000000
I        7.19107852       6.26780009       6.50380383       0.00000000       0.00000000       0.00000000
I        8.72169046       8.71726373       2.91086108       0.00000000       0.00000000       0.00000000
I        6.47225154       1.67799466      12.31719213       0.00000000       0.00000000       0.00000000
I        1.76922207       2.46621444       0.06256055       0.00000000       0.00000000       0.00000000
I        1.92545783       2.51998262       5.80984327       0.00000000       0.00000000       0.00000000
I        2.67615642       7.16923545       5.91975307       0.00000000       0.00000000       0.00000000
I        7.18632568       6.13989983      12.24483629       0.00000000       0.00000000       0.00000000
I        6.41010854       1.85459647       6.56418469       0.00000000       0.00000000       0.00000000
I        4.08140524       4.42368972       9.32216381       0.00000000       0.00000000       0.00000000
I        0.36520652       8.75102042       9.39633061       0.00000000       0.00000000       0.00000000
I        2.60236491       6.92531701       0.04813683       0.00000000       0.00000000       0.00000000
I        4.82099956       4.21376027       2.89005821       0.00000000       0.00000000       0.00000000
48
Lattice="9.01938999317578 0.0 0.0 0.0 8.777767844565316 0.0 0.0 0.0 12.796186806294449" Properties=species:S:1:pos:R:3:momenta:R:3 config_id=O-FAPI3_parity_35__fa_rotation_cage_rattle__sev-0.5 phase=O-FAPI3 mode=parity seed=345110448 source=O-FAPI3/CONTCAR distortion_family=fa_rotation_cage_rattle distortion_severity=0.5 original_config_id=O-FAPI3_parity_35 distortion_label=fa_rotation_cage_rattle pbc="T T T"
C        4.58393998       0.46090611       3.06148485       0.00000000       0.00000000       0.00000000
C        0.07174524       4.03166402       9.56636042       0.00000000       0.00000000       0.00000000
C        8.94764466       4.74610384       3.16826714       0.00000000       0.00000000       0.00000000
C        4.43794979       8.42054792       9.56636048       0.00000000       0.00000000       0.00000000
N        4.83387705       0.18097112       1.80434810       0.00000000       0.00000000       0.00000000
N        0.63672090       4.95560973       8.82585276       0.00000000       0.00000000       0.00000000
N        1.18184367       5.12533409       3.07055868       0.00000000       0.00000000       0.00000000
N        5.69153871       8.04131766       9.46865213       0.00000000       0.00000000       0.00000000
N        3.63850386       8.68065030       3.78232324       0.00000000       0.00000000       0.00000000
N        7.83754632       3.65243376       9.46865215       0.00000000       0.00000000       0.00000000
N        8.38266906       3.82215805       2.42775938       0.00000000       0.00000000       0.00000000
N        3.87297416       0.56672577       8.82585280       0.00000000       0.00000000       0.00000000
H        5.21295950       1.21179012       3.54964306       0.00000000       0.00000000       0.00000000
H        0.68832651       3.54269529      10.32697070       0.00000000       0.00000000       0.00000000
H        8.33106347       5.23507262       3.92887735       0.00000000       0.00000000       0.00000000
H        3.82136857       7.93157924      10.32697083       0.00000000       0.00000000       0.00000000
H        5.54916700       0.71937048       1.31039527       0.00000000       0.00000000       0.00000000
H        1.63810518       5.13205364       8.93355632       0.00000000       0.00000000       0.00000000
H        1.55804586       5.80949951       3.73115812       0.00000000       0.00000000       0.00000000
H        6.06774094       7.35715222      10.12925155       0.00000000       0.00000000       0.00000000
H        4.27470769       8.27843526       1.28088041       0.00000000       0.00000000       0.00000000
H        0.12370953       5.44233472       8.08462394       0.00000000       0.00000000       0.00000000
H        1.82884427       4.71238905       2.40039504       0.00000000       0.00000000       0.00000000
H        6.33853940       8.45426265       8.79848842       0.00000000       0.00000000       0.00000000
H        3.01796803       7.96261564       3.41135921       0.00000000       0.00000000       0.00000000
H        7.19054559       4.06537885       8.79848849       0.00000000       0.00000000       0.00000000
H        8.89568041       3.33543309       1.68653065       0.00000000       0.00000000       0.00000000
H        4.38598548       1.05345074       8.08462396       0.00000000       0.00000000       0.00000000
H        3.55335034       0.13476925       4.77478455       0.00000000       0.00000000       0.00000000
H        7.46134412       2.96826826      10.12925150       0.00000000       0.00000000       0.00000000
H        7.38128478       3.64571414       2.53546309       0.00000000       0.00000000       0.00000000
H        2.87158987       0.74316970       8.93355639       0.00000000       0.00000000       0.00000000
Pb       4.58282770       4.23162775      12.53142807       0.00000000       0.00000000       0.00000000
Pb       8.99437830       0.09616275       6.19400478       0.00000000       0.00000000       0.00000000
Pb       0.01636777       0.02484058      12.60086014       0.00000000       0.00000000       0.00000000
Pb       4.56951511       4.50150368       6.04371310       0.00000000       0.00000000       0.00000000
I        7.15777071       6.23219520       6.30768574       0.00000000       0.00000000       0.00000000
I        8.73172286       0.07646730       2.93981218       0.00000000       0.00000000       0.00000000
I        6.32032964       1.75747489      12.30384217       0.00000000       0.00000000       0.00000000
I        1.90806653       2.49361078       0.07585285       0.00000000       0.00000000       0.00000000
I        1.88198729       2.57629917       5.91722163       0.00000000       0.00000000       0.00000000
I        2.55463149       7.14132257       5.97937411       0.00000000       0.00000000       0.00000000
I        7.17249653       6.21514600      12.37176272       0.00000000       0.00000000       0.00000000
I        6.31966119       1.76922828       6.37412949       0.00000000       0.00000000       0.00000000
I        4.26391724       4.46022279       9.33295374       0.00000000       0.00000000       0.00000000
I        0.41755741       0.01237314       9.37441596       0.00000000       0.00000000       0.00000000
I        2.65251015       6.84565535      12.63064768       0.00000000       0.00000000       0.00000000
I        4.93199354       4.23169278       2.89955276       0.00000000       0.00000000       0.00000000
48
Lattice="9.01938999317578 0.0 0.0 0.0 8.777767844565316 0.0 0.0 0.0 12.796186806294449" Properties=species:S:1:pos:R:3:momenta:R:3 config_id=O-FAPI3_parity_36__fa_rotation_cage_rattle__sev-0.6 phase=O-FAPI3 mode=parity seed=4065983421 source=O-FAPI3/CONTCAR distortion_family=fa_rotation_cage_rattle distortion_severity=0.6 original_config_id=O-FAPI3_parity_36 distortion_label=fa_rotation_cage_rattle pbc="T T T"
C        4.40640186       8.61638689       2.60569789       0.00000000       0.00000000       0.00000000
C        0.07174524       4.03166402       9.56636042       0.00000000       0.00000000       0.00000000
C        8.94764466       4.74610384       3.16826714       0.00000000       0.00000000       0.00000000
C        4.43794979       8.42054792       9.56636048       0.00000000       0.00000000       0.00000000
N        5.24294030       8.76348159       3.60559366       0.00000000       0.00000000       0.00000000
N        0.63672090       4.95560973       8.82585276       0.00000000       0.00000000       0.00000000
N        1.18184367       5.12533409       3.07055868       0.00000000       0.00000000       0.00000000
N        5.69153871       8.04131766       9.46865213       0.00000000       0.00000000       0.00000000
N        3.37854180       0.61970719       2.36434165       0.00000000       0.00000000       0.00000000
N        7.83754632       3.65243376       9.46865215       0.00000000       0.00000000       0.00000000
N        8.38266906       3.82215805       2.42775938       0.00000000       0.00000000       0.00000000
N        3.87297416       0.56672577       8.82585280       0.00000000       0.00000000       0.00000000
H        4.57950028       7.78393156       1.91660730       0.00000000       0.00000000       0.00000000
H        0.68832651       3.54269529      10.32697070       0.00000000       0.00000000       0.00000000
H        8.33106347       5.23507262       3.92887735       0.00000000       0.00000000       0.00000000
H        3.82136857       7.93157924      10.32697083       0.00000000       0.00000000       0.00000000
H        5.97340736       8.06205697       3.74674734       0.00000000       0.00000000       0.00000000
H        1.63810518       5.13205364       8.93355632       0.00000000       0.00000000       0.00000000
H        1.55804586       5.80949951       3.73115812       0.00000000       0.00000000       0.00000000
H        6.06774094       7.35715222      10.12925155       0.00000000       0.00000000       0.00000000
H        5.13165222       0.73285629       4.29761598       0.00000000       0.00000000       0.00000000
H        0.12370953       5.44233472       8.08462394       0.00000000       0.00000000       0.00000000
H        1.82884427       4.71238905       2.40039504       0.00000000       0.00000000       0.00000000
H        6.33853940       8.45426265       8.79848842       0.00000000       0.00000000       0.00000000
H        3.15371369       1.42538159       2.94622987       0.00000000       0.00000000       0.00000000
H        7.19054559       4.06537885       8.79848849       0.00000000       0.00000000       0.00000000
H        8.89568041       3.33543309       1.68653065       0.00000000       0.00000000       0.00000000
H        4.38598548       1.05345074       8.08462396       0.00000000       0.00000000       0.00000000
H        2.81348032       0.47011137       1.52509874       0.00000000       0.00000000       0.00000000
H        7.46134412       2.96826826      10.12925150       0.00000000       0.00000000       0.00000000
H        7.38128478       3.64571414       2.53546309       0.00000000       0.00000000       0.00000000
H        2.87158987       0.74316970       8.93355639       0.00000000       0.00000000       0.00000000
Pb       4.61247637       4.27411635      12.62134770       0.00000000       0.00000000       0.00000000
Pb       8.96635641       0.05175555       6.26754069       0.00000000       0.00000000       0.00000000
Pb       0.04684117       8.59878601      12.53597316       0.00000000       0.00000000       0.00000000
Pb       4.38274903       4.36887485       6.11099759       0.00000000       0.00000000       0.00000000
I        7.14712177       6.19301158       6.44643667       0.00000000       0.00000000       0.00000000
I        8.71614225       8.60451209       3.02336293       0.00000000       0.00000000       0.00000000
I        6.37998260       1.68292470      12.22791051       0.00000000       0.00000000       0.00000000
I        1.74268704       2.56560050       0.12434681       0.00000000       0.00000000       0.00000000
I        1.86540615       2.77019363       5.95346438       0.00000000       0.00000000       0.00000000
I        2.50932934       6.99903176       5.96710239       0.00000000       0.00000000       0.00000000
I        7.11574341       6.25035113      12.21342184       0.00000000       0.00000000       0.00000000
I        6.37807336       1.83626493       6.49419358       0.00000000       0.00000000       0.00000000
I        4.25913866       4.55865780       9.37687119       0.00000000       0.00000000       0.00000000
I        0.32513362       8.65238055       9.38027782       0.00000000       0.00000000       0.00000000
I        2.70071667       6.93529419      12.71606443       0.00000000       0.00000000       0.00000000
I        4.85977953       4.35609629       3.14175574       0.00000000       0.00000000       0.00000000
48
Lattice="9.01938999317578 0.0 0.0 0.0 8.777767844565316 0.0 0.0 0.0 12.796186806294449" Properties=species:S:1:pos:R:3:momenta:R:3 config_id=O-FAPI3_parity_37__fa_rotation_cage_rattle__sev-0.7 phase=O-FAPI3 mode=parity seed=1542055207 source=O-FAPI3/CONTCAR distortion_family=fa_rotation_cage_rattle distortion_severity=0.7 original_config_id=O-FAPI3_parity_37 distortion_label=fa_rotation_cage_rattle pbc="T T T"
C        4.44179757       0.55198243       3.02486128       0.00000000       0.00000000       0.00000000
C        0.07174524       4.03166402       9.56636042       0.00000000       0.00000000       0.00000000
C        8.94764466       4.74610384       3.16826714       0.00000000       0.00000000       0.00000000
C        5.05042568       8.47458019       9.43705030       0.00000000       0.00000000       0.00000000
N        4.95110735       8.28502821       3.63345336       0.00000000       0.00000000       0.00000000
N        0.63672090       4.95560973       8.82585276       0.00000000       0.00000000       0.00000000
N        1.18184367       5.12533409       3.07055868       0.00000000       0.00000000       0.00000000
N        4.97219204       0.95990402       9.08587139       0.00000000       0.00000000       0.00000000
N        3.63946514       0.49995520       1.98639911       0.00000000       0.00000000       0.00000000
N        7.83754632       3.65243376       9.46865215       0.00000000       0.00000000       0.00000000
N        8.38266906       3.82215805       2.42775938       0.00000000       0.00000000       0.00000000
N        4.07945448       7.60040159       9.31767088       0.00000000       0.00000000       0.00000000
H        4.69937886       1.54211277       3.41355726       0.00000000       0.00000000       0.00000000
H        0.68832651       3.54269529      10.32697070       0.00000000       0.00000000       0.00000000
H        8.33106347       5.23507262       3.92887735       0.00000000       0.00000000       0.00000000
H        5.99580681       8.12851735       9.86633565       0.00000000       0.00000000       0.00000000
H        5.62004933       8.43215823       4.39264526       0.00000000       0.00000000       0.00000000
H        1.63810518       5.13205364       8.93355632       0.00000000       0.00000000       0.00000000
H        1.55804586       5.80949951       3.73115812       0.00000000       0.00000000       0.00000000
H        5.75744371       1.58807677       9.27236770       0.00000000       0.00000000       0.00000000
H        4.76547462       7.32970468       3.31345435       0.00000000       0.00000000       0.00000000
H        0.12370953       5.44233472       8.08462394       0.00000000       0.00000000       0.00000000
H        1.82884427       4.71238905       2.40039504       0.00000000       0.00000000       0.00000000
H        4.12549794       1.36807882       8.69248190       0.00000000       0.00000000       0.00000000
H        3.33730443       8.39789284       1.57064612       0.00000000       0.00000000       0.00000000
H        7.19054559       4.06537885       8.79848849       0.00000000       0.00000000       0.00000000
H        8.89568041       3.33543309       1.68653065       0.00000000       0.00000000       0.00000000
H        3.17387577       7.85121097       8.90959751       0.00000000       0.00000000       0.00000000
H        3.23729772       1.36259336       1.61207462       0.00000000       0.00000000       0.00000000
H        7.46134412       2.96826826      10.12925150       0.00000000       0.00000000       0.00000000
H        7.38128478       3.64571414       2.53546309       0.00000000       0.00000000       0.00000000
H        4.26124206       6.62325642       9.55776173       0.00000000       0.00000000       0.00000000
Pb       4.64482967       4.27621875      12.67852754       0.00000000       0.00000000       0.00000000
Pb       8.84382541       0.12304601       6.29136593       0.00000000       0.00000000       0.00000000
Pb       0.19136906       8.57013944      12.56701882       0.00000000       0.00000000       0.00000000
Pb       4.37176579       4.47940289       6.24105186       0.00000000       0.00000000       0.00000000
I        7.08692543       6.19135998       6.46027049       0.00000000       0.00000000       0.00000000
I        8.60542579       8.76226403       2.88274105       0.00000000       0.00000000       0.00000000
I        6.36598383       1.60659532      12.28438866       0.00000000       0.00000000       0.00000000
I        1.92030800       2.63302261       0.05259695       0.00000000       0.00000000       0.00000000
I        1.80549379       2.62706312       6.00683091       0.00000000       0.00000000       0.00000000
I        2.65253580       6.89737217       5.84242150       0.00000000       0.00000000       0.00000000
I        7.30195657       6.10796017      12.15298989       0.00000000       0.00000000       0.00000000
I        6.38277981       1.88017412       6.50518974       0.00000000       0.00000000       0.00000000
I        4.11674770       4.40641007       9.41888982       0.00000000       0.00000000       0.00000000
I        0.33180789       0.08084309       9.44660076       0.00000000       0.00000000       0.00000000
I        2.68191136       7.00008854      12.73955918       0.00000000       0.00000000       0.00000000
I        4.93439821       4.52320302       2.95036635       0.00000000       0.00000000       0.00000000
48
Lattice="9.01938999317578 0.0 0.0 0.0 8.777767844565316 0.0 0.0 0.0 12.796186806294449" Properties=species:S:1:pos:R:3:momenta:R:3 config_id=O-FAPI3_parity_38__fa_rotation_cage_rattle__sev-0.8 phase=O-FAPI3 mode=parity seed=938300375 source=O-FAPI3/CONTCAR distortion_family=fa_rotation_cage_rattle distortion_severity=0.8 original_config_id=O-FAPI3_parity_38 distortion_label=fa_rotation_cage_rattle pbc="T T T"
C        4.03633686       8.65717307       2.97164106       0.00000000       0.00000000       0.00000000
C        0.07174524       4.03166402       9.56636042       0.00000000       0.00000000       0.00000000
C        8.94764466       4.74610384       3.16826714       0.00000000       0.00000000       0.00000000
C        4.75240542       0.05339893       8.91057724       0.00000000       0.00000000       0.00000000
N        4.19732754       0.89369278       3.78805256       0.00000000       0.00000000       0.00000000
N        0.63672090       4.95560973       8.82585276       0.00000000       0.00000000       0.00000000
N        1.18184367       5.12533409       3.07055868       0.00000000       0.00000000       0.00000000
N        5.35672597       7.67354556       9.05042535       0.00000000       0.00000000       0.00000000
N        4.73269935       8.45575617       1.87648886       0.00000000       0.00000000       0.00000000
N        7.83754632       3.65243376       9.46865215       0.00000000       0.00000000       0.00000000
N        8.38266906       3.82215805       2.42775938       0.00000000       0.00000000       0.00000000
N        3.94393733       0.59000865       9.79355748       0.00000000       0.00000000       0.00000000
H        3.26809404       7.91938499       3.22316148       0.00000000       0.00000000       0.00000000
H        0.68832651       3.54269529      10.32697070       0.00000000       0.00000000       0.00000000
H        8.33106347       5.23507262       3.92887735       0.00000000       0.00000000       0.00000000
H        4.93401395       0.60807163       7.98475468       0.00000000       0.00000000       0.00000000
H        3.55892374       0.99746183       4.57999671       0.00000000       0.00000000       0.00000000
H        1.63810518       5.13205364       8.93355632       0.00000000       0.00000000       0.00000000
H        1.55804586       5.80949951       3.73115812       0.00000000       0.00000000       0.00000000
H        5.92169358       7.30013173       8.28402090       0.00000000       0.00000000       0.00000000
H        4.88631494       1.62965944       3.60597740       0.00000000       0.00000000       0.00000000
H        0.12370953       5.44233472       8.08462394       0.00000000       0.00000000       0.00000000
H        1.82884427       4.71238905       2.40039504       0.00000000       0.00000000       0.00000000
H        5.23191234       7.08588847       9.87342812       0.00000000       0.00000000       0.00000000
H        5.47624576       0.30667782       1.57625383       0.00000000       0.00000000       0.00000000
H        7.19054559       4.06537885       8.79848849       0.00000000       0.00000000       0.00000000
H        8.89568041       3.33543309       1.68653065       0.00000000       0.00000000       0.00000000
H        3.74185636       0.13395878      10.68836685       0.00000000       0.00000000       0.00000000
H        4.58426248       7.60400191       1.33015268       0.00000000       0.00000000       0.00000000
H        7.46134412       2.96826826      10.12925150       0.00000000       0.00000000       0.00000000
H        7.38128478       3.64571414       2.53546309       0.00000000       0.00000000       0.00000000
H        3.57520664       1.52796027       9.62096702       0.00000000       0.00000000       0.00000000
Pb       4.49547063       4.24666348      12.65466100       0.00000000       0.00000000       0.00000000
Pb       8.96584844       0.08404750       6.06834809       0.00000000       0.00000000       0.00000000
Pb       9.00624042       8.66119737      12.52051274       0.00000000       0.00000000       0.00000000
Pb       4.35191867       4.55882194       5.99327750       0.00000000       0.00000000       0.00000000
I        7.18443558       6.16596560       6.30497204       0.00000000       0.00000000       0.00000000
I        8.71494116       8.75550816       2.88249311       0.00000000       0.00000000       0.00000000
I        6.30450936       1.79712581      12.25881142       0.00000000       0.00000000       0.00000000
I        1.93159564       2.42834898       0.04753804       0.00000000       0.00000000       0.00000000
I        1.74528781       2.72533548       6.06728073       0.00000000       0.00000000       0.00000000
I        2.77103541       6.99929659       5.88489368       0.00000000       0.00000000       0.00000000
I        7.21761692       6.25311864      12.19997702       0.00000000       0.00000000       0.00000000
I        6.19782748       1.97522660       6.38407298       0.00000000       0.00000000       0.00000000
I        4.23929516       4.54274815       9.48185993       0.00000000       0.00000000       0.00000000
I        0.44936443       8.74299056       9.31093423       0.00000000       0.00000000       0.00000000
I        2.51444483       6.91872718       0.12267726       0.00000000       0.00000000       0.00000000
I        4.73061439       4.26219784       2.78778280       0.00000000       0.00000000       0.00000000
48
Lattice="9.01938999317578 0.0 0.0 0.0 8.777767844565316 0.0 0.0 0.0 12.796186806294449" Properties=species:S:1:pos:R:3:momenta:R:3 config_id=O-FAPI3_parity_39__fa_rotation_cage_rattle__sev-0.9 phase=O-FAPI3 mode=parity seed=3972359667 source=O-FAPI3/CONTCAR distortion_family=fa_rotation_cage_rattle distortion_severity=0.9 original_config_id=O-FAPI3_parity_39 distortion_label=fa_rotation_cage_rattle pbc="T T T"
C        4.75954298       0.21556463       2.81656870       0.00000000       0.00000000       0.00000000
C        8.65904322       3.88498228       9.45225359       0.00000000       0.00000000       0.00000000
C        9.01146541       4.22593395       3.07989436       0.00000000       0.00000000       0.00000000
C        5.06285949       0.02683734       9.26280421       0.00000000       0.00000000       0.00000000
N        4.09989400       1.21333536       3.35558795       0.00000000       0.00000000       0.00000000
N        8.83269111       3.85501021       8.15218710       0.00000000       0.00000000       0.00000000
N        8.22124632       5.18992065       2.66621412       0.00000000       0.00000000       0.00000000
N        4.07064937       0.66439673       9.84063188       0.00000000       0.00000000       0.00000000
N        4.22401956       7.85570387       2.43727506       0.00000000       0.00000000       0.00000000
N        0.00303481       4.87369190      10.23663535       0.00000000       0.00000000       0.00000000
N        1.29217907       4.19428309       2.90682299       0.00000000       0.00000000       0.00000000
N        4.97208440       7.61921097       8.70798425       0.00000000       0.00000000       0.00000000
H        5.83630384       0.34070439       2.66584750       0.00000000       0.00000000       0.00000000
H        8.18039462       3.01959094       9.92106510       0.00000000       0.00000000       0.00000000
H        8.54938161       3.38964664       3.61364788       0.00000000       0.00000000       0.00000000
H        6.03929286       0.52097803       9.24888549       0.00000000       0.00000000       0.00000000
H        4.61938063       2.03240970       3.67924489       0.00000000       0.00000000       0.00000000
H        8.45370087       3.06814459       7.62048053       0.00000000       0.00000000       0.00000000
H        7.22569536       5.16521081       2.89917280       0.00000000       0.00000000       0.00000000
H        4.24404848       1.55924106      10.30451595       0.00000000       0.00000000       0.00000000
H        3.09372652       1.15865677       3.54035588       0.00000000       0.00000000       0.00000000
H        0.23945757       4.63704446       7.64591133       0.00000000       0.00000000       0.00000000
H        8.56986105       6.01169600       2.17488354       0.00000000       0.00000000       0.00000000
H        3.13332024       0.27106866       9.91105911       0.00000000       0.00000000       0.00000000
H        3.22776386       7.66177945       2.52739000       0.00000000       0.00000000       0.00000000
H        0.46783762       5.70966943       9.88541912       0.00000000       0.00000000       0.00000000
H        1.78820518       4.93517166       2.40229937       0.00000000       0.00000000       0.00000000
H        4.08585262       7.10667096       8.67059469       0.00000000       0.00000000       0.00000000
H        4.80162719       7.15459646       1.96736030       0.00000000       0.00000000       0.00000000
H        8.90592829       4.78744124      11.24905395       0.00000000       0.00000000       0.00000000
H        1.81120937       3.36608674       3.20715839       0.00000000       0.00000000       0.00000000
H        5.78704492       7.23589132       8.22382682       0.00000000       0.00000000       0.00000000
Pb       4.69990480       4.41580513      12.66199699       0.00000000       0.00000000       0.00000000
Pb       8.90070822       0.13017567       6.24339790       0.00000000       0.00000000       0.00000000
Pb       0.14501082       8.61342776      12.64541369       0.00000000       0.00000000       0.00000000
Pb       4.47153774       4.46747749       6.15807839       0.00000000       0.00000000       0.00000000
I        7.07063953       6.18451050       6.53017998       0.00000000       0.00000000       0.00000000
I        8.54647236       8.71904498       2.91761938       0.00000000       0.00000000       0.00000000
I        6.41211764       1.77012375      12.26959263       0.00000000       0.00000000       0.00000000
I        1.89442692       2.50025433      12.73629523       0.00000000       0.00000000       0.00000000
I        1.93231165       2.74338970       5.84583898       0.00000000       0.00000000       0.00000000
I        2.62582953       7.07087213       5.76408048       0.00000000       0.00000000       0.00000000
I        7.19413278       6.01979859      12.25535618       0.00000000       0.00000000       0.00000000
I        6.41069074       1.92229388       6.55718348       0.00000000       0.00000000       0.00000000
I        4.23907570       4.53046281       9.51833504       0.00000000       0.00000000       0.00000000
I        0.27171469       0.04547404       9.24010383       0.00000000       0.00000000       0.00000000
I        2.68388593       6.73514163       0.03740016       0.00000000       0.00000000       0.00000000
I        4.83318201       4.38541678       2.86755145       0.00000000       0.00000000       0.00000000
48
Lattice="9.01938999317578 0.0 0.0 0.0 8.777767844565316 0.0 0.0 0.0 12.796186806294449" Properties=species:S:1:pos:R:3:momenta:R:3 config_id=O-FAPI3_parity_40__fa_rotation_cage_rattle__sev-1.0 phase=O-FAPI3 mode=parity seed=2602832822 source=O-FAPI3/CONTCAR distortion_family=fa_rotation_cage_rattle distortion_severity=1.0 original_config_id=O-FAPI3_parity_40 distortion_label=fa_rotation_cage_rattle pbc="T T T"
C        4.09549436       0.32685233       2.55980459       0.00000000       0.00000000       0.00000000
C        8.52202914       4.02293596       9.07975693       0.00000000       0.00000000       0.00000000
C        0.16639530       4.87197422       2.58609146       0.00000000       0.00000000       0.00000000
C        4.77122885       0.00911399       8.89112125       0.00000000       0.00000000       0.00000000
N        5.39511290       0.46852067       2.44959253       0.00000000       0.00000000       0.00000000
N        8.84921461       3.62758330      10.28718010       0.00000000       0.00000000       0.00000000
N        8.28453666       3.92467701       2.46269450       0.00000000       0.00000000       0.00000000
N        4.64859167       0.81592574       9.92013176       0.00000000       0.00000000       0.00000000
N        3.48641814       8.50674073       3.55801006       0.00000000       0.00000000       0.00000000
N        0.10021560       4.98607244       8.41634293       0.00000000       0.00000000       0.00000000
N        1.08302343       4.91894283       3.52354109       0.00000000       0.00000000       0.00000000
N        4.63835556       7.48256929       8.93947637       0.00000000       0.00000000       0.00000000
H        3.46974166       0.74217380       1.76373146       0.00000000       0.00000000       0.00000000
H        7.68493645       3.51696391       8.58877934       0.00000000       0.00000000       0.00000000
H        0.15347775       5.67916859       1.84713199       0.00000000       0.00000000       0.00000000
H        5.00735100       0.46026820       7.92236066       0.00000000       0.00000000       0.00000000
H        5.77644386       0.89063435       1.59993984       0.00000000       0.00000000       0.00000000
H        8.36563223       2.82287148      10.69226029       0.00000000       0.00000000       0.00000000
H        7.64583729       3.93278120       1.66394581       0.00000000       0.00000000       0.00000000
H        4.83083112       1.81576615       9.80563287       0.00000000       0.00000000       0.00000000
H        6.04100568       0.09045866       3.14915922       0.00000000       0.00000000       0.00000000
H        0.61272945       4.04557124      10.79889110       0.00000000       0.00000000       0.00000000
H        8.23474686       3.12932674       3.09766822       0.00000000       0.00000000       0.00000000
H        4.44474473       0.47878615      10.85983181       0.00000000       0.00000000       0.00000000
H        3.99120938       8.10572960       4.34707830       0.00000000       0.00000000       0.00000000
H        0.87753155       5.51853152       8.80431224       0.00000000       0.00000000       0.00000000
H        1.14309356       4.20581739       4.25657967       0.00000000       0.00000000       0.00000000
H        4.40182152       6.99551423       9.80914931       0.00000000       0.00000000       0.00000000
H        2.46442925       8.49620326       3.59582176       0.00000000       0.00000000       0.00000000
H        8.75908859       5.27280642       7.50320924       0.00000000       0.00000000       0.00000000
H        1.69758794       5.73457626       3.57409374       0.00000000       0.00000000       0.00000000
H        4.68623702       6.94782920       8.06926753       0.00000000       0.00000000       0.00000000
Pb       4.44644466       4.39888449      12.54383903       0.00000000       0.00000000       0.00000000
Pb       0.04147491       0.22511116       6.25597301       0.00000000       0.00000000       0.00000000
Pb       8.95886576       8.58569991      12.67037801       0.00000000       0.00000000       0.00000000
Pb       4.57073148       4.48903664       6.02008818       0.00000000       0.00000000       0.00000000
I        7.22057266       6.32870837       6.42037498       0.00000000       0.00000000       0.00000000
I        8.81010451       8.72960193       2.97220903       0.00000000       0.00000000       0.00000000
I        6.32769027       1.84856869      12.50292738       0.00000000       0.00000000       0.00000000
I        1.75869961       2.57102187       0.19463858       0.00000000       0.00000000       0.00000000
I        1.84294574       2.66140492       5.95577077       0.00000000       0.00000000       0.00000000
I        2.56333258       6.98668435       6.01449703       0.00000000       0.00000000       0.00000000
I        7.25515993       5.94213322      12.47271115       0.00000000       0.00000000       0.00000000
I        6.33730966       1.75506142       6.33280260       0.00000000       0.00000000       0.00000000
I        4.10020919       4.59744502       9.30627688       0.00000000       0.00000000       0.00000000
I        0.28423636       0.06006437       9.32052659       0.00000000       0.00000000       0.00000000
I        2.75488268       6.93147146      12.74966320       0.00000000       0.00000000       0.00000000
I        4.79980608       4.23289033       2.80404569       0.00000000       0.00000000       0.00000000
48
Lattice="9.110298235431953 0.06201552519828127 0.061721716601749466 0.06035417953555325 8.930710086207789 0.014105155857198948 0.08756718760789026 0.020562426858027047 12.990317298325442" Properties=species:S:1:pos:R:3:momenta:R:3 config_id=O-FAPI3_parity_41__combined_strain_rattle_fa_rotation__sev-0.1 phase=O-FAPI3 mode=parity seed=1316860979 source=O-FAPI3/CONTCAR distortion_family=combined distortion_severity=0.1 original_config_id=O-FAPI3_parity_41 distortion_label=combined_strain_rattle_fa_rotation pbc="T T T"
C        4.48092478       0.21541902       3.37881613       0.00000000       0.00000000       0.00000000
C        0.13238003       4.11648158       9.74126643       0.00000000       0.00000000       0.00000000
C        9.13056254       4.83067517       3.30156679       0.00000000       0.00000000       0.00000000
C        4.62201843       8.65282756       9.68768877       0.00000000       0.00000000       0.00000000
N        5.46993803       8.80473980       2.56544719       0.00000000       0.00000000       0.00000000
N        0.74581869       5.06260410       8.94085056       0.00000000       0.00000000       0.00000000
N        1.22074229       5.21966210       3.08656548       0.00000000       0.00000000       0.00000000
N        5.81467486       8.20057453       9.68485543       0.00000000       0.00000000       0.00000000
N        3.23217949       0.58319635       2.99705518       0.00000000       0.00000000       0.00000000
N        7.99967082       3.73124275       9.75784879       0.00000000       0.00000000       0.00000000
N        8.48057415       4.00269547       2.51405341       0.00000000       0.00000000       0.00000000
N        3.97948207       0.60118055       9.01370790       0.00000000       0.00000000       0.00000000
H        4.87650562       0.49013785       4.30533439       0.00000000       0.00000000       0.00000000
H        0.89938401       3.67501117      10.40863509       0.00000000       0.00000000       0.00000000
H        8.41347508       5.37398670       4.03519105       0.00000000       0.00000000       0.00000000
H        3.98741009       8.25411256      10.67715319       0.00000000       0.00000000       0.00000000
H        6.39888349       8.65946076       2.85522171       0.00000000       0.00000000       0.00000000
H        1.72257836       5.18303793       9.17390365       0.00000000       0.00000000       0.00000000
H        1.59571657       5.97236874       3.85771383       0.00000000       0.00000000       0.00000000
H        6.20632964       7.55755574      10.39370554       0.00000000       0.00000000       0.00000000
H        5.32808663       8.47595253       1.54139701       0.00000000       0.00000000       0.00000000
H        0.22853091       5.50808120       8.20631328       0.00000000       0.00000000       0.00000000
H        1.99399516       4.79669981       2.45907589       0.00000000       0.00000000       0.00000000
H        6.54896422       8.47290117       8.97409635       0.00000000       0.00000000       0.00000000
H        2.84338400       0.34994255       2.03872594       0.00000000       0.00000000       0.00000000
H        7.36737749       4.15830415       9.02764148       0.00000000       0.00000000       0.00000000
H        9.02301689       3.50804441       1.85092936       0.00000000       0.00000000       0.00000000
H        4.55108561       0.93129263       8.18515598       0.00000000       0.00000000       0.00000000
H        2.50294582       0.87664774       3.77570773       0.00000000       0.00000000       0.00000000
H        7.62399306       3.12957615      10.38641729       0.00000000       0.00000000       0.00000000
H        7.50746045       3.75467833       2.61168987       0.00000000       0.00000000       0.00000000
H        3.05813121       0.77819852       9.06973148       0.00000000       0.00000000       0.00000000
Pb       4.72300510       4.46227157      12.81305823       0.00000000       0.00000000       0.00000000
Pb       9.13410663       0.19377784       6.34490927       0.00000000       0.00000000       0.00000000
Pb       0.16918799       8.80224854      12.68718638       0.00000000       0.00000000       0.00000000
Pb       4.55644384       4.49305798       6.29289564       0.00000000       0.00000000       0.00000000
I        7.27778595       6.43102831       6.62756542       0.00000000       0.00000000       0.00000000
I        8.77946245       8.93065998       3.02364362       0.00000000       0.00000000       0.00000000
I        6.47955301       1.85567804      12.50118534       0.00000000       0.00000000       0.00000000
I        1.87366424       2.65151293       0.11915285       0.00000000       0.00000000       0.00000000
I        1.95877732       2.70270102       5.93642819       0.00000000       0.00000000       0.00000000
I        2.77197613       7.26532611       6.12524728       0.00000000       0.00000000       0.00000000
I        7.37182046       6.28476889      12.60324317       0.00000000       0.00000000       0.00000000
I        6.52107810       1.90502023       6.55284214       0.00000000       0.00000000       0.00000000
I        4.29529035       4.55618071       9.51022163       0.00000000       0.00000000       0.00000000
I        0.46708957       0.09878112       9.46648339       0.00000000       0.00000000       0.00000000
I        2.71848317       7.07828216       0.05641183       0.00000000       0.00000000       0.00000000
I        5.02832288       4.44830062       3.13703408       0.00000000       0.00000000       0.00000000
48
Lattice="8.828646542808595 -0.06935134111061136 0.02804059538336262 -0.0674934748845316 8.854792121000274 -0.04764194105758512 0.03978236853675353 -0.06945218743336658 12.647181611586578" Properties=species:S:1:pos:R:3:momenta:R:3 config_id=O-FAPI3_parity_42__combined_strain_rattle_fa_rotation__sev-0.2 phase=O-FAPI3 mode=parity seed=3663235565 source=O-FAPI3/CONTCAR distortion_family=combined distortion_severity=0.2 original_config_id=O-FAPI3_parity_42 distortion_label=combined_strain_rattle_fa_rotation pbc="T T T"
C        4.42378567       0.17263988       3.22101514       0.00000000       0.00000000       0.00000000
C        0.01380797       4.29113444       9.41194514       0.00000000       0.00000000       0.00000000
C        0.03639688       4.51248273       3.14825104       0.00000000       0.00000000       0.00000000
C        4.23368742       8.43443335       9.43647899       0.00000000       0.00000000       0.00000000
N        4.92756272       8.26367439       2.28701115       0.00000000       0.00000000       0.00000000
N        0.66557841       4.56931550       8.35567632       0.00000000       0.00000000       0.00000000
N        0.54659270       5.68452131       3.11989976       0.00000000       0.00000000       0.00000000
N        5.57372038       7.95522171       9.36598606       0.00000000       0.00000000       0.00000000
N        3.26546853       0.71038806       3.05334357       0.00000000       0.00000000       0.00000000
N        7.73212623       3.72450947       9.61323801       0.00000000       0.00000000       0.00000000
N        8.68736351       3.40647677       2.33412195       0.00000000       0.00000000       0.00000000
N        3.95690134       0.47292196       8.71207158       0.00000000       0.00000000       0.00000000
H        5.03708418       0.74350702       3.89706410       0.00000000       0.00000000       0.00000000
H        0.49411006       4.52098415      10.49045283       0.00000000       0.00000000       0.00000000
H        8.08460374       4.29341148       4.16311870       0.00000000       0.00000000       0.00000000
H        3.76746541       7.93443952      10.18964756       0.00000000       0.00000000       0.00000000
H        5.91421580       7.98461429       2.44471377       0.00000000       0.00000000       0.00000000
H        1.55960481       4.94346444       8.41864318       0.00000000       0.00000000       0.00000000
H        0.58868575       6.26043435       3.93709916       0.00000000       0.00000000       0.00000000
H        5.89657567       7.32305554       9.98361718       0.00000000       0.00000000       0.00000000
H        4.57226235       7.83167710       1.57661475       0.00000000       0.00000000       0.00000000
H        0.17456379       4.41378052       7.52222634       0.00000000       0.00000000       0.00000000
H        1.14421397       5.77663126       2.32716949       0.00000000       0.00000000       0.00000000
H        6.09678796       8.42418447       8.73360637       0.00000000       0.00000000       0.00000000
H        2.62461207       0.37134537       2.43961178       0.00000000       0.00000000       0.00000000
H        7.11690801       3.55652157       8.83091991       0.00000000       0.00000000       0.00000000
H        0.42577542       3.73117200       1.43315595       0.00000000       0.00000000       0.00000000
H        4.33665505       0.94357135       7.95637034       0.00000000       0.00000000       0.00000000
H        2.88538438       1.39202710       3.71989779       0.00000000       0.00000000       0.00000000
H        7.23364259       3.64060951      10.56791451       0.00000000       0.00000000       0.00000000
H        8.11588183       2.82952052       2.46502147       0.00000000       0.00000000       0.00000000
H        2.79159793       0.69594240       8.81995583       0.00000000       0.00000000       0.00000000
Pb       4.47613585       4.25351091      12.48563747       0.00000000       0.00000000       0.00000000
Pb       0.04932471       0.03071717       6.04787773       0.00000000       0.00000000       0.00000000
Pb       8.77579369       8.54299354      12.41698541       0.00000000       0.00000000       0.00000000
Pb       4.42871422       4.49261600       6.15356715       0.00000000       0.00000000       0.00000000
I        6.93630073       6.11685824       6.38320753       0.00000000       0.00000000       0.00000000
I        8.42170754       8.65757987       2.95591313       0.00000000       0.00000000       0.00000000
I        6.23378974       1.65450837      12.13758815       0.00000000       0.00000000       0.00000000
I        1.77494561       2.54781302       0.08215892       0.00000000       0.00000000       0.00000000
I        1.78637622       2.67470361       5.82149027       0.00000000       0.00000000       0.00000000
I        2.57602883       7.00151728       5.84287845       0.00000000       0.00000000       0.00000000
I        6.99343338       6.14741059      12.15853053       0.00000000       0.00000000       0.00000000
I        6.27007787       1.79866210       6.43724702       0.00000000       0.00000000       0.00000000
I        4.06480914       4.41812581       9.25986911       0.00000000       0.00000000       0.00000000
I        0.34461285      -0.01557408       9.21070038       0.00000000       0.00000000       0.00000000
I        2.50875689       6.98278017       0.09504082       0.00000000       0.00000000       0.00000000
I        4.79636107       4.36183872       2.81860954       0.00000000       0.00000000       0.00000000
48
Lattice="8.80859120068954 -0.06577911635741189 -0.08269221126123756 -0.06401694713754215 8.738433870460025 -0.05263079056502824 -0.11731890776704093 -0.07672490771671939 12.467535469648931" Properties=species:S:1:pos:R:3:momenta:R:3 config_id=O-FAPI3_parity_43__combined_strain_rattle_fa_rotation__sev-0.3 phase=O-FAPI3 mode=parity seed=1016784231 source=O-FAPI3/CONTCAR distortion_family=combined distortion_severity=0.3 original_config_id=O-FAPI3_parity_43 distortion_label=combined_strain_rattle_fa_rotation pbc="T T T"
C        4.50098142       0.22044067       3.07123463       0.00000000       0.00000000       0.00000000
C        0.01200772       3.89686239       9.25261215       0.00000000       0.00000000       0.00000000
C        8.55346240       4.67985898       2.93555779       0.00000000       0.00000000       0.00000000
C        4.24037252       8.17276938       9.20342009       0.00000000       0.00000000       0.00000000
N        4.99374361       8.09496595       2.25229112       0.00000000       0.00000000       0.00000000
N        0.47120136       4.99967491       8.60489205       0.00000000       0.00000000       0.00000000
N        1.13040731       5.11175504       2.81654782       0.00000000       0.00000000       0.00000000
N        5.39513007       8.03899844       9.15335653       0.00000000       0.00000000       0.00000000
N        3.10877652       0.53358352       2.80632632       0.00000000       0.00000000       0.00000000
N        7.56120889       3.54376343       9.17247244       0.00000000       0.00000000       0.00000000
N        7.97768646       3.76910980       2.34559853       0.00000000       0.00000000       0.00000000
N        3.67275435       0.45039892       8.49195151       0.00000000       0.00000000       0.00000000
H        4.96686369       0.77033185       3.82029895       0.00000000       0.00000000       0.00000000
H        0.54352224       3.60232885      10.04735170       0.00000000       0.00000000       0.00000000
H        8.08528149       5.04543079       3.75754496       0.00000000       0.00000000       0.00000000
H        3.61442306       7.75058101       9.93672120       0.00000000       0.00000000       0.00000000
H        5.99736350       8.08004581       2.34889735       0.00000000       0.00000000       0.00000000
H        1.48608875       5.09924118       8.69534543       0.00000000       0.00000000       0.00000000
H        1.46685272       5.74079537       3.57222737       0.00000000       0.00000000       0.00000000
H        5.73577386       7.14468518       9.73486187       0.00000000       0.00000000       0.00000000
H        4.48521230       7.77207134       1.47590071       0.00000000       0.00000000       0.00000000
H       -0.00943498       5.35471029       7.81657955       0.00000000       0.00000000       0.00000000
H        1.58839534       4.64032295       2.29049214       0.00000000       0.00000000       0.00000000
H        6.01102477       8.39916980       8.47562877       0.00000000       0.00000000       0.00000000
H        2.51549798       0.34338243       2.30201522       0.00000000       0.00000000       0.00000000
H        6.87889819       3.89561014       8.44715924       0.00000000       0.00000000       0.00000000
H        8.49037692       3.28004640       1.63096945       0.00000000       0.00000000       0.00000000
H        4.23263453       0.89690328       7.84385772       0.00000000       0.00000000       0.00000000
H        2.76924776       1.11334829       3.72431396       0.00000000       0.00000000       0.00000000
H        7.18684261       2.81343519       9.79499491       0.00000000       0.00000000       0.00000000
H        7.13076548       3.67321492       2.54655730       0.00000000       0.00000000       0.00000000
H        2.68995076       0.63908650       8.66343923       0.00000000       0.00000000       0.00000000
Pb       4.25721503       4.12121647      12.11559160       0.00000000       0.00000000       0.00000000
Pb       0.02573396       0.06671033       5.95927556       0.00000000       0.00000000       0.00000000
Pb       8.57702627       8.54198026      12.05255927       0.00000000       0.00000000       0.00000000
Pb       4.34958771       4.38409430       5.86259539       0.00000000       0.00000000       0.00000000
I        6.89322219       6.17627903       6.27308937       0.00000000       0.00000000       0.00000000
I        8.43242148      -0.02683453       2.67732434       0.00000000       0.00000000       0.00000000
I        6.08295527       1.63831545      11.98585781       0.00000000       0.00000000       0.00000000
I        1.74505889       2.41182939      12.39698820       0.00000000       0.00000000       0.00000000
I        1.77491554       2.62961841       5.72857506       0.00000000       0.00000000       0.00000000
I        2.52187732       6.97658201       5.64016290       0.00000000       0.00000000       0.00000000
I        6.86341006       6.04882512      11.92592025       0.00000000       0.00000000       0.00000000
I        6.02837365       1.72832822       6.23692976       0.00000000       0.00000000       0.00000000
I        3.97323230       4.30538624       9.03948311       0.00000000       0.00000000       0.00000000
I        0.36087553      -0.03683200       9.02771447       0.00000000       0.00000000       0.00000000
I        2.56959386       6.89197377      -0.01647578       0.00000000       0.00000000       0.00000000
I        4.65694577       4.37885649       2.80362938       0.00000000       0.00000000       0.00000000
48
Lattice="9.211381562611328 0.09795687820137779 -0.10359543220093162 0.09533269281854165 8.715352930269843 -0.02557225687121207 -0.14697518387883474 -0.03727911033614048 13.12323719945539" Properties=species:S:1:pos:R:3:momenta:R:3 config_id=O-FAPI3_parity_44__combined_strain_rattle_fa_rotation__sev-0.4 phase=O-FAPI3 mode=parity seed=4222874943 source=O-FAPI3/CONTCAR distortion_family=combined distortion_severity=0.4 original_config_id=O-FAPI3_parity_44 distortion_label=combined_strain_rattle_fa_rotation pbc="T T T"
C        4.60212637       0.52782732       3.17424269       0.00000000       0.00000000       0.00000000
C        9.07731258       4.18669887       9.61933548       0.00000000       0.00000000       0.00000000
C        9.11950099       4.81919410       3.23216854       0.00000000       0.00000000       0.00000000
C        4.65365150       8.39194323       9.72935668       0.00000000       0.00000000       0.00000000
N        5.52934527       8.44840078       2.72086621       0.00000000       0.00000000       0.00000000
N        0.69408384       4.95183669       9.07624806       0.00000000       0.00000000       0.00000000
N        1.22863880       5.14865399       3.26355358       0.00000000       0.00000000       0.00000000
N        5.77074560       7.91863800       9.70250622       0.00000000       0.00000000       0.00000000
N        3.17753932       0.49890454       2.84616750       0.00000000       0.00000000       0.00000000
N        7.93146642       3.73467962       9.54448127       0.00000000       0.00000000       0.00000000
N        8.65337835       3.83208865       2.29937797       0.00000000       0.00000000       0.00000000
N        3.92091787       0.52293199       8.88328404       0.00000000       0.00000000       0.00000000
H        4.79375705       1.23092425       3.96250693       0.00000000       0.00000000       0.00000000
H        0.48140073       3.69920493      10.94519780       0.00000000       0.00000000       0.00000000
H        8.36694747       5.33213709       3.91327852       0.00000000       0.00000000       0.00000000
H        3.96592554       7.94020744      10.42621600       0.00000000       0.00000000       0.00000000
H        6.52379765       8.36094952       3.00622862       0.00000000       0.00000000       0.00000000
H        1.58000103       5.21077003       9.20651558       0.00000000       0.00000000       0.00000000
H        1.56461589       5.75367903       3.83350392       0.00000000       0.00000000       0.00000000
H        6.12402598       7.37373145      10.34911816       0.00000000       0.00000000       0.00000000
H        5.32450432       7.72845405       1.86255298       0.00000000       0.00000000       0.00000000
H        0.22067606       5.23652517       8.36103145       0.00000000       0.00000000       0.00000000
H        1.92878732       4.67972490       2.39684199       0.00000000       0.00000000       0.00000000
H        6.46920933       8.43530232       8.92566471       0.00000000       0.00000000       0.00000000
H        2.89358533       8.69370084       2.05187233       0.00000000       0.00000000       0.00000000
H        7.29933841       3.96361540       8.70915698       0.00000000       0.00000000       0.00000000
H        9.07247965       3.46759080       1.69778955       0.00000000       0.00000000       0.00000000
H        4.40226488       1.05876976       8.22860633       0.00000000       0.00000000       0.00000000
H        2.64156669       1.35931438       3.42197721       0.00000000       0.00000000       0.00000000
H        7.51889299       3.05016999      10.21786085       0.00000000       0.00000000       0.00000000
H        7.55677584       3.75573186       2.53093119       0.00000000       0.00000000       0.00000000
H        2.86961303       0.67656651       8.97772184       0.00000000       0.00000000       0.00000000
Pb       4.58297523       4.39688549      12.67145632       0.00000000       0.00000000       0.00000000
Pb       0.05076226       0.16884892       6.34577994       0.00000000       0.00000000       0.00000000
Pb       9.04986198       8.72854996      12.65345965       0.00000000       0.00000000       0.00000000
Pb       4.45990948       4.45971073       6.30671746       0.00000000       0.00000000       0.00000000
I        7.19474706       6.37815503       6.42886057       0.00000000       0.00000000       0.00000000
I        8.80881754       8.78447588       2.88296650       0.00000000       0.00000000       0.00000000
I        6.42979915       1.82268905      12.36438690       0.00000000       0.00000000       0.00000000
I        1.98018502       2.47783878       0.11995535       0.00000000       0.00000000       0.00000000
I        1.90578414       2.50977075       6.03850732       0.00000000       0.00000000       0.00000000
I        2.70467851       6.99342015       5.92154097       0.00000000       0.00000000       0.00000000
I        7.27625975       6.12267076      12.53749285       0.00000000       0.00000000       0.00000000
I        6.34918902       1.93705770       6.43184575       0.00000000       0.00000000       0.00000000
I        4.14102908       4.30349385       9.52775026       0.00000000       0.00000000       0.00000000
I        0.22698307      -0.01653484       9.59497709       0.00000000       0.00000000       0.00000000
I        2.77845116       6.95023820      -0.01352982       0.00000000       0.00000000       0.00000000
I        5.04629999       4.30150232       2.97365443       0.00000000       0.00000000       0.00000000
48
Lattice="9.066526763222612 -0.008488783376069205 0.042811948347780356 -0.008261375748727831 8.879872995077621 -0.03395284939211385 0.06073910641563603 -0.049496296908383884 12.72924659899755" Properties=species:S:1:pos:R:3:momenta:R:3 config_id=O-FAPI3_parity_45__combined_strain_rattle_fa_rotation__sev-0.5 phase=O-FAPI3 mode=parity seed=3389247742 source=O-FAPI3/CONTCAR distortion_family=combined distortion_severity=0.5 original_config_id=O-FAPI3_parity_45 distortion_label=combined_strain_rattle_fa_rotation pbc="T T T"
C        4.55073905       0.39191400       3.24632371       0.00000000       0.00000000       0.00000000
C        9.09799011       3.95292091       9.56578303       0.00000000       0.00000000       0.00000000
C        8.88788733       4.78609697       3.31105015       0.00000000       0.00000000       0.00000000
C        4.50664863       8.42646126       9.46407984       0.00000000       0.00000000       0.00000000
N        5.17708801       8.29927737       2.37137502       0.00000000       0.00000000       0.00000000
N        0.64700566       4.81887328       8.86814569       0.00000000       0.00000000       0.00000000
N        1.15473399       5.13912944       3.04723603       0.00000000       0.00000000       0.00000000
N        5.81860339       8.00474146       9.47422514       0.00000000       0.00000000       0.00000000
N        3.36440290       0.79773515       2.92904438       0.00000000       0.00000000       0.00000000
N        8.04574170       3.73221371       9.48834749       0.00000000       0.00000000       0.00000000
N        8.60923381       3.83180053       2.45480338       0.00000000       0.00000000       0.00000000
N        3.93959660       0.55003210       8.80874543       0.00000000       0.00000000       0.00000000
H        5.19222043       1.02131827       3.69243999       0.00000000       0.00000000       0.00000000
H        0.73197328       3.58109458      10.30654096       0.00000000       0.00000000       0.00000000
H        8.37136251       5.24301094       3.89862753       0.00000000       0.00000000       0.00000000
H        3.71019204       7.92183744      10.14903624       0.00000000       0.00000000       0.00000000
H        6.25166548       7.99794939       2.61666283       0.00000000       0.00000000       0.00000000
H        1.74151920       5.34109974       8.85654645       0.00000000       0.00000000       0.00000000
H        1.45603485       5.89205974       3.70144569       0.00000000       0.00000000       0.00000000
H        6.17878361       7.30056432      10.05427925       0.00000000       0.00000000       0.00000000
H        4.69597227       7.73642441       1.61329621       0.00000000       0.00000000       0.00000000
H        0.22072465       5.66252534       8.13149882       0.00000000       0.00000000       0.00000000
H        1.68543339       4.78075106       2.31621487       0.00000000       0.00000000       0.00000000
H        6.40748127       8.44921972       8.68790618       0.00000000       0.00000000       0.00000000
H        2.65708103       0.35340343       2.49859274       0.00000000       0.00000000       0.00000000
H        7.32733463       4.14963457       8.85352337       0.00000000       0.00000000       0.00000000
H        8.94442771       3.28222780       1.49697629       0.00000000       0.00000000       0.00000000
H        4.45114500       0.98540082       8.11375103       0.00000000       0.00000000       0.00000000
H        2.84516149       1.34298271       3.80417663       0.00000000       0.00000000       0.00000000
H        7.62848769       2.89437666      10.03439319       0.00000000       0.00000000       0.00000000
H        7.26592845       3.68950255       2.69924494       0.00000000       0.00000000       0.00000000
H        3.02043975       0.67877212       8.96223487       0.00000000       0.00000000       0.00000000
Pb       4.65871388       4.18488263      12.38923024       0.00000000       0.00000000       0.00000000
Pb       0.13432728       0.07866262       6.07747154       0.00000000       0.00000000       0.00000000
Pb       9.03514007       8.65334950      12.54095831       0.00000000       0.00000000       0.00000000
Pb       4.64333953       4.52627826       6.19644124       0.00000000       0.00000000       0.00000000
I        7.25538041       6.20689814       6.42371627       0.00000000       0.00000000       0.00000000
I        8.63267818       8.79136788       2.98989675       0.00000000       0.00000000       0.00000000
I        6.45851440       1.63513475      12.25570334       0.00000000       0.00000000       0.00000000
I        1.81435880       2.44956929       0.08105104       0.00000000       0.00000000       0.00000000
I        1.80279628       2.66839363       5.75193487       0.00000000       0.00000000       0.00000000
I        2.70764747       7.21651348       5.80434249       0.00000000       0.00000000       0.00000000
I        7.24508466       6.25026255      12.22610575       0.00000000       0.00000000       0.00000000
I        6.34555792       1.70933602       6.35914361       0.00000000       0.00000000       0.00000000
I        4.32192972       4.48630497       9.47491833       0.00000000       0.00000000       0.00000000
I        0.27143899       0.07409801       9.14616101       0.00000000       0.00000000       0.00000000
I        2.73436035       7.04024803       0.09289085       0.00000000       0.00000000       0.00000000
I        4.96883217       4.49941709       3.01597601       0.00000000       0.00000000       0.00000000
48
Lattice="9.17720409873246 -0.059428512569837375 -0.06238347085918353 -0.05783647087891232 8.607042480776277 0.10281246960054528 -0.08850604612319937 0.1498795126872254 13.096960521404377" Properties=species:S:1:pos:R:3:momenta:R:3 config_id=O-FAPI3_parity_46__combined_strain_rattle_fa_rotation__sev-0.6 phase=O-FAPI3 mode=parity seed=313057053 source=O-FAPI3/CONTCAR distortion_family=combined distortion_severity=0.6 original_config_id=O-FAPI3_parity_46 distortion_label=combined_strain_rattle_fa_rotation pbc="T T T"
C        4.75614532       0.20805496       3.13567777       0.00000000       0.00000000       0.00000000
C       -0.00286751       4.00894911       9.87772695       0.00000000       0.00000000       0.00000000
C        8.96076141       4.59576274       3.07827615       0.00000000       0.00000000       0.00000000
C        4.48325786       8.19873311       9.68081759       0.00000000       0.00000000       0.00000000
N        5.12420096       8.20479602       2.37211847       0.00000000       0.00000000       0.00000000
N        0.41607951       4.98548921       8.72844721       0.00000000       0.00000000       0.00000000
N        0.56286099       5.50615522       3.36824234       0.00000000       0.00000000       0.00000000
N        5.79139436       8.19053787       9.32302883       0.00000000       0.00000000       0.00000000
N        3.37881832       0.66422722       3.00958366       0.00000000       0.00000000       0.00000000
N        7.95817686       3.55869563       9.78134527       0.00000000       0.00000000       0.00000000
N        0.19021090       3.36973391       2.40197256       0.00000000       0.00000000       0.00000000
N        3.83111576       0.53090970       9.76792444       0.00000000       0.00000000       0.00000000
H        5.23788132       0.90881837       4.00365689       0.00000000       0.00000000       0.00000000
H        0.74764770       4.10695478      10.73691885       0.00000000       0.00000000       0.00000000
H        7.84552158       4.50421975       3.49514658       0.00000000       0.00000000       0.00000000
H        4.11358999       7.34853456      10.13618181       0.00000000       0.00000000       0.00000000
H        6.10748285       8.18882503       2.44438544       0.00000000       0.00000000       0.00000000
H        1.57493905       5.31437875       9.03009055       0.00000000       0.00000000       0.00000000
H        0.16234954       6.34485595       3.79165419       0.00000000       0.00000000       0.00000000
H        6.26052840       7.28120363       9.26982128       0.00000000       0.00000000       0.00000000
H        4.63480570       7.64396465       1.72885630       0.00000000       0.00000000       0.00000000
H        0.05556678       5.18202073       7.91102380       0.00000000       0.00000000       0.00000000
H        1.37969798       5.62378181       3.02410033       0.00000000       0.00000000       0.00000000
H        6.28960032       0.33754831       8.83799318       0.00000000       0.00000000       0.00000000
H        2.66339128       0.04417823       2.69133585       0.00000000       0.00000000       0.00000000
H        7.17030600       3.69311391       9.29707737       0.00000000       0.00000000       0.00000000
H        1.11468323       3.38790076       2.10056760       0.00000000       0.00000000       0.00000000
H        4.05648705       1.49989694       9.32977825       0.00000000       0.00000000       0.00000000
H        3.01758215       1.39921193       4.18320919       0.00000000       0.00000000       0.00000000
H        7.68193420       3.11452914      10.78818356       0.00000000       0.00000000       0.00000000
H        8.55218603       2.59782567       2.23959535       0.00000000       0.00000000       0.00000000
H        2.66177575       0.46403008       9.93971889       0.00000000       0.00000000       0.00000000
Pb       4.55878881       4.42793783      12.89586554       0.00000000       0.00000000       0.00000000
Pb       0.00627141       0.19831148       6.26849847       0.00000000       0.00000000       0.00000000
Pb       8.92348399       8.69562856      13.11065897       0.00000000       0.00000000       0.00000000
Pb       4.43520912       4.41051673       6.35216116       0.00000000       0.00000000       0.00000000
I        7.08874392       6.32510210       6.65065414       0.00000000       0.00000000       0.00000000
I        8.56382105       8.58382558       3.13457175       0.00000000       0.00000000       0.00000000
I        6.50447426       1.85200960      12.67612334       0.00000000       0.00000000       0.00000000
I        1.73368354       2.33836426       0.03081702       0.00000000       0.00000000       0.00000000
I        1.83922659       2.74235481       6.08302101       0.00000000       0.00000000       0.00000000
I        2.45884561       6.99070348       6.02143371       0.00000000       0.00000000       0.00000000
I        7.10756587       6.13514577      12.50210565       0.00000000       0.00000000       0.00000000
I        6.32003087       1.68912154       6.46588392       0.00000000       0.00000000       0.00000000
I        4.09786124       4.30950341       9.55677207       0.00000000       0.00000000       0.00000000
I        0.37062889       0.12233260       9.49213502       0.00000000       0.00000000       0.00000000
I        2.64948957       6.72589625       0.20758868       0.00000000       0.00000000       0.00000000
I        4.86649595       4.43635040       2.97171473       0.00000000       0.00000000       0.00000000
48
Lattice="8.68333145185152 0.03668200296157401 0.14572288801187505 0.03569932182930044 8.732852969238138 0.03495843198958625 0.20674317202865602 0.05096223027484704 12.69258772921216" Properties=species:S:1:pos:R:3:momenta:R:3 config_id=O-FAPI3_parity_47__combined_strain_rattle_fa_rotation__sev-0.7 phase=O-FAPI3 mode=parity seed=502609238 source=O-FAPI3/CONTCAR distortion_family=combined distortion_severity=0.7 original_config_id=O-FAPI3_parity_47 distortion_label=combined_strain_rattle_fa_rotation pbc="T T T"
C        4.51544405       0.44818530       3.30788674       0.00000000       0.00000000       0.00000000
C        0.43765104       4.33046898       9.57595313       0.00000000       0.00000000       0.00000000
C        8.68963415       4.84179813       3.14662655       0.00000000       0.00000000       0.00000000
C        4.31105007       8.35717793       9.50540626       0.00000000       0.00000000       0.00000000
N        5.09116788       8.20826983       2.47117360       0.00000000       0.00000000       0.00000000
N        0.91136079       4.62393907       8.48250252       0.00000000       0.00000000       0.00000000
N        1.25951567       4.82725613       2.85583147       0.00000000       0.00000000       0.00000000
N        5.61693258       8.20352024       9.68089737       0.00000000       0.00000000       0.00000000
N        3.23688654       0.74914331       3.17795560       0.00000000       0.00000000       0.00000000
N        7.72237556       4.08948924       9.64551191       0.00000000       0.00000000       0.00000000
N        7.93846703       4.11825283       2.47707756       0.00000000       0.00000000       0.00000000
N        4.06886873       0.46533206       8.71793000       0.00000000       0.00000000       0.00000000
H        4.85099152       0.68539673       4.12716271       0.00000000       0.00000000       0.00000000
H        0.79984951       4.67880259      10.53316184       0.00000000       0.00000000       0.00000000
H        8.41733892       5.70640339       4.12640579       0.00000000       0.00000000       0.00000000
H        4.01833010       7.82524998      10.40532353       0.00000000       0.00000000       0.00000000
H        5.97291647       7.92717256       2.40810055       0.00000000       0.00000000       0.00000000
H        1.70250313       4.79656396       8.42249558       0.00000000       0.00000000       0.00000000
H        1.90545507       5.41788538       3.48465453       0.00000000       0.00000000       0.00000000
H        5.98468654       7.25472308      10.03258091       0.00000000       0.00000000       0.00000000
H        4.64858920       7.72816686       1.86956294       0.00000000       0.00000000       0.00000000
H        0.67142034       4.23233248       7.64315970       0.00000000       0.00000000       0.00000000
H        1.61851154       4.05799532       2.22455719       0.00000000       0.00000000       0.00000000
H        6.30040798       8.28185600       8.99577859       0.00000000       0.00000000       0.00000000
H        2.62092511       0.32730613       2.46661888       0.00000000       0.00000000       0.00000000
H        7.09034848       3.73629943       8.93225045       0.00000000       0.00000000       0.00000000
H        8.16606560       3.55829102       2.01273830       0.00000000       0.00000000       0.00000000
H        4.34862103       1.07734087       7.98585096       0.00000000       0.00000000       0.00000000
H        2.97548835       1.42478733       3.78290640       0.00000000       0.00000000       0.00000000
H        7.21174180       3.95194578      10.70982149       0.00000000       0.00000000       0.00000000
H        7.10210233       4.26424007       2.92460672       0.00000000       0.00000000       0.00000000
H        2.92328086       0.81181904       8.79256313       0.00000000       0.00000000       0.00000000
Pb       4.40535274       4.30838803      12.54279127       0.00000000       0.00000000       0.00000000
Pb       0.19524768       0.16798306       5.95072921       0.00000000       0.00000000       0.00000000
Pb       8.74210263       8.66487895      12.58735504       0.00000000       0.00000000       0.00000000
Pb       4.30334807       4.58766950       6.20779821       0.00000000       0.00000000       0.00000000
I        6.91845258       6.26102958       6.58610889       0.00000000       0.00000000       0.00000000
I        8.38503062       8.70786321       3.14710351       0.00000000       0.00000000       0.00000000
I        6.28740970       1.72984476      12.37783025       0.00000000       0.00000000       0.00000000
I        1.92913135       2.48557850       0.10653450       0.00000000       0.00000000       0.00000000
I        1.85029500       2.53267867       5.98249703       0.00000000       0.00000000       0.00000000
I        2.55241047       6.95542035       6.16557195       0.00000000       0.00000000       0.00000000
I        6.93618931       6.18827711      12.29917247       0.00000000       0.00000000       0.00000000
I        6.27151337       1.92203275       6.30861592       0.00000000       0.00000000       0.00000000
I        4.12927440       4.34066377       9.46566054       0.00000000       0.00000000       0.00000000
I        0.44525929       8.75901076       9.36673206       0.00000000       0.00000000       0.00000000
I        2.59816250       6.86807531       0.13831177       0.00000000       0.00000000       0.00000000
I        4.86274001       4.32163991       3.06793126       0.00000000       0.00000000       0.00000000
48
Lattice="8.815658344535247 -0.1639059262692161 0.06807785051380481 -0.15951501933370044 8.996339630650375 0.031077820284102817 0.09658490132977413 0.045305093610335724 12.399673583161745" Properties=species:S:1:pos:R:3:momenta:R:3 config_id=O-FAPI3_parity_48__combined_strain_rattle_fa_rotation__sev-0.8 phase=O-FAPI3 mode=parity seed=2894601973 source=O-FAPI3/CONTCAR distortion_family=combined distortion_severity=0.8 original_config_id=O-FAPI3_parity_48 distortion_label=combined_strain_rattle_fa_rotation pbc="T T T"
C        4.38389991      -0.00599738       3.25152305       0.00000000       0.00000000       0.00000000
C        8.70454498       3.94452234       9.42239176       0.00000000       0.00000000       0.00000000
C        8.43483783       4.76513275       3.19521660       0.00000000       0.00000000       0.00000000
C        4.49995048       8.52183049       9.41319355       0.00000000       0.00000000       0.00000000
N        4.70869015       8.48589834       1.95511139       0.00000000       0.00000000       0.00000000
N        0.94232020       4.98166117       8.85876001       0.00000000       0.00000000       0.00000000
N        1.18869252       5.23199078       2.92686951       0.00000000       0.00000000       0.00000000
N        5.66498244       8.47203338       8.80936268       0.00000000       0.00000000       0.00000000
N        3.51699958       0.85755004       3.11667353       0.00000000       0.00000000       0.00000000
N        7.55816035       3.89290542       8.70273499       0.00000000       0.00000000       0.00000000
N        8.12751846       3.50496947       2.48239467       0.00000000       0.00000000       0.00000000
N        3.51781721       0.15072461       8.87160751       0.00000000       0.00000000       0.00000000
H        4.99147742      -0.05125099       4.05095315       0.00000000       0.00000000       0.00000000
H        0.12543519       3.29563667       9.97581552       0.00000000       0.00000000       0.00000000
H        7.99295848       5.23698821       3.83949918       0.00000000       0.00000000       0.00000000
H        4.37826623       7.70964021      10.03420464       0.00000000       0.00000000       0.00000000
H        5.48080495       7.96881099       2.01156596       0.00000000       0.00000000       0.00000000
H        1.66516075       4.76054330       9.27514737       0.00000000       0.00000000       0.00000000
H        1.61121069       5.94216725       3.65277463       0.00000000       0.00000000       0.00000000
H        6.11435119       8.06858280       9.14997108       0.00000000       0.00000000       0.00000000
H        4.25407149       8.62835134       1.18068659       0.00000000       0.00000000       0.00000000
H        0.67477232       5.58312643       8.18271110       0.00000000       0.00000000       0.00000000
H        1.75927826       4.73639829       2.36591876       0.00000000       0.00000000       0.00000000
H        5.88511326       0.20654310       8.03268758       0.00000000       0.00000000       0.00000000
H        2.72408806       0.87358112       2.48323006       0.00000000       0.00000000       0.00000000
H        7.44157568       4.41100855       8.17644629       0.00000000       0.00000000       0.00000000
H        8.75127355       3.35896545       1.57258227       0.00000000       0.00000000       0.00000000
H        3.56259475       0.94724211       8.26478677       0.00000000       0.00000000       0.00000000
H        3.26245484       1.32241031       4.30412918       0.00000000       0.00000000       0.00000000
H        6.93425659       3.21712004       9.24531904       0.00000000       0.00000000       0.00000000
H        7.08576091       3.60081115       2.64113778       0.00000000       0.00000000       0.00000000
H        2.72289151       0.13103591       9.44647504       0.00000000       0.00000000       0.00000000
Pb       4.52927499       4.39673393      12.22967586       0.00000000       0.00000000       0.00000000
Pb       8.79304169      -0.02378971       5.95568955       0.00000000       0.00000000       0.00000000
Pb      -0.05402919       8.97844012      12.32580130       0.00000000       0.00000000       0.00000000
Pb       4.39303728       4.53151988       6.12145154       0.00000000       0.00000000       0.00000000
I        6.79547537       6.44183199       6.22936283       0.00000000       0.00000000       0.00000000
I        8.61601230       0.07328628       3.04956077       0.00000000       0.00000000       0.00000000
I        6.29198500       1.66741151      11.90539720       0.00000000       0.00000000       0.00000000
I        1.89831157       2.34107382      12.35095723       0.00000000       0.00000000       0.00000000
I        1.97199995       2.73621563       5.64372547       0.00000000       0.00000000       0.00000000
I        2.75717089       7.21592023       5.80789006       0.00000000       0.00000000       0.00000000
I        6.96800759       6.19740679      11.95384694       0.00000000       0.00000000       0.00000000
I        6.33041156       1.89430253       6.42216014       0.00000000       0.00000000       0.00000000
I        4.06721785       4.63615668       9.05773345       0.00000000       0.00000000       0.00000000
I        0.44983409       0.14140419       9.19295958       0.00000000       0.00000000       0.00000000
I        2.66248419       7.09021994      12.20244004       0.00000000       0.00000000       0.00000000
I        4.74312372       4.41436333       3.04487629       0.00000000       0.00000000       0.00000000
48
Lattice="9.352595520953257 0.18079313198614008 -0.11323591005175292 0.17594983049484653 9.097343575201496 -0.12868590652926587 -0.16065253407373603 -0.18759768183039457 13.441717726564072" Properties=species:S:1:pos:R:3:momenta:R:3 config_id=O-FAPI3_parity_49__combined_strain_rattle_fa_rotation__sev-0.9 phase=O-FAPI3 mode=parity seed=801589023 source=O-FAPI3/CONTCAR distortion_family=combined distortion_severity=0.9 original_config_id=O-FAPI3_parity_49 distortion_label=combined_strain_rattle_fa_rotation pbc="T T T"
C        4.72275122       0.41882010       3.24972060       0.00000000       0.00000000       0.00000000
C       -0.00505054       4.01329845      10.04664788       0.00000000       0.00000000       0.00000000
C        9.23368354       5.13706537       3.14908914       0.00000000       0.00000000       0.00000000
C        4.89111371       8.67240225       9.90222834       0.00000000       0.00000000       0.00000000
N        5.50261287       8.61632011       2.36752859       0.00000000       0.00000000       0.00000000
N        0.90716172       5.03462727       9.08260231       0.00000000       0.00000000       0.00000000
N        1.22619326       5.40889558       3.05966668       0.00000000       0.00000000       0.00000000
N        5.83101825       8.40343670       9.52446008       0.00000000       0.00000000       0.00000000
N        3.32952199       0.69004616       3.19070907       0.00000000       0.00000000       0.00000000
N        8.08987029       3.67545302       9.72997261       0.00000000       0.00000000       0.00000000
N        8.84534152       4.17420548       2.29541059       0.00000000       0.00000000       0.00000000
N        4.14404870       0.53543130       9.22778011       0.00000000       0.00000000       0.00000000
H        5.32986232       0.99925848       3.88158472       0.00000000       0.00000000       0.00000000
H        0.74050741       3.45271915      10.81691328       0.00000000       0.00000000       0.00000000
H        8.78573528       5.64284260       3.95179797       0.00000000       0.00000000       0.00000000
H        3.90563161       8.08249681      10.72448485       0.00000000       0.00000000       0.00000000
H        6.39388334       8.30003585       2.33935240       0.00000000       0.00000000       0.00000000
H        1.64525747       5.09945877       9.25200741       0.00000000       0.00000000       0.00000000
H        1.76564574       5.92648095       3.69491387       0.00000000       0.00000000       0.00000000
H        6.14137665       7.52201414      10.48175688       0.00000000       0.00000000       0.00000000
H        4.90156310       8.06385181       1.60414758       0.00000000       0.00000000       0.00000000
H        9.33764556       5.69533214       8.01937159       0.00000000       0.00000000       0.00000000
H        2.02780905       4.86077249       2.30638980       0.00000000       0.00000000       0.00000000
H        6.63436524       8.83794493       9.15429065       0.00000000       0.00000000       0.00000000
H        2.61306849       0.56047220       2.52309699       0.00000000       0.00000000       0.00000000
H        7.26444278       4.28877657       8.99748881       0.00000000       0.00000000       0.00000000
H        9.24230081       3.65486198       1.55205026       0.00000000       0.00000000       0.00000000
H        4.64727159       1.04896951       8.40365766       0.00000000       0.00000000       0.00000000
H        2.93498477       1.54936086       3.85144261       0.00000000       0.00000000       0.00000000
H        7.67993046       3.11037498      10.54667771       0.00000000       0.00000000       0.00000000
H        7.73705233       3.73744425       2.49161885       0.00000000       0.00000000       0.00000000
H        2.91649434       0.76249339       9.28249264       0.00000000       0.00000000       0.00000000
Pb       4.73282890       4.33327146      13.28263630       0.00000000       0.00000000       0.00000000
Pb       0.14151587       8.78834864       6.21984388       0.00000000       0.00000000       0.00000000
Pb       0.11612869       8.72509784      13.27118571       0.00000000       0.00000000       0.00000000
Pb       4.76893432       4.71895587       6.25762085       0.00000000       0.00000000       0.00000000
I        7.49568290       6.58386190       6.35670329       0.00000000       0.00000000       0.00000000
I        8.95228875       0.25115316       2.99842044       0.00000000       0.00000000       0.00000000
I        6.38844394       1.73342163      12.81087650       0.00000000       0.00000000       0.00000000
I        1.85911330       2.64237047       0.16892098       0.00000000       0.00000000       0.00000000
I        1.83670524       2.70263965       5.98946855       0.00000000       0.00000000       0.00000000
I        2.82967233       7.44684779       6.00689599       0.00000000       0.00000000       0.00000000
I        7.41917262       6.29610441      12.94849947       0.00000000       0.00000000       0.00000000
I        6.67065015       1.91555581       6.49648902       0.00000000       0.00000000       0.00000000
I        4.12581633       4.46567748       9.56064044       0.00000000       0.00000000       0.00000000
I        0.45082644       8.96461488       9.75716110       0.00000000       0.00000000       0.00000000
I        3.05662074       7.28041314       0.01400267       0.00000000       0.00000000       0.00000000
I        5.19932435       4.55952750       3.04518406       0.00000000       0.00000000       0.00000000
48
Lattice="8.726538089545969 0.186156499769725 0.08764990787961152 0.18116951800197836 9.165082418127946 -0.10731054147284269 0.12435259985770859 -0.15643677974706147 12.450744640407386" Properties=species:S:1:pos:R:3:momenta:R:3 config_id=O-FAPI3_parity_50__combined_strain_rattle_fa_rotation__sev-1.0 phase=O-FAPI3 mode=parity seed=998710103 source=O-FAPI3/CONTCAR distortion_family=combined distortion_severity=1.0 original_config_id=O-FAPI3_parity_50 distortion_label=combined_strain_rattle_fa_rotation pbc="T T T"
C        4.51386748       0.50159500       3.47822993       0.00000000       0.00000000       0.00000000
C        0.29665999       4.15512110       9.27896072       0.00000000       0.00000000       0.00000000
C        0.26956775       4.84732517       3.03542076       0.00000000       0.00000000       0.00000000
C        4.08086443      -0.00102425       9.33651295       0.00000000       0.00000000       0.00000000
N        5.14938504       8.70134889       2.32814766       0.00000000       0.00000000       0.00000000
N        0.80540519       4.91985934       8.52461377       0.00000000       0.00000000       0.00000000
N        1.27054502       5.24927021       2.85986158       0.00000000       0.00000000       0.00000000
N        5.59988394       8.05696612       9.44398221       0.00000000       0.00000000       0.00000000
N        3.32178624       1.08322586       2.98272796       0.00000000       0.00000000       0.00000000
N        7.77907426       3.66583907       9.23582279       0.00000000       0.00000000       0.00000000
N        8.21385200       4.05314002       2.37610209       0.00000000       0.00000000       0.00000000
N        3.99585890       0.66678311       8.74647139       0.00000000       0.00000000       0.00000000
H        5.39821775       0.94504265       3.88469000       0.00000000       0.00000000       0.00000000
H        1.04840992       3.60437542       9.95349957       0.00000000       0.00000000       0.00000000
H        8.19481704       5.90077518       3.75525970       0.00000000       0.00000000       0.00000000
H        3.65979416       8.66907077       9.79013358       0.00000000       0.00000000       0.00000000
H        5.98929008       8.83499068       2.22936090       0.00000000       0.00000000       0.00000000
H        1.84128825       5.31181959       8.54666753       0.00000000       0.00000000       0.00000000
H        1.55253566       6.06166811       3.61037420       0.00000000       0.00000000       0.00000000
H        5.78727573       7.50708881      10.00610773       0.00000000       0.00000000       0.00000000
H        4.61810335       8.02544074       1.56864443       0.00000000       0.00000000       0.00000000
H        0.25921813       5.64893673       7.77296160       0.00000000       0.00000000       0.00000000
H        2.02979263       4.56211391       2.58596310       0.00000000       0.00000000       0.00000000
H        6.54476030       8.30780675       8.68677650       0.00000000       0.00000000       0.00000000
H        2.67522587       0.44930018       2.21259205       0.00000000       0.00000000       0.00000000
H        7.12588499       4.41999884       8.58707320       0.00000000       0.00000000       0.00000000
H        0.21261251       3.29730754       1.77888341       0.00000000       0.00000000       0.00000000
H        4.93050425       0.92391964       7.92402414       0.00000000       0.00000000       0.00000000
H        2.85992958       1.50803459       3.65806559       0.00000000       0.00000000       0.00000000
H        7.19737578       3.11020446       9.75496456       0.00000000       0.00000000       0.00000000
H        7.17442377       4.11759346       2.48583545       0.00000000       0.00000000       0.00000000
H        3.13341087       1.10708112       8.43308232       0.00000000       0.00000000       0.00000000
Pb       4.74942679       4.25032988      12.15589062       0.00000000       0.00000000       0.00000000
Pb       8.60370553       0.23357756       6.21802696       0.00000000       0.00000000       0.00000000
Pb       8.86608717       9.12666198      12.32129842       0.00000000       0.00000000       0.00000000
Pb       4.73427142       4.71563961       5.98376773       0.00000000       0.00000000       0.00000000
I        6.99750523       6.59287394       6.22518559       0.00000000       0.00000000       0.00000000
I        8.62402065       0.20452196       3.04304282       0.00000000       0.00000000       0.00000000
I        6.44411679       1.76395792      11.96641603       0.00000000       0.00000000       0.00000000
I        1.76662781       2.97489137       0.05365030       0.00000000       0.00000000       0.00000000
I        1.81810477       2.83607941       5.82580830       0.00000000       0.00000000       0.00000000
I        2.69378001       7.26000553       5.81047348       0.00000000       0.00000000       0.00000000
I        7.46898279       6.39262438      11.80310516       0.00000000       0.00000000       0.00000000
I        6.29497745       2.14480210       6.37359327       0.00000000       0.00000000       0.00000000
I        4.14935941       4.62107954       9.09500917       0.00000000       0.00000000       0.00000000
I        0.41063041       0.01600685       9.18798763       0.00000000       0.00000000       0.00000000
I        2.67247269       7.42020780       0.07490309       0.00000000       0.00000000       0.00000000
I        4.49240333       4.43925921       2.71530184       0.00000000       0.00000000       0.00000000
24
Lattice="8.858511856002432 0.03659535019727714 -0.020792900041497992 0.03659535019727714 8.986635778536762 -0.002117493680224383 -0.014701050840843756 -0.0014971159475598256 6.385203076816874" Properties=species:S:1:pos:R:3:momenta:R:3 config_id=t-FAPI3_parity_01__strong_strain__sev-0.1 phase=t-FAPI3 mode=parity seed=4255478825 source=t-FAPI3/CONTCAR distortion_family=strong_strain distortion_severity=0.1 original_config_id=t-FAPI3_parity_01 distortion_label=strong_strain pbc="T T T"
C        4.43917556       4.51078101       3.63461119       0.00000000       0.00000000       0.00000000
C        0.02820731       8.98576982       3.64394421       0.00000000       0.00000000       0.00000000
N        5.26208262       5.34427429       3.02949091       0.00000000       0.00000000       0.00000000
N        3.61900195       3.67752671       3.03372800       0.00000000       0.00000000       0.00000000
N        0.84437833       8.15929606       3.03922279       0.00000000       0.00000000       0.00000000
N        8.03672002       0.86249713       3.02399858       0.00000000       0.00000000       0.00000000
H        4.43662731       4.51050868       4.73532511       0.00000000       0.00000000       0.00000000
H        5.85537070       5.94730903       3.59963590       0.00000000       0.00000000       0.00000000
H        5.35068052       5.43200165       2.00783741       0.00000000       0.00000000       0.00000000
H        3.53511854       3.59028838       2.01252127       0.00000000       0.00000000       0.00000000
H        3.02309747       3.07423987       3.60694117       0.00000000       0.00000000       0.00000000
H        0.02566996       8.98551509       4.74466035       0.00000000       0.00000000       0.00000000
H        1.43275524       7.56090430       3.60963771       0.00000000       0.00000000       0.00000000
H        0.93225378       8.07277122       2.01760132       0.00000000       0.00000000       0.00000000
H        7.95354327       0.94950872       2.00274256       0.00000000       0.00000000       0.00000000
H        7.44570493       1.46062588       3.59692676       0.00000000       0.00000000       0.00000000
Pb       0.01032671       4.47124981       6.35014091       0.00000000       0.00000000       0.00000000
Pb       4.39205859       0.03122828       6.24186802       0.00000000       0.00000000       0.00000000
I        0.02743432       4.47632121       3.10002889       0.00000000       0.00000000       0.00000000
I        4.47857296       8.99790010       3.09263587       0.00000000       0.00000000       0.00000000
I        1.89764812       2.03358654       6.31399921       0.00000000       0.00000000       0.00000000
I        2.51371439       6.42222645       0.03981754       0.00000000       0.00000000       0.00000000
I        6.37571336       2.56950804       6.27479551       0.00000000       0.00000000       0.00000000
I        6.93520311       7.02934175       6.35995701       0.00000000       0.00000000       0.00000000
24
Lattice="9.119460321346882 -0.027481878702919273 0.08348976845952812 -0.027481878702919273 9.018942975163128 -0.04458545688564569 0.059029155546566604 -0.031522926918803366 6.310277699739194" Properties=species:S:1:pos:R:3:momenta:R:3 config_id=t-FAPI3_parity_02__strong_strain__sev-0.2 phase=t-FAPI3 mode=parity seed=4238884694 source=t-FAPI3/CONTCAR distortion_family=strong_strain distortion_severity=0.2 original_config_id=t-FAPI3_parity_02 distortion_label=strong_strain pbc="T T T"
C        4.57971280       4.47775066       3.62273489       0.00000000       0.00000000       0.00000000
C        0.00623158       9.00093167       3.55869268       0.00000000       0.00000000       0.00000000
N        5.41383923       5.31114536       3.03039937       0.00000000       0.00000000       0.00000000
N        3.73439308       3.65026623       3.02321816       0.00000000       0.00000000       0.00000000
N        0.84545879       8.16839148       2.97460068       0.00000000       0.00000000       0.00000000
N        8.30278781       0.79301215       3.07901947       0.00000000       0.00000000       0.00000000
H        4.58987423       4.47230239       4.71053270       0.00000000       0.00000000       0.00000000
H        6.02688858       5.90936813       3.59796827       0.00000000       0.00000000       0.00000000
H        5.49255147       5.40336786       2.02133092       0.00000000       0.00000000       0.00000000
H        3.63680660       3.56813907       2.01339783       0.00000000       0.00000000       0.00000000
H        3.13193010       3.04641475       3.58559112       0.00000000       0.00000000       0.00000000
H        0.01640413       8.99550096       4.64649273       0.00000000       0.00000000       0.00000000
H        1.46216277       7.56086880       3.54811700       0.00000000       0.00000000       0.00000000
H        0.92469056       8.08573549       1.96638768       0.00000000       0.00000000       0.00000000
H        8.20466534       0.88576140       2.06832647       0.00000000       0.00000000       0.00000000
H        7.69664767       1.39489542       3.63542993       0.00000000       0.00000000       0.00000000
Pb       9.09482905       4.58446901       0.07054738       0.00000000       0.00000000       0.00000000
Pb       4.68843405       0.01558714       6.18076987       0.00000000       0.00000000       0.00000000
I        0.06247827       4.46917625       3.14883621       0.00000000       0.00000000       0.00000000
I        4.63718792       8.98819679       3.07312595       0.00000000       0.00000000       0.00000000
I        2.04063293       1.95084024       6.19454862       0.00000000       0.00000000       0.00000000
I        2.60430505       6.51816567       6.20619114       0.00000000       0.00000000       0.00000000
I        6.64925769       2.52051872       6.24676235       0.00000000       0.00000000       0.00000000
I        7.18884977       7.07018729       6.24709087       0.00000000       0.00000000       0.00000000
24
Lattice="8.70155822454454 -0.007828149184118702 -0.0951887178431526 -0.007828149184118702 8.695405075463826 0.0313047354207217 -0.06730057749010858 0.022133156320701324 6.211132567776313" Properties=species:S:1:pos:R:3:momenta:R:3 config_id=t-FAPI3_parity_03__strong_strain__sev-0.3 phase=t-FAPI3 mode=parity seed=348916518 source=t-FAPI3/CONTCAR distortion_family=strong_strain distortion_severity=0.3 original_config_id=t-FAPI3_parity_03 distortion_label=strong_strain pbc="T T T"
C        4.30845132       4.35644648       3.51472692       0.00000000       0.00000000       0.00000000
C       -0.04625149       8.70803274       3.57796906       0.00000000       0.00000000       0.00000000
N        5.11772733       5.15670841       2.92226131       0.00000000       0.00000000       0.00000000
N        3.51184446       3.55196201       2.93406679       0.00000000       0.00000000       0.00000000
N        0.76449368       7.90212223       2.97972830       0.00000000       0.00000000       0.00000000
N        7.86509167       0.80654056       2.87660204       0.00000000       0.00000000       0.00000000
H        4.29683602       4.36024819       4.58543375       0.00000000       0.00000000       0.00000000
H        5.69284479       5.73942158       3.47408258       0.00000000       0.00000000       0.00000000
H        5.21278697       5.23740121       1.92805633       0.00000000       0.00000000       0.00000000
H        3.43832759       3.46419766       1.94110301       0.00000000       0.00000000       0.00000000
H        2.92469157       2.97322745       3.49443389       0.00000000       0.00000000       0.00000000
H       -0.05785619       8.71185143       4.64867802       0.00000000       0.00000000       0.00000000
H        1.34063941       7.32234370       3.52735180       0.00000000       0.00000000       0.00000000
H        0.85969254       7.81420988       1.98490765       0.00000000       0.00000000       0.00000000
H        7.79142020       0.88737919       1.88423728       0.00000000       0.00000000       0.00000000
H        7.27688930       1.39028723       3.44115242       0.00000000       0.00000000       0.00000000
Pb      -0.04971965       4.38231646       6.14262195       0.00000000       0.00000000       0.00000000
Pb       4.36186415       8.62766197       0.00115285       0.00000000       0.00000000       0.00000000
I        8.62492533       4.36666781       2.94987672       0.00000000       0.00000000       0.00000000
I        4.34624895       0.07698973       3.03484528       0.00000000       0.00000000       0.00000000
I        1.89885540       1.90896312       6.12805137       0.00000000       0.00000000       0.00000000
I        2.37524967       6.19071004       6.03217893       0.00000000       0.00000000       0.00000000
I        6.15507865       2.48488223       6.08435753       0.00000000       0.00000000       0.00000000
I        6.86361699       6.93161066       6.11981580       0.00000000       0.00000000       0.00000000
24
Lattice="9.270518679537103 0.04467039568108651 -0.11511875883147372 0.04467039568108651 9.125193068364968 -0.09072452682687278 -0.0813915674551765 -0.06414429342378844 6.183475382870264" Properties=species:S:1:pos:R:3:momenta:R:3 config_id=t-FAPI3_parity_04__strong_strain__sev-0.4 phase=t-FAPI3 mode=parity seed=1832606906 source=t-FAPI3/CONTCAR distortion_family=strong_strain distortion_severity=0.4 original_config_id=t-FAPI3_parity_04 distortion_label=strong_strain pbc="T T T"
C        4.61113578       4.54832483       3.42795421       0.00000000       0.00000000       0.00000000
C       -0.00179879       9.08855432       3.44014720       0.00000000       0.00000000       0.00000000
N        5.47913813       5.40127679       2.82498964       0.00000000       0.00000000       0.00000000
N        3.75846100       3.70744362       2.86301746       0.00000000       0.00000000       0.00000000
N        0.85797695       8.25594555       2.85394805       0.00000000       0.00000000       0.00000000
N        8.37963657       0.85276691       2.83406135       0.00000000       0.00000000       0.00000000
H        4.59709042       4.53725284       4.49389357       0.00000000       0.00000000       0.00000000
H        6.09453620       6.00850445       3.36484529       0.00000000       0.00000000       0.00000000
H        5.58247750       5.50044745       1.83383252       0.00000000       0.00000000       0.00000000
H        3.68117340       3.62880527       1.87585420       0.00000000       0.00000000       0.00000000
H        3.12850544       3.08874627       3.43039753       0.00000000       0.00000000       0.00000000
H       -0.01583275       9.07750018       4.50608843       0.00000000       0.00000000       0.00000000
H        1.46738356       7.64322306       3.40592015       0.00000000       0.00000000       0.00000000
H        0.96043678       8.17817745       1.86454149       0.00000000       0.00000000       0.00000000
H        8.30321214       0.95106517       1.84513102       0.00000000       0.00000000       0.00000000
H        7.75564983       1.45400878       3.38931073       0.00000000       0.00000000       0.00000000
Pb       9.20328722       4.72429335      -0.13261473       0.00000000       0.00000000       0.00000000
Pb       4.60627754       9.01231289       5.94623895       0.00000000       0.00000000       0.00000000
I        0.01915749       4.50465602       3.04574144       0.00000000       0.00000000       0.00000000
I        4.41874022       0.03333786       2.94769592       0.00000000       0.00000000       0.00000000
I        1.95035855       1.90298271       6.04286834       0.00000000       0.00000000       0.00000000
I        2.61322685       6.46612609       5.95108458       0.00000000       0.00000000       0.00000000
I        6.65614870       2.53854249       5.95777491       0.00000000       0.00000000       0.00000000
I        7.30531675       7.13756502       5.85526309       0.00000000       0.00000000       0.00000000
24
Lattice="9.27251783497216 0.12481743648645026 -0.08921906020990239 0.12481743648645026 8.846051618564283 0.03381763873411051 -0.06307989445918492 0.02390983582642323 6.337499967684343" Properties=species:S:1:pos:R:3:momenta:R:3 config_id=t-FAPI3_parity_05__strong_strain__sev-0.5 phase=t-FAPI3 mode=parity seed=1355814110 source=t-FAPI3/CONTCAR distortion_family=strong_strain distortion_severity=0.5 original_config_id=t-FAPI3_parity_05 distortion_label=strong_strain pbc="T T T"
C        4.66266536       4.49910764       3.59112629       0.00000000       0.00000000       0.00000000
C        0.08880444       8.85969371       3.65263994       0.00000000       0.00000000       0.00000000
N        5.53652512       5.32536559       2.98751023       0.00000000       0.00000000       0.00000000
N        3.80067416       3.66829022       2.99774895       0.00000000       0.00000000       0.00000000
N        0.93963324       8.05195288       3.04278475       0.00000000       0.00000000       0.00000000
N        8.39758037       0.94169537       2.94247673       0.00000000       0.00000000       0.00000000
H        4.65177653       4.50321519       4.68361696       0.00000000       0.00000000       0.00000000
H        6.15905381       5.92717484       3.55121240       0.00000000       0.00000000       0.00000000
H        5.63773166       5.40852095       1.97317270       0.00000000       0.00000000       0.00000000
H        3.71966089       3.57749522       1.98448818       0.00000000       0.00000000       0.00000000
H        3.16686707       3.07077823       3.56886299       0.00000000       0.00000000       0.00000000
H        0.07792717       8.86381869       4.74513280       0.00000000       0.00000000       0.00000000
H        1.54545555       7.47113015       3.60195290       0.00000000       0.00000000       0.00000000
H        1.03840616       7.96358183       2.02778262       0.00000000       0.00000000       0.00000000
H        8.31898429       1.02242433       1.92986355       0.00000000       0.00000000       0.00000000
H        7.78045688       1.52680437       3.51810997       0.00000000       0.00000000       0.00000000
Pb       9.25710174       4.56539652       6.07546054       0.00000000       0.00000000       0.00000000
Pb       4.65839378       8.88955196       0.00136133       0.00000000       0.00000000       0.00000000
I        0.11694210       4.42544365       3.14984234       0.00000000       0.00000000       0.00000000
I        4.77630018       8.84232296       3.13046250       0.00000000       0.00000000       0.00000000
I        2.02031654       1.93594072       6.26487970       0.00000000       0.00000000       0.00000000
I        2.58587366       6.45974106       6.24214667       0.00000000       0.00000000       0.00000000
I        6.63539457       2.65135210       6.17226744       0.00000000       0.00000000       0.00000000
I        7.44933416       7.00430549      -0.01861919       0.00000000       0.00000000       0.00000000
24
Lattice="9.137048395399248 -0.1464335980089289 -0.12597076368716473 -0.1464335980089289 8.83731102373839 0.005869615118169142 -0.08906418045241107 0.004149950708952338 6.359314926256378" Properties=species:S:1:pos:R:3:momenta:R:3 config_id=t-FAPI3_parity_06__strong_strain__sev-0.6 phase=t-FAPI3 mode=parity seed=1804874125 source=t-FAPI3/CONTCAR distortion_family=strong_strain distortion_severity=0.6 original_config_id=t-FAPI3_parity_06 distortion_label=strong_strain pbc="T T T"
C        4.44446676       4.34782805       3.57123303       0.00000000       0.00000000       0.00000000
C       -0.19728384       8.83966969       3.63714865       0.00000000       0.00000000       0.00000000
N        5.28321724       5.15009310       2.95958140       0.00000000       0.00000000       0.00000000
N        3.62249460       3.54473703       2.98177129       0.00000000       0.00000000       0.00000000
N        0.66853944       8.00954973       3.02442022       0.00000000       0.00000000       0.00000000
N        8.23718674       0.68527242       2.91693474       0.00000000       0.00000000       0.00000000
H        4.42909927       4.34852973       4.66748438       0.00000000       0.00000000       0.00000000
H        5.87623180       5.73141684       3.52091175       0.00000000       0.00000000       0.00000000
H        5.38463694       5.23369465       1.94112683       0.00000000       0.00000000       0.00000000
H        3.54958102       3.45981741       1.96564807       0.00000000       0.00000000       0.00000000
H        3.01354808       2.96417177       3.55916329       0.00000000       0.00000000       0.00000000
H       -0.21264048       8.84038844       4.73340209       0.00000000       0.00000000       0.00000000
H        1.28111160       7.40941064       3.58495298       0.00000000       0.00000000       0.00000000
H        0.77278536       7.92179477       2.00584300       0.00000000       0.00000000       0.00000000
H        8.16143090       0.77170739       1.90091717       0.00000000       0.00000000       0.00000000
H        7.60866055       1.28615972       3.49510959       0.00000000       0.00000000       0.00000000
Pb       8.91074202       4.25423032       6.15011557       0.00000000       0.00000000       0.00000000
Pb       4.64631500       0.04586035       6.25392058       0.00000000       0.00000000       0.00000000
I       -0.10371834       4.46406047       3.07279273       0.00000000       0.00000000       0.00000000
I        4.40241674       8.64223376       3.14088492       0.00000000       0.00000000       0.00000000
I        1.82395087       1.77022459       6.24382562       0.00000000       0.00000000       0.00000000
I        2.55227471       6.33504278      -0.00699307       0.00000000       0.00000000       0.00000000
I        6.45649470       2.39040123       0.00896688       0.00000000       0.00000000       0.00000000
I        7.00267012       6.85293708       6.08164837       0.00000000       0.00000000       0.00000000
24
Lattice="8.847961550771217 -0.0684815383911625 0.13477651361904386 -0.0684815383911625 9.342822405994431 -0.06955275593582982 0.0952900449148935 -0.04917537231904892 6.111031910627036" Properties=species:S:1:pos:R:3:momenta:R:3 config_id=t-FAPI3_parity_07__strong_strain__sev-0.7 phase=t-FAPI3 mode=parity seed=3860205948 source=t-FAPI3/CONTCAR distortion_family=strong_strain distortion_severity=0.7 original_config_id=t-FAPI3_parity_07 distortion_label=strong_strain pbc="T T T"
C        4.44416861       4.60911134       3.52212171       0.00000000       0.00000000       0.00000000
C       -0.01406263       9.31473082       3.41995265       0.00000000       0.00000000       0.00000000
N        5.24600946       5.47029881       2.95103328       0.00000000       0.00000000       0.00000000
N        3.62428723       3.75716686       2.93899025       0.00000000       0.00000000       0.00000000
N        0.80045157       8.45015786       2.86171948       0.00000000       0.00000000       0.00000000
N        8.06985903       0.77729949       3.02830670       0.00000000       0.00000000       0.00000000
H        4.46058137       4.60061960       4.57557247       0.00000000       0.00000000       0.00000000
H        5.84141596       6.08585057       3.50252277       0.00000000       0.00000000       0.00000000
H        5.31589115       5.56808790       1.97409307       0.00000000       0.00000000       0.00000000
H        3.52392973       3.67512107       1.96078773       0.00000000       0.00000000       0.00000000
H        3.04595954       3.13282598       3.48176498       0.00000000       0.00000000       0.00000000
H        0.00236085       9.30625722       4.47340560       0.00000000       0.00000000       0.00000000
H        1.40499446       7.81666474       3.42249457       0.00000000       0.00000000       0.00000000
H        0.87164812       8.36678847       1.88611905       0.00000000       0.00000000       0.00000000
H        7.96817061       0.87641015       2.04874764       0.00000000       0.00000000       0.00000000
H        7.48237306       1.40199255       3.56178111       0.00000000       0.00000000       0.00000000
Pb       8.79967421       4.53554355       6.19217406       0.00000000       0.00000000       0.00000000
Pb       4.51961114       9.15908953       5.91086058       0.00000000       0.00000000       0.00000000
I        0.04086056       4.68770741       3.00281312       0.00000000       0.00000000       0.00000000
I        4.40680759       9.24725080       2.94283308       0.00000000       0.00000000       0.00000000
I        2.18290137       1.96010145       6.03851744       0.00000000       0.00000000       0.00000000
I        2.57284071       6.73587568       5.99188796       0.00000000       0.00000000       0.00000000
I        6.60151109       2.68123546       6.14085325       0.00000000       0.00000000       0.00000000
I        6.95622044       7.28872640       0.07506211       0.00000000       0.00000000       0.00000000
24
Lattice="9.322924539707627 -0.02540797571392129 -0.051042074245930026 -0.02540797571392129 8.486546891548835 0.07735627830708666 -0.03608790149589348 0.05469263921729558 6.496365805665003" Properties=species:S:1:pos:R:3:momenta:R:3 config_id=t-FAPI3_parity_08__strong_strain__sev-0.8 phase=t-FAPI3 mode=parity seed=2457624872 source=t-FAPI3/CONTCAR distortion_family=strong_strain distortion_severity=0.8 original_config_id=t-FAPI3_parity_08 distortion_label=strong_strain pbc="T T T"
C        4.62816868       4.26181902       3.72269954       0.00000000       0.00000000       0.00000000
C       -0.04600785       8.51776683       3.78689371       0.00000000       0.00000000       0.00000000
N        5.49026049       5.03809314       3.11162750       0.00000000       0.00000000       0.00000000
N        3.77284781       3.47517380       3.10677204       0.00000000       0.00000000       0.00000000
N        0.82080207       7.72644776       3.16154057       0.00000000       0.00000000       0.00000000
N        8.44232078       0.78681173       3.05686134       0.00000000       0.00000000       0.00000000
H        4.62193303       4.27123386       4.84257618       0.00000000       0.00000000       0.00000000
H        6.10853331       5.60858489       3.69501553       0.00000000       0.00000000       0.00000000
H        5.58618134       5.11138194       2.07266873       0.00000000       0.00000000       0.00000000
H        3.68848440       3.38439623       2.06730560       0.00000000       0.00000000       0.00000000
H        3.14812970       2.91449049       3.68664747       0.00000000       0.00000000       0.00000000
H       -0.05223217       8.52719823       4.90677273       0.00000000       0.00000000       0.00000000
H        1.44245203       7.16237009       3.73457349       0.00000000       0.00000000       0.00000000
H        0.91720208       7.63518118       2.12107272       0.00000000       0.00000000       0.00000000
H        8.35746165       0.86058736       2.01888647       0.00000000       0.00000000       0.00000000
H        7.81420274       1.36068757       3.64707655       0.00000000       0.00000000       0.00000000
Pb       9.25244268       4.19121044       6.43603171       0.00000000       0.00000000       0.00000000
Pb       4.49279727       0.00091786       0.04080096       0.00000000       0.00000000       0.00000000
I        0.10517883       4.13284122       3.19965976       0.00000000       0.00000000       0.00000000
I        4.64967426       0.04155648       3.13909143       0.00000000       0.00000000       0.00000000
I        2.04014944       1.94389748       6.48653788       0.00000000       0.00000000       0.00000000
I        2.55844228       6.27111275       6.49769989       0.00000000       0.00000000       0.00000000
I        6.60023055       2.49114443       6.34905050       0.00000000       0.00000000       0.00000000
I        7.46695426       6.62504109       6.49317950       0.00000000       0.00000000       0.00000000
24
Lattice="8.45099518974411 0.21728451078090036 -0.19213871627569837 0.21728451078090036 8.547878542722232 0.21399150977990833 -0.13584642021200227 0.15129683971475028 6.651059468305319" Properties=species:S:1:pos:R:3:momenta:R:3 config_id=t-FAPI3_parity_09__strong_strain__sev-0.9 phase=t-FAPI3 mode=parity seed=2273139889 source=t-FAPI3/CONTCAR distortion_family=strong_strain distortion_severity=0.9 original_config_id=t-FAPI3_parity_09 distortion_label=strong_strain pbc="T T T"
C        4.25658526       4.46899443       3.80880176       0.00000000       0.00000000       0.00000000
C        0.13971984       8.63426126       4.01186143       0.00000000       0.00000000       0.00000000
N        5.06998408       5.26422399       3.18270875       0.00000000       0.00000000       0.00000000
N        3.46880229       3.64514619       3.17867752       0.00000000       0.00000000       0.00000000
N        0.91300537       7.85056952       3.34624856       0.00000000       0.00000000       0.00000000
N        7.62579395       1.05879357       3.01513982       0.00000000       0.00000000       0.00000000
H        4.23315371       4.49506191       4.95534529       0.00000000       0.00000000       0.00000000
H        5.63726328       5.86368771       3.77964850       0.00000000       0.00000000       0.00000000
H        5.17576212       5.32500695       2.11896061       0.00000000       0.00000000       0.00000000
H        3.40649728       3.53596761       2.11450827       0.00000000       0.00000000       0.00000000
H        2.87721354       3.07278975       3.77270125       0.00000000       0.00000000       0.00000000
H        0.11629900       8.66034576       5.15840749       0.00000000       0.00000000       0.00000000
H        1.45121811       7.30726366       3.91456636       0.00000000       0.00000000       0.00000000
H        1.01455813       7.74560737       2.27834193       0.00000000       0.00000000       0.00000000
H        7.56769943       1.11535720       1.95511133       0.00000000       0.00000000       0.00000000
H        7.06325094       1.62919555       3.63776996       0.00000000       0.00000000       0.00000000
Pb       8.21472573       4.55451956       6.44016849       0.00000000       0.00000000       0.00000000
Pb       4.05507268       0.30405723       6.52598619       0.00000000       0.00000000       0.00000000
I        8.39261486       4.73029504       3.18212888       0.00000000       0.00000000       0.00000000
I        4.28354443       0.35582576       3.24504445       0.00000000       0.00000000       0.00000000
I        1.88146294       2.06904898       6.60640164       0.00000000       0.00000000       0.00000000
I        2.32896735       6.13387951       6.60609471       0.00000000       0.00000000       0.00000000
I        6.11471547       2.54888100       0.07461758       0.00000000       0.00000000       0.00000000
I        6.65520362       6.98588498       6.56660885       0.00000000       0.00000000       0.00000000
24
Lattice="9.17753525969506 0.2005941293136042 -0.19032952663185246 0.2005941293136042 9.419565649336207 -0.07102055997528335 -0.1345672821946105 -0.05021314298910152 6.63012571734944" Properties=species:S:1:pos:R:3:momenta:R:3 config_id=t-FAPI3_parity_10__strong_strain__sev-1.0 phase=t-FAPI3 mode=parity seed=3665231112 source=t-FAPI3/CONTCAR distortion_family=strong_strain distortion_severity=1.0 original_config_id=t-FAPI3_parity_10 distortion_label=strong_strain pbc="T T T"
C        4.61224182       4.78142888       3.65524613       0.00000000       0.00000000       0.00000000
C        0.12376043       9.39088159       3.71489618       0.00000000       0.00000000       0.00000000
N        5.49107890       5.67465290       3.00497450       0.00000000       0.00000000       0.00000000
N        3.75877555       3.89764219       3.05325575       0.00000000       0.00000000       0.00000000
N        0.96556912       8.54417025       3.07775069       0.00000000       0.00000000       0.00000000
N        8.28429943       1.02811687       2.98048190       0.00000000       0.00000000       0.00000000
H        4.58902966       4.77275770       4.79818144       0.00000000       0.00000000       0.00000000
H        6.10592339       6.31322843       3.58110898       0.00000000       0.00000000       0.00000000
H        5.60353496       5.77596102       1.94182921       0.00000000       0.00000000       0.00000000
H        3.68938417       3.81240981       1.99518080       0.00000000       0.00000000       0.00000000
H        3.11985184       3.25009232       3.66433576       0.00000000       0.00000000       0.00000000
H        0.10055983       9.38222902       4.85783346       0.00000000       0.00000000       0.00000000
H        1.55357696       7.92344051       3.66336662       0.00000000       0.00000000       0.00000000
H        1.07412247       8.46283145       2.01597337       0.00000000       0.00000000       0.00000000
H        8.21879467       1.12552889       1.92102139       0.00000000       0.00000000       0.00000000
H        7.67218989       1.63986059       3.58206532       0.00000000       0.00000000       0.00000000
Pb       8.99857755       4.81619460       6.33151492       0.00000000       0.00000000       0.00000000
Pb       4.52039726       0.12909958       6.45444511       0.00000000       0.00000000       0.00000000
I        9.15837817       4.93719761       2.98458726       0.00000000       0.00000000       0.00000000
I        4.52022021       0.08015154       3.10616211       0.00000000       0.00000000       0.00000000
I        1.89695833       2.31756963       6.46922943       0.00000000       0.00000000       0.00000000
I        2.66629124       6.85943879       6.38461254       0.00000000       0.00000000       0.00000000
I        6.81361839       2.74156347      -0.07166876       0.00000000       0.00000000       0.00000000
I        7.12064747       7.32156668       6.25406486       0.00000000       0.00000000       0.00000000
24
Lattice="8.951583967708043 0.0 0.0 0.0 8.951583967708043 0.0 0.0 0.0 6.328972425814492" Properties=species:S:1:pos:R:3:momenta:R:3 config_id=t-FAPI3_parity_11__global_rattle__sev-0.1 phase=t-FAPI3 mode=parity seed=516070498 source=t-FAPI3/CONTCAR distortion_family=global_rattle distortion_severity=0.1 original_config_id=t-FAPI3_parity_11 distortion_label=global_rattle pbc="T T T"
C        4.35550023       4.56343483       3.55747983       0.00000000       0.00000000       0.00000000
C        8.94840961       0.06900810       3.51422305       0.00000000       0.00000000       0.00000000
N        5.37692073       5.35661401       3.06826469       0.00000000       0.00000000       0.00000000
N        3.69329354       3.66708584       3.08061355       0.00000000       0.00000000       0.00000000
N        0.82695433       8.07065977       3.11953397       0.00000000       0.00000000       0.00000000
N        8.06873273       0.90597520       2.98544821       0.00000000       0.00000000       0.00000000
H        4.57883912       4.48654970       4.68060287       0.00000000       0.00000000       0.00000000
H        5.95620268       5.89888922       3.51477705       0.00000000       0.00000000       0.00000000
H        5.41609222       5.43919066       2.02919704       0.00000000       0.00000000       0.00000000
H        3.63936511       3.54378963       1.96075383       0.00000000       0.00000000       0.00000000
H        3.01917908       3.05343804       3.54651996       0.00000000       0.00000000       0.00000000
H        0.04264269       0.08285046       4.70134842       0.00000000       0.00000000       0.00000000
H        1.47935154       7.51236206       3.62488830       0.00000000       0.00000000       0.00000000
H        0.96735498       8.03981857       2.05751689       0.00000000       0.00000000       0.00000000
H        8.03365656       0.85438848       1.98109196       0.00000000       0.00000000       0.00000000
H        7.52603220       1.34539126       3.59883090       0.00000000       0.00000000       0.00000000
Pb       8.91212438       4.40406277       6.30498895       0.00000000       0.00000000       0.00000000
Pb       4.47078247       8.88011098       0.01596801       0.00000000       0.00000000       0.00000000
I        0.02836769       4.46148396       3.03734703       0.00000000       0.00000000       0.00000000
I        4.49988964       0.00807284       3.10167539       0.00000000       0.00000000       0.00000000
I        1.93246733       1.95483666       6.29336504       0.00000000       0.00000000       0.00000000
I        2.58740687       6.41523145       6.26829952       0.00000000       0.00000000       0.00000000
I        6.38798695       2.55652182       6.21901445       0.00000000       0.00000000       0.00000000
I        7.04931950       7.07544199       6.21115513       0.00000000       0.00000000       0.00000000
24
Lattice="8.951583967708043 0.0 0.0 0.0 8.951583967708043 0.0 0.0 0.0 6.328972425814492" Properties=species:S:1:pos:R:3:momenta:R:3 config_id=t-FAPI3_parity_12__global_rattle__sev-0.2 phase=t-FAPI3 mode=parity seed=347544039 source=t-FAPI3/CONTCAR distortion_family=global_rattle distortion_severity=0.2 original_config_id=t-FAPI3_parity_12 distortion_label=global_rattle pbc="T T T"
C        4.40087428       4.45479011       3.65159419       0.00000000       0.00000000       0.00000000
C        0.01448145       0.09396106       3.65096806       0.00000000       0.00000000       0.00000000
N        5.30061743       5.28599115       2.98009063       0.00000000       0.00000000       0.00000000
N        3.57055618       3.65627469       2.98476824       0.00000000       0.00000000       0.00000000
N        0.84570830       8.13839911       3.01980384       0.00000000       0.00000000       0.00000000
N        8.11448078       0.98293266       3.00193299       0.00000000       0.00000000       0.00000000
H        4.37849971       4.49551567       4.66454083       0.00000000       0.00000000       0.00000000
H        5.89420464       5.91241346       3.70529986       0.00000000       0.00000000       0.00000000
H        5.46217897       5.52091227       1.91787945       0.00000000       0.00000000       0.00000000
H        3.67826506       3.47790770       1.97661336       0.00000000       0.00000000       0.00000000
H        3.10699757       2.94295365       3.53663008       0.00000000       0.00000000       0.00000000
H        0.05078743       0.01168910       4.76045369       0.00000000       0.00000000       0.00000000
H        1.38951589       7.49004257       3.50373567       0.00000000       0.00000000       0.00000000
H        0.85765374       8.10552322       1.93120925       0.00000000       0.00000000       0.00000000
H        7.97697054       0.99244564       2.03012034       0.00000000       0.00000000       0.00000000
H        7.47213165       1.38891753       3.54193281       0.00000000       0.00000000       0.00000000
Pb       0.03405009       4.40055798       6.24482474       0.00000000       0.00000000       0.00000000
Pb       4.55725180       8.92066519       6.26768354       0.00000000       0.00000000       0.00000000
I        8.93098344       4.43267393       3.24267399       0.00000000       0.00000000       0.00000000
I        4.51440955       8.94890986       3.06148357       0.00000000       0.00000000       0.00000000
I        1.89791669       2.05767532       6.21809414       0.00000000       0.00000000       0.00000000
I        2.48293237       6.38238714       6.16770830       0.00000000       0.00000000       0.00000000
I        6.33658519       2.57136559       6.30148815       0.00000000       0.00000000       0.00000000
I        7.04653082       7.07323399       0.00186782       0.00000000       0.00000000       0.00000000
24
Lattice="8.951583967708043 0.0 0.0 0.0 8.951583967708043 0.0 0.0 0.0 6.328972425814492" Properties=species:S:1:pos:R:3:momenta:R:3 config_id=t-FAPI3_parity_13__global_rattle__sev-0.3 phase=t-FAPI3 mode=parity seed=4169345450 source=t-FAPI3/CONTCAR distortion_family=global_rattle distortion_severity=0.3 original_config_id=t-FAPI3_parity_13 distortion_label=global_rattle pbc="T T T"
C        4.62097446       4.51375346       3.66635602       0.00000000       0.00000000       0.00000000
C        8.92025157       0.09622833       3.70129006       0.00000000       0.00000000       0.00000000
N        5.14491754       5.28913367       2.99648021       0.00000000       0.00000000       0.00000000
N        3.60394905       3.63057565       3.13697291       0.00000000       0.00000000       0.00000000
N        0.86203188       8.09334807       2.93248145       0.00000000       0.00000000       0.00000000
N        8.08551448       0.78519664       3.05736824       0.00000000       0.00000000       0.00000000
H        4.41298479       4.65907084       4.53352402       0.00000000       0.00000000       0.00000000
H        5.87351979       6.01753422       3.44286218       0.00000000       0.00000000       0.00000000
H        5.34102774       5.38787877       2.03224945       0.00000000       0.00000000       0.00000000
H        3.59701587       3.53580097       2.06646710       0.00000000       0.00000000       0.00000000
H        3.03543578       3.09909394       3.61690240       0.00000000       0.00000000       0.00000000
H        8.88882976       0.00627195       4.69530882       0.00000000       0.00000000       0.00000000
H        1.30452668       7.46764801       3.73451592       0.00000000       0.00000000       0.00000000
H        0.79109474       8.02477250       1.99065210       0.00000000       0.00000000       0.00000000
H        8.03642768       0.89541250       1.89593356       0.00000000       0.00000000       0.00000000
H        7.44023485       1.44527911       3.58386949       0.00000000       0.00000000       0.00000000
Pb       8.92636364       4.37087996       6.27034975       0.00000000       0.00000000       0.00000000
Pb       4.47927057       0.09486845       6.29583708       0.00000000       0.00000000       0.00000000
I        8.78031312       4.50674677       3.20041313       0.00000000       0.00000000       0.00000000
I        4.63284287       0.00707267       3.12112574       0.00000000       0.00000000       0.00000000
I        1.97696207       1.96569419       6.27605122       0.00000000       0.00000000       0.00000000
I        2.57316287       6.43914706       0.00671166       0.00000000       0.00000000       0.00000000
I        6.48155627       2.42267936       6.31215219       0.00000000       0.00000000       0.00000000
I        7.06601298       6.97208965       6.27798512       0.00000000       0.00000000       0.00000000
24
Lattice="8.951583967708043 0.0 0.0 0.0 8.951583967708043 0.0 0.0 0.0 6.328972425814492" Properties=species:S:1:pos:R:3:momenta:R:3 config_id=t-FAPI3_parity_14__global_rattle__sev-0.4 phase=t-FAPI3 mode=parity seed=2130594558 source=t-FAPI3/CONTCAR distortion_family=global_rattle distortion_severity=0.4 original_config_id=t-FAPI3_parity_14 distortion_label=global_rattle pbc="T T T"
C        4.54809194       4.52995469       3.68755982       0.00000000       0.00000000       0.00000000
C        0.04058202       8.92376307       3.74419971       0.00000000       0.00000000       0.00000000
N        5.39006648       5.38504098       2.85895715       0.00000000       0.00000000       0.00000000
N        3.59140236       3.49409397       2.96387385       0.00000000       0.00000000       0.00000000
N        0.70859857       8.05277345       2.90759351       0.00000000       0.00000000       0.00000000
N        8.17418181       0.78359442       2.98623087       0.00000000       0.00000000       0.00000000
H        4.59876507       4.50404612       4.86352576       0.00000000       0.00000000       0.00000000
H        5.90477466       5.93437463       3.63897418       0.00000000       0.00000000       0.00000000
H        5.40189116       5.60370521       1.87504803       0.00000000       0.00000000       0.00000000
H        3.51661850       3.56725207       2.05351526       0.00000000       0.00000000       0.00000000
H        2.87322933       3.01395760       3.58456400       0.00000000       0.00000000       0.00000000
H        0.15311306       8.84982763       4.66458263       0.00000000       0.00000000       0.00000000
H        1.38768213       7.45887438       3.68059195       0.00000000       0.00000000       0.00000000
H        0.71194756       8.14234177       1.98637518       0.00000000       0.00000000       0.00000000
H        7.91167811       0.87565842       2.00680484       0.00000000       0.00000000       0.00000000
H        7.53669488       1.48969918       3.54391847       0.00000000       0.00000000       0.00000000
Pb       8.88862985       4.40605603       6.27109133       0.00000000       0.00000000       0.00000000
Pb       4.48477685       0.01662025       0.00891114       0.00000000       0.00000000       0.00000000
I        0.07068505       4.46192719       3.01030083       0.00000000       0.00000000       0.00000000
I        4.52359234       8.94188538       3.04431907       0.00000000       0.00000000       0.00000000
I        1.89685776       1.81640586       0.11061973       0.00000000       0.00000000       0.00000000
I        2.55414746       6.30898146       0.03073177       0.00000000       0.00000000       0.00000000
I        6.18920324       2.46825071       6.25296641       0.00000000       0.00000000       0.00000000
I        6.95980963       7.04642996       6.30692116       0.00000000       0.00000000       0.00000000
24
Lattice="8.951583967708043 0.0 0.0 0.0 8.951583967708043 0.0 0.0 0.0 6.328972425814492" Properties=species:S:1:pos:R:3:momenta:R:3 config_id=t-FAPI3_parity_15__global_rattle__sev-0.5 phase=t-FAPI3 mode=parity seed=158256243 source=t-FAPI3/CONTCAR distortion_family=global_rattle distortion_severity=0.5 original_config_id=t-FAPI3_parity_15 distortion_label=global_rattle pbc="T T T"
C        4.49959248       4.54560607       3.63506423       0.00000000       0.00000000       0.00000000
C        0.29786941       0.01707031       3.60432564       0.00000000       0.00000000       0.00000000
N        5.39241518       5.33988022       3.01875216       0.00000000       0.00000000       0.00000000
N        3.74921896       3.55665022       3.05181146       0.00000000       0.00000000       0.00000000
N        0.83117693       8.18307259       2.99764794       0.00000000       0.00000000       0.00000000
N        8.14449310       0.92926815       3.07289637       0.00000000       0.00000000       0.00000000
H        4.46276410       4.38588868       4.78337659       0.00000000       0.00000000       0.00000000
H        5.90440123       5.87955759       3.59516208       0.00000000       0.00000000       0.00000000
H        5.31995959       5.40990837       1.76693154       0.00000000       0.00000000       0.00000000
H        3.52967049       3.46281820       1.87608244       0.00000000       0.00000000       0.00000000
H        3.02816123       3.10064530       3.55326834       0.00000000       0.00000000       0.00000000
H        0.00276945       8.90286923       4.71670799       0.00000000       0.00000000       0.00000000
H        1.44318384       7.62080102       3.63413366       0.00000000       0.00000000       0.00000000
H        0.95941129       7.89604369       1.98423765       0.00000000       0.00000000       0.00000000
H        8.09003363       0.71022726       1.99037009       0.00000000       0.00000000       0.00000000
H        7.60516337       1.39057718       3.49279032       0.00000000       0.00000000       0.00000000
Pb       8.66643633       4.67845825       6.24018363       0.00000000       0.00000000       0.00000000
Pb       4.38669116       8.85972713       6.23536982       0.00000000       0.00000000       0.00000000
I        0.09570253       4.66009178       3.09376802       0.00000000       0.00000000       0.00000000
I        4.66457073       8.91970962       3.14696781       0.00000000       0.00000000       0.00000000
I        1.91941123       2.02228099       0.03512858       0.00000000       0.00000000       0.00000000
I        2.43365377       6.34110758       6.20950559       0.00000000       0.00000000       0.00000000
I        6.47093274       2.40851229       6.21307892       0.00000000       0.00000000       0.00000000
I        7.08742249       7.06598781       6.21797736       0.00000000       0.00000000       0.00000000
24
Lattice="8.951583967708043 0.0 0.0 0.0 8.951583967708043 0.0 0.0 0.0 6.328972425814492" Properties=species:S:1:pos:R:3:momenta:R:3 config_id=t-FAPI3_parity_16__global_rattle__sev-0.6 phase=t-FAPI3 mode=parity seed=896969109 source=t-FAPI3/CONTCAR distortion_family=global_rattle distortion_severity=0.6 original_config_id=t-FAPI3_parity_16 distortion_label=global_rattle pbc="T T T"
C        4.46858204       4.53906848       3.38111197       0.00000000       0.00000000       0.00000000
C        0.01286029       8.93948674       3.63002633       0.00000000       0.00000000       0.00000000
N        5.38605621       5.38236890       2.98123523       0.00000000       0.00000000       0.00000000
N        3.76331158       3.68372696       2.84246698       0.00000000       0.00000000       0.00000000
N        0.69428699       7.98607468       3.10912275       0.00000000       0.00000000       0.00000000
N        8.11123618       0.80331434       3.06681991       0.00000000       0.00000000       0.00000000
H        4.45820866       4.38497857       4.57107506       0.00000000       0.00000000       0.00000000
H        5.87318064       5.84876786       3.63754203       0.00000000       0.00000000       0.00000000
H        5.40987711       5.47072421       1.94214258       0.00000000       0.00000000       0.00000000
H        3.62375178       3.63920062       1.97213659       0.00000000       0.00000000       0.00000000
H        3.03453159       3.16407405       3.69829112       0.00000000       0.00000000       0.00000000
H        0.01076303       0.08345230       4.65642004       0.00000000       0.00000000       0.00000000
H        1.48462980       7.51488693       3.37616175       0.00000000       0.00000000       0.00000000
H        0.92567302       7.76814990       2.19357013       0.00000000       0.00000000       0.00000000
H        7.85587961       1.02507140       1.97788664       0.00000000       0.00000000       0.00000000
H        7.34232315       1.08607263       3.52687184       0.00000000       0.00000000       0.00000000
Pb       8.93391828       4.72646160       6.15641624       0.00000000       0.00000000       0.00000000
Pb       4.33812831       0.01047773       0.03087860       0.00000000       0.00000000       0.00000000
I        8.81129963       4.58435407       3.18368081       0.00000000       0.00000000       0.00000000
I        4.41723887       8.76297982       2.94655366       0.00000000       0.00000000       0.00000000
I        1.65859107       2.09045133       6.10565361       0.00000000       0.00000000       0.00000000
I        2.47686388       6.38998021       6.25211251       0.00000000       0.00000000       0.00000000
I        6.37723453       2.57377364       6.11931485       0.00000000       0.00000000       0.00000000
I        6.94771665       6.80025257       0.10273596       0.00000000       0.00000000       0.00000000
24
Lattice="8.951583967708043 0.0 0.0 0.0 8.951583967708043 0.0 0.0 0.0 6.328972425814492" Properties=species:S:1:pos:R:3:momenta:R:3 config_id=t-FAPI3_parity_17__global_rattle__sev-0.7 phase=t-FAPI3 mode=parity seed=2393940992 source=t-FAPI3/CONTCAR distortion_family=global_rattle distortion_severity=0.7 original_config_id=t-FAPI3_parity_17 distortion_label=global_rattle pbc="T T T"
C        4.35849318       4.51977960       3.62383539       0.00000000       0.00000000       0.00000000
C        0.06783597       0.07593031       3.57676062       0.00000000       0.00000000       0.00000000
N        5.50337928       5.24230916       3.00190490       0.00000000       0.00000000       0.00000000
N        3.77970978       3.68894094       3.10126910       0.00000000       0.00000000       0.00000000
N        0.79074376       8.23408805       3.09169074       0.00000000       0.00000000       0.00000000
N        8.30650674       0.69616643       2.97488609       0.00000000       0.00000000       0.00000000
H        4.43882424       4.53473108       4.74487137       0.00000000       0.00000000       0.00000000
H        5.73538746       5.93585454       3.55280380       0.00000000       0.00000000       0.00000000
H        5.33641977       5.27992938       2.10684970       0.00000000       0.00000000       0.00000000
H        3.60702908       3.59089753       1.99803468       0.00000000       0.00000000       0.00000000
H        3.11661427       3.01046799       3.67086473       0.00000000       0.00000000       0.00000000
H        8.92933601       0.03002295       4.83799177       0.00000000       0.00000000       0.00000000
H        1.38673759       7.40064636       3.51145529       0.00000000       0.00000000       0.00000000
H        1.03476987       7.83834316       2.26149149       0.00000000       0.00000000       0.00000000
H        8.16986419       0.51763137       1.85663396       0.00000000       0.00000000       0.00000000
H        7.53013567       1.36569917       3.73342552       0.00000000       0.00000000       0.00000000
Pb       0.03391227       4.44001339       0.05166151       0.00000000       0.00000000       0.00000000
Pb       4.54079399       0.17550188       6.24486379       0.00000000       0.00000000       0.00000000
I        0.08964312       4.73582574       3.26627393       0.00000000       0.00000000       0.00000000
I        4.53879049       0.03725439       3.33237251       0.00000000       0.00000000       0.00000000
I        1.73983736       1.85627779       6.26780886       0.00000000       0.00000000       0.00000000
I        2.40166476       6.34567816       6.16004324       0.00000000       0.00000000       0.00000000
I        6.53239637       2.32857879       0.02998416       0.00000000       0.00000000       0.00000000
I        6.92618901       6.78604945       6.28200656       0.00000000       0.00000000       0.00000000
24
Lattice="8.951583967708043 0.0 0.0 0.0 8.951583967708043 0.0 0.0 0.0 6.328972425814492" Properties=species:S:1:pos:R:3:momenta:R:3 config_id=t-FAPI3_parity_18__global_rattle__sev-0.8 phase=t-FAPI3 mode=parity seed=2856594127 source=t-FAPI3/CONTCAR distortion_family=global_rattle distortion_severity=0.8 original_config_id=t-FAPI3_parity_18 distortion_label=global_rattle pbc="T T T"
C        4.42768248       4.52148639       3.65418997       0.00000000       0.00000000       0.00000000
C        0.24974234       8.86558911       3.44292465       0.00000000       0.00000000       0.00000000
N        5.40028789       5.30949295       2.96360296       0.00000000       0.00000000       0.00000000
N        3.49129755       3.58774555       3.17809668       0.00000000       0.00000000       0.00000000
N        0.97779467       8.12481678       3.15062208       0.00000000       0.00000000       0.00000000
N        8.34914782       0.73359946       2.87612355       0.00000000       0.00000000       0.00000000
H        4.40910583       4.33577753       4.46144616       0.00000000       0.00000000       0.00000000
H        5.79465444       5.87278435       3.64682693       0.00000000       0.00000000       0.00000000
H        5.44703156       5.57564765       2.05897416       0.00000000       0.00000000       0.00000000
H        3.67468735       3.64401952       1.99041349       0.00000000       0.00000000       0.00000000
H        3.30885462       3.09663239       3.76348921       0.00000000       0.00000000       0.00000000
H        0.28559558       0.11725067       4.65432839       0.00000000       0.00000000       0.00000000
H        1.37081380       7.34495207       3.62149450       0.00000000       0.00000000       0.00000000
H        0.93052156       8.04039551       2.14748466       0.00000000       0.00000000       0.00000000
H        7.92090925       0.88409385       1.97716625       0.00000000       0.00000000       0.00000000
H        7.67177020       1.46643730       3.58485883       0.00000000       0.00000000       0.00000000
Pb       8.93229440       4.63609060       6.12356802       0.00000000       0.00000000       0.00000000
Pb       4.44641819       0.02084783       6.08747002       0.00000000       0.00000000       0.00000000
I        0.02915150       4.32637705       3.21037478       0.00000000       0.00000000       0.00000000
I        4.57294251       0.06869721       3.15660223       0.00000000       0.00000000       0.00000000
I        1.92033062       2.07069018       0.03704947       0.00000000       0.00000000       0.00000000
I        2.37057945       6.10539634       6.00770028       0.00000000       0.00000000       0.00000000
I        6.51530943       2.57494828       0.05540792       0.00000000       0.00000000       0.00000000
I        7.31061974       7.00600221       6.12457122       0.00000000       0.00000000       0.00000000
24
Lattice="8.951583967708043 0.0 0.0 0.0 8.951583967708043 0.0 0.0 0.0 6.328972425814492" Properties=species:S:1:pos:R:3:momenta:R:3 config_id=t-FAPI3_parity_19__global_rattle__sev-0.9 phase=t-FAPI3 mode=parity seed=3966266754 source=t-FAPI3/CONTCAR distortion_family=global_rattle distortion_severity=0.9 original_config_id=t-FAPI3_parity_19 distortion_label=global_rattle pbc="T T T"
C        4.14705610       4.48967301       3.59990206       0.00000000       0.00000000       0.00000000
C        8.81461977       8.86554973       3.34721264       0.00000000       0.00000000       0.00000000
N        5.43674163       5.07355242       3.11732372       0.00000000       0.00000000       0.00000000
N        3.58751429       3.60624656       3.02890624       0.00000000       0.00000000       0.00000000
N        0.84892077       8.23760295       2.99440743       0.00000000       0.00000000       0.00000000
N        8.05554050       0.78579309       2.81990747       0.00000000       0.00000000       0.00000000
H        4.87122153       4.45350275       4.48859056       0.00000000       0.00000000       0.00000000
H        5.88866221       5.73141573       3.35724580       0.00000000       0.00000000       0.00000000
H        5.40617655       5.17346923       2.08461290       0.00000000       0.00000000       0.00000000
H        3.51992943       3.54448620       2.02233435       0.00000000       0.00000000       0.00000000
H        2.91980706       3.10145194       3.43131974       0.00000000       0.00000000       0.00000000
H        8.80937281       8.80420771       4.90155989       0.00000000       0.00000000       0.00000000
H        1.30253048       7.26180945       3.45459530       0.00000000       0.00000000       0.00000000
H        0.83239128       7.91179065       1.97300753       0.00000000       0.00000000       0.00000000
H        8.35068064       1.09311539       1.92521521       0.00000000       0.00000000       0.00000000
H        7.59248390       1.35812820       3.28565519       0.00000000       0.00000000       0.00000000
Pb       0.29990085       4.61054787       6.23980291       0.00000000       0.00000000       0.00000000
Pb       4.36066598       8.57489362       6.24750338       0.00000000       0.00000000       0.00000000
I        8.82577054       4.31126599       3.18668623       0.00000000       0.00000000       0.00000000
I        4.37307969       0.13707572       3.18331576       0.00000000       0.00000000       0.00000000
I        1.92635892       1.84729810       0.10088284       0.00000000       0.00000000       0.00000000
I        2.49061864       6.40099792       6.29730249       0.00000000       0.00000000       0.00000000
I        6.26567741       2.45198601       0.08998798       0.00000000       0.00000000       0.00000000
I        6.79977630       7.19583644       6.23039777       0.00000000       0.00000000       0.00000000
24
Lattice="8.951583967708043 0.0 0.0 0.0 8.951583967708043 0.0 0.0 0.0 6.328972425814492" Properties=species:S:1:pos:R:3:momenta:R:3 config_id=t-FAPI3_parity_20__global_rattle__sev-1.0 phase=t-FAPI3 mode=parity seed=3728018837 source=t-FAPI3/CONTCAR distortion_family=global_rattle distortion_severity=1.0 original_config_id=t-FAPI3_parity_20 distortion_label=global_rattle pbc="T T T"
C        4.50497931       4.37417319       3.60731541       0.00000000       0.00000000       0.00000000
C        0.18128141       8.65470442       3.76213577       0.00000000       0.00000000       0.00000000
N        5.11955861       4.92467499       2.53767199       0.00000000       0.00000000       0.00000000
N        3.50357333       3.32902678       2.92549677       0.00000000       0.00000000       0.00000000
N        0.91144615       8.23231259       3.00476008       0.00000000       0.00000000       0.00000000
N        8.24052360       0.82030207       2.86356284       0.00000000       0.00000000       0.00000000
H        4.48923260       4.47542196       4.83775456       0.00000000       0.00000000       0.00000000
H        5.70515400       5.79424740       3.56244910       0.00000000       0.00000000       0.00000000
H        5.34553802       5.49355168       2.04293017       0.00000000       0.00000000       0.00000000
H        3.70509118       3.56868936       2.13086094       0.00000000       0.00000000       0.00000000
H        3.22079725       2.75616518       3.54271592       0.00000000       0.00000000       0.00000000
H        0.02219622       8.93386292       4.71196503       0.00000000       0.00000000       0.00000000
H        1.37146770       7.80054172       3.44107787       0.00000000       0.00000000       0.00000000
H        0.80294042       8.11353999       1.91043800       0.00000000       0.00000000       0.00000000
H        7.88983260       0.88777059       2.06776592       0.00000000       0.00000000       0.00000000
H        7.56960921       1.40886322       3.68464270       0.00000000       0.00000000       0.00000000
Pb       0.03207133       4.06793229       0.20959117       0.00000000       0.00000000       0.00000000
Pb       4.35004473       0.07439415       6.10567172       0.00000000       0.00000000       0.00000000
I        0.04193538       4.61206850       2.77993893       0.00000000       0.00000000       0.00000000
I        4.91536700       0.01686201       3.18331483       0.00000000       0.00000000       0.00000000
I        1.87922379       2.07294669       0.00244025       0.00000000       0.00000000       0.00000000
I        2.73345221       6.45979965       0.10603541       0.00000000       0.00000000       0.00000000
I        6.79891825       2.48508488       0.00648967       0.00000000       0.00000000       0.00000000
I        6.95419574       6.79325688       6.21745301       0.00000000       0.00000000       0.00000000
24
Lattice="8.951583967708043 0.0 0.0 0.0 8.951583967708043 0.0 0.0 0.0 6.328972425814492" Properties=species:S:1:pos:R:3:momenta:R:3 config_id=t-FAPI3_parity_21__cage_rattle__sev-0.1 phase=t-FAPI3 mode=parity seed=2402465726 source=t-FAPI3/CONTCAR distortion_family=cage_rattle distortion_severity=0.1 original_config_id=t-FAPI3_parity_21 distortion_label=cage_rattle pbc="T T T"
C        4.47580859       4.47581216       3.61395771       0.00000000       0.00000000       0.00000000
C        0.00000663       8.95157291       3.61395304       0.00000000       0.00000000       0.00000000
N        5.30254330       5.30254700       3.01626364       0.00000000       0.00000000       0.00000000
N        3.64903041       3.64903389       3.01626875       0.00000000       0.00000000       0.00000000
N        0.82676527       8.12481519       3.01626668       0.00000000       0.00000000       0.00000000
N        8.12482240       0.82675785       3.01626817       0.00000000       0.00000000       0.00000000
H        4.47579450       4.47579803       4.70497827       0.00000000       0.00000000       0.00000000
H        5.90092284       5.90092643       3.58290570       0.00000000       0.00000000       0.00000000
H        5.38933710       5.38934018       2.00382741       0.00000000       0.00000000       0.00000000
H        3.56224778       3.56225067       2.00383502       0.00000000       0.00000000       0.00000000
H        3.05066699       3.05067030       3.58291603       0.00000000       0.00000000       0.00000000
H        0.00000348       8.95157626       4.70497583       0.00000000       0.00000000       0.00000000
H        1.42512586       7.52645430       3.58289565       0.00000000       0.00000000       0.00000000
H        0.91354605       8.03803590       2.00382148       0.00000000       0.00000000       0.00000000
H        8.03803680       0.91354491       2.00382628       0.00000000       0.00000000       0.00000000
H        7.52645594       1.42512382       3.58291356       0.00000000       0.00000000       0.00000000
Pb       0.01344688       4.40235444       6.26925631       0.00000000       0.00000000       0.00000000
Pb       4.54264384       0.00728704       6.31695204       0.00000000       0.00000000       0.00000000
I        0.09138381       4.60677917       3.09400581       0.00000000       0.00000000       0.00000000
I        4.47191620       8.90608566       2.97358135       0.00000000       0.00000000       0.00000000
I        1.92771478       1.91454672       0.00301403       0.00000000       0.00000000       0.00000000
I        2.48331151       6.44978656       6.29338300       0.00000000       0.00000000       0.00000000
I        6.38475647       2.46851822       6.25649395       0.00000000       0.00000000       0.00000000
I        6.94428369       7.05961409       6.24628182       0.00000000       0.00000000       0.00000000
24
Lattice="8.951583967708043 0.0 0.0 0.0 8.951583967708043 0.0 0.0 0.0 6.328972425814492" Properties=species:S:1:pos:R:3:momenta:R:3 config_id=t-FAPI3_parity_22__cage_rattle__sev-0.2 phase=t-FAPI3 mode=parity seed=1016570348 source=t-FAPI3/CONTCAR distortion_family=cage_rattle distortion_severity=0.2 original_config_id=t-FAPI3_parity_22 distortion_label=cage_rattle pbc="T T T"
C        4.47580859       4.47581216       3.61395771       0.00000000       0.00000000       0.00000000
C        0.00000663       8.95157291       3.61395304       0.00000000       0.00000000       0.00000000
N        5.30254330       5.30254700       3.01626364       0.00000000       0.00000000       0.00000000
N        3.64903041       3.64903389       3.01626875       0.00000000       0.00000000       0.00000000
N        0.82676527       8.12481519       3.01626668       0.00000000       0.00000000       0.00000000
N        8.12482240       0.82675785       3.01626817       0.00000000       0.00000000       0.00000000
H        4.47579450       4.47579803       4.70497827       0.00000000       0.00000000       0.00000000
H        5.90092284       5.90092643       3.58290570       0.00000000       0.00000000       0.00000000
H        5.38933710       5.38934018       2.00382741       0.00000000       0.00000000       0.00000000
H        3.56224778       3.56225067       2.00383502       0.00000000       0.00000000       0.00000000
H        3.05066699       3.05067030       3.58291603       0.00000000       0.00000000       0.00000000
H        0.00000348       8.95157626       4.70497583       0.00000000       0.00000000       0.00000000
H        1.42512586       7.52645430       3.58289565       0.00000000       0.00000000       0.00000000
H        0.91354605       8.03803590       2.00382148       0.00000000       0.00000000       0.00000000
H        8.03803680       0.91354491       2.00382628       0.00000000       0.00000000       0.00000000
H        7.52645594       1.42512382       3.58291356       0.00000000       0.00000000       0.00000000
Pb       0.00091790       4.63429174       6.28253249       0.00000000       0.00000000       0.00000000
Pb       4.54037094       0.02447919       6.22033534       0.00000000       0.00000000       0.00000000
I        0.01737224       4.51019840       2.99108795       0.00000000       0.00000000       0.00000000
I        4.40189997       8.88715233       3.24253772       0.00000000       0.00000000       0.00000000
I        2.11064714       1.93256205       6.12313405       0.00000000       0.00000000       0.00000000
I        2.44485680       6.47938003       6.30991867       0.00000000       0.00000000       0.00000000
I        6.40390467       2.49959563       6.24977385       0.00000000       0.00000000       0.00000000
I        6.94052907       7.02670926       0.04985570       0.00000000       0.00000000       0.00000000
24
Lattice="8.951583967708043 0.0 0.0 0.0 8.951583967708043 0.0 0.0 0.0 6.328972425814492" Properties=species:S:1:pos:R:3:momenta:R:3 config_id=t-FAPI3_parity_23__cage_rattle__sev-0.3 phase=t-FAPI3 mode=parity seed=2161517035 source=t-FAPI3/CONTCAR distortion_family=cage_rattle distortion_severity=0.3 original_config_id=t-FAPI3_parity_23 distortion_label=cage_rattle pbc="T T T"
C        4.47580859       4.47581216       3.61395771       0.00000000       0.00000000       0.00000000
C        0.00000663       8.95157291       3.61395304       0.00000000       0.00000000       0.00000000
N        5.30254330       5.30254700       3.01626364       0.00000000       0.00000000       0.00000000
N        3.64903041       3.64903389       3.01626875       0.00000000       0.00000000       0.00000000
N        0.82676527       8.12481519       3.01626668       0.00000000       0.00000000       0.00000000
N        8.12482240       0.82675785       3.01626817       0.00000000       0.00000000       0.00000000
H        4.47579450       4.47579803       4.70497827       0.00000000       0.00000000       0.00000000
H        5.90092284       5.90092643       3.58290570       0.00000000       0.00000000       0.00000000
H        5.38933710       5.38934018       2.00382741       0.00000000       0.00000000       0.00000000
H        3.56224778       3.56225067       2.00383502       0.00000000       0.00000000       0.00000000
H        3.05066699       3.05067030       3.58291603       0.00000000       0.00000000       0.00000000
H        0.00000348       8.95157626       4.70497583       0.00000000       0.00000000       0.00000000
H        1.42512586       7.52645430       3.58289565       0.00000000       0.00000000       0.00000000
H        0.91354605       8.03803590       2.00382148       0.00000000       0.00000000       0.00000000
H        8.03803680       0.91354491       2.00382628       0.00000000       0.00000000       0.00000000
H        7.52645594       1.42512382       3.58291356       0.00000000       0.00000000       0.00000000
Pb       0.10236590       4.19844809       6.29726006       0.00000000       0.00000000       0.00000000
Pb       4.38786407       8.90002169       6.22253798       0.00000000       0.00000000       0.00000000
I        8.86571093       4.32940237       2.99674893       0.00000000       0.00000000       0.00000000
I        4.58919444       8.90422964       3.03615521       0.00000000       0.00000000       0.00000000
I        1.93133398       1.91979042       6.26695555       0.00000000       0.00000000       0.00000000
I        2.42736151       6.53366119       6.30626397       0.00000000       0.00000000       0.00000000
I        6.53564413       2.52470089       0.00334002       0.00000000       0.00000000       0.00000000
I        6.99443781       7.08360638       6.30835486       0.00000000       0.00000000       0.00000000
24
Lattice="8.951583967708043 0.0 0.0 0.0 8.951583967708043 0.0 0.0 0.0 6.328972425814492" Properties=species:S:1:pos:R:3:momenta:R:3 config_id=t-FAPI3_parity_24__cage_rattle__sev-0.4 phase=t-FAPI3 mode=parity seed=1500961596 source=t-FAPI3/CONTCAR distortion_family=cage_rattle distortion_severity=0.4 original_config_id=t-FAPI3_parity_24 distortion_label=cage_rattle pbc="T T T"
C        4.47580859       4.47581216       3.61395771       0.00000000       0.00000000       0.00000000
C        0.00000663       8.95157291       3.61395304       0.00000000       0.00000000       0.00000000
N        5.30254330       5.30254700       3.01626364       0.00000000       0.00000000       0.00000000
N        3.64903041       3.64903389       3.01626875       0.00000000       0.00000000       0.00000000
N        0.82676527       8.12481519       3.01626668       0.00000000       0.00000000       0.00000000
N        8.12482240       0.82675785       3.01626817       0.00000000       0.00000000       0.00000000
H        4.47579450       4.47579803       4.70497827       0.00000000       0.00000000       0.00000000
H        5.90092284       5.90092643       3.58290570       0.00000000       0.00000000       0.00000000
H        5.38933710       5.38934018       2.00382741       0.00000000       0.00000000       0.00000000
H        3.56224778       3.56225067       2.00383502       0.00000000       0.00000000       0.00000000
H        3.05066699       3.05067030       3.58291603       0.00000000       0.00000000       0.00000000
H        0.00000348       8.95157626       4.70497583       0.00000000       0.00000000       0.00000000
H        1.42512586       7.52645430       3.58289565       0.00000000       0.00000000       0.00000000
H        0.91354605       8.03803590       2.00382148       0.00000000       0.00000000       0.00000000
H        8.03803680       0.91354491       2.00382628       0.00000000       0.00000000       0.00000000
H        7.52645594       1.42512382       3.58291356       0.00000000       0.00000000       0.00000000
Pb       8.88854580       4.54481843       6.26759419       0.00000000       0.00000000       0.00000000
Pb       4.55935993       0.10006949       6.27568602       0.00000000       0.00000000       0.00000000
I        0.01850567       4.47517716       3.27670955       0.00000000       0.00000000       0.00000000
I        4.71226859       8.93072873       2.94183507       0.00000000       0.00000000       0.00000000
I        1.89915263       1.76101711       6.29440532       0.00000000       0.00000000       0.00000000
I        2.44450947       6.33973255       0.04685114       0.00000000       0.00000000       0.00000000
I        6.40504968       2.50742607       6.15825100       0.00000000       0.00000000       0.00000000
I        7.16168426       7.02808692       0.06647304       0.00000000       0.00000000       0.00000000
24
Lattice="8.951583967708043 0.0 0.0 0.0 8.951583967708043 0.0 0.0 0.0 6.328972425814492" Properties=species:S:1:pos:R:3:momenta:R:3 config_id=t-FAPI3_parity_25__cage_rattle__sev-0.5 phase=t-FAPI3 mode=parity seed=1548960413 source=t-FAPI3/CONTCAR distortion_family=cage_rattle distortion_severity=0.5 original_config_id=t-FAPI3_parity_25 distortion_label=cage_rattle pbc="T T T"
C        4.47580859       4.47581216       3.61395771       0.00000000       0.00000000       0.00000000
C        0.00000663       8.95157291       3.61395304       0.00000000       0.00000000       0.00000000
N        5.30254330       5.30254700       3.01626364       0.00000000       0.00000000       0.00000000
N        3.64903041       3.64903389       3.01626875       0.00000000       0.00000000       0.00000000
N        0.82676527       8.12481519       3.01626668       0.00000000       0.00000000       0.00000000
N        8.12482240       0.82675785       3.01626817       0.00000000       0.00000000       0.00000000
H        4.47579450       4.47579803       4.70497827       0.00000000       0.00000000       0.00000000
H        5.90092284       5.90092643       3.58290570       0.00000000       0.00000000       0.00000000
H        5.38933710       5.38934018       2.00382741       0.00000000       0.00000000       0.00000000
H        3.56224778       3.56225067       2.00383502       0.00000000       0.00000000       0.00000000
H        3.05066699       3.05067030       3.58291603       0.00000000       0.00000000       0.00000000
H        0.00000348       8.95157626       4.70497583       0.00000000       0.00000000       0.00000000
H        1.42512586       7.52645430       3.58289565       0.00000000       0.00000000       0.00000000
H        0.91354605       8.03803590       2.00382148       0.00000000       0.00000000       0.00000000
H        8.03803680       0.91354491       2.00382628       0.00000000       0.00000000       0.00000000
H        7.52645594       1.42512382       3.58291356       0.00000000       0.00000000       0.00000000
Pb       0.10138820       4.38942343       6.25632999       0.00000000       0.00000000       0.00000000
Pb       4.60072389       0.11747130       6.16404558       0.00000000       0.00000000       0.00000000
I        8.84896553       4.63392206       2.77002547       0.00000000       0.00000000       0.00000000
I        4.53795482       0.14506883       2.89564846       0.00000000       0.00000000       0.00000000
I        1.79827297       1.86624243       0.04081270       0.00000000       0.00000000       0.00000000
I        2.44038626       6.47749059       0.04295139       0.00000000       0.00000000       0.00000000
I        6.27587112       2.50251086       6.28822076       0.00000000       0.00000000       0.00000000
I        7.01529875       6.88328892       6.09664672       0.00000000       0.00000000       0.00000000
24
Lattice="8.951583967708043 0.0 0.0 0.0 8.951583967708043 0.0 0.0 0.0 6.328972425814492" Properties=species:S:1:pos:R:3:momenta:R:3 config_id=t-FAPI3_parity_26__cage_rattle__sev-0.6 phase=t-FAPI3 mode=parity seed=2824420205 source=t-FAPI3/CONTCAR distortion_family=cage_rattle distortion_severity=0.6 original_config_id=t-FAPI3_parity_26 distortion_label=cage_rattle pbc="T T T"
C        4.47580859       4.47581216       3.61395771       0.00000000       0.00000000       0.00000000
C        0.00000663       8.95157291       3.61395304       0.00000000       0.00000000       0.00000000
N        5.30254330       5.30254700       3.01626364       0.00000000       0.00000000       0.00000000
N        3.64903041       3.64903389       3.01626875       0.00000000       0.00000000       0.00000000
N        0.82676527       8.12481519       3.01626668       0.00000000       0.00000000       0.00000000
N        8.12482240       0.82675785       3.01626817       0.00000000       0.00000000       0.00000000
H        4.47579450       4.47579803       4.70497827       0.00000000       0.00000000       0.00000000
H        5.90092284       5.90092643       3.58290570       0.00000000       0.00000000       0.00000000
H        5.38933710       5.38934018       2.00382741       0.00000000       0.00000000       0.00000000
H        3.56224778       3.56225067       2.00383502       0.00000000       0.00000000       0.00000000
H        3.05066699       3.05067030       3.58291603       0.00000000       0.00000000       0.00000000
H        0.00000348       8.95157626       4.70497583       0.00000000       0.00000000       0.00000000
H        1.42512586       7.52645430       3.58289565       0.00000000       0.00000000       0.00000000
H        0.91354605       8.03803590       2.00382148       0.00000000       0.00000000       0.00000000
H        8.03803680       0.91354491       2.00382628       0.00000000       0.00000000       0.00000000
H        7.52645594       1.42512382       3.58291356       0.00000000       0.00000000       0.00000000
Pb       0.03070677       4.54909876       0.09225547       0.00000000       0.00000000       0.00000000
Pb       4.55452823       0.05624353       0.00183363       0.00000000       0.00000000       0.00000000
I        8.82662743       4.50751406       2.92371097       0.00000000       0.00000000       0.00000000
I        4.45478229       0.17781418       3.38415838       0.00000000       0.00000000       0.00000000
I        2.02835437       1.81874382       0.03253183       0.00000000       0.00000000       0.00000000
I        2.51796382       6.45484602       0.03199769       0.00000000       0.00000000       0.00000000
I        6.50989472       2.48065409       0.04053088       0.00000000       0.00000000       0.00000000
I        7.17994637       6.92401706       6.29250524       0.00000000       0.00000000       0.00000000
24
Lattice="8.951583967708043 0.0 0.0 0.0 8.951583967708043 0.0 0.0 0.0 6.328972425814492" Properties=species:S:1:pos:R:3:momenta:R:3 config_id=t-FAPI3_parity_27__cage_rattle__sev-0.7 phase=t-FAPI3 mode=parity seed=1004451295 source=t-FAPI3/CONTCAR distortion_family=cage_rattle distortion_severity=0.7 original_config_id=t-FAPI3_parity_27 distortion_label=cage_rattle pbc="T T T"
C        4.47580859       4.47581216       3.61395771       0.00000000       0.00000000       0.00000000
C        0.00000663       8.95157291       3.61395304       0.00000000       0.00000000       0.00000000
N        5.30254330       5.30254700       3.01626364       0.00000000       0.00000000       0.00000000
N        3.64903041       3.64903389       3.01626875       0.00000000       0.00000000       0.00000000
N        0.82676527       8.12481519       3.01626668       0.00000000       0.00000000       0.00000000
N        8.12482240       0.82675785       3.01626817       0.00000000       0.00000000       0.00000000
H        4.47579450       4.47579803       4.70497827       0.00000000       0.00000000       0.00000000
H        5.90092284       5.90092643       3.58290570       0.00000000       0.00000000       0.00000000
H        5.38933710       5.38934018       2.00382741       0.00000000       0.00000000       0.00000000
H        3.56224778       3.56225067       2.00383502       0.00000000       0.00000000       0.00000000
H        3.05066699       3.05067030       3.58291603       0.00000000       0.00000000       0.00000000
H        0.00000348       8.95157626       4.70497583       0.00000000       0.00000000       0.00000000
H        1.42512586       7.52645430       3.58289565       0.00000000       0.00000000       0.00000000
H        0.91354605       8.03803590       2.00382148       0.00000000       0.00000000       0.00000000
H        8.03803680       0.91354491       2.00382628       0.00000000       0.00000000       0.00000000
H        7.52645594       1.42512382       3.58291356       0.00000000       0.00000000       0.00000000
Pb       0.11022185       4.45843720       6.29049157       0.00000000       0.00000000       0.00000000
Pb       4.07077493       0.15393744       6.31300938       0.00000000       0.00000000       0.00000000
I        0.22459675       4.32253517       3.13612618       0.00000000       0.00000000       0.00000000
I        4.64119248       8.77091143       2.98935571       0.00000000       0.00000000       0.00000000
I        1.87666401       1.89201481       6.29589613       0.00000000       0.00000000       0.00000000
I        2.45091199       6.80241408       5.72963932       0.00000000       0.00000000       0.00000000
I        6.30647750       2.40546861       6.29238675       0.00000000       0.00000000       0.00000000
I        6.93853740       6.91888125       6.23570975       0.00000000       0.00000000       0.00000000
24
Lattice="8.951583967708043 0.0 0.0 0.0 8.951583967708043 0.0 0.0 0.0 6.328972425814492" Properties=species:S:1:pos:R:3:momenta:R:3 config_id=t-FAPI3_parity_28__cage_rattle__sev-0.8 phase=t-FAPI3 mode=parity seed=782557651 source=t-FAPI3/CONTCAR distortion_family=cage_rattle distortion_severity=0.8 original_config_id=t-FAPI3_parity_28 distortion_label=cage_rattle pbc="T T T"
C        4.47580859       4.47581216       3.61395771       0.00000000       0.00000000       0.00000000
C        0.00000663       8.95157291       3.61395304       0.00000000       0.00000000       0.00000000
N        5.30254330       5.30254700       3.01626364       0.00000000       0.00000000       0.00000000
N        3.64903041       3.64903389       3.01626875       0.00000000       0.00000000       0.00000000
N        0.82676527       8.12481519       3.01626668       0.00000000       0.00000000       0.00000000
N        8.12482240       0.82675785       3.01626817       0.00000000       0.00000000       0.00000000
H        4.47579450       4.47579803       4.70497827       0.00000000       0.00000000       0.00000000
H        5.90092284       5.90092643       3.58290570       0.00000000       0.00000000       0.00000000
H        5.38933710       5.38934018       2.00382741       0.00000000       0.00000000       0.00000000
H        3.56224778       3.56225067       2.00383502       0.00000000       0.00000000       0.00000000
H        3.05066699       3.05067030       3.58291603       0.00000000       0.00000000       0.00000000
H        0.00000348       8.95157626       4.70497583       0.00000000       0.00000000       0.00000000
H        1.42512586       7.52645430       3.58289565       0.00000000       0.00000000       0.00000000
H        0.91354605       8.03803590       2.00382148       0.00000000       0.00000000       0.00000000
H        8.03803680       0.91354491       2.00382628       0.00000000       0.00000000       0.00000000
H        7.52645594       1.42512382       3.58291356       0.00000000       0.00000000       0.00000000
Pb       8.76765293       4.33022633       6.24826968       0.00000000       0.00000000       0.00000000
Pb       4.40044723       0.07823788       6.20261452       0.00000000       0.00000000       0.00000000
I        0.08380737       4.40728103       2.98472870       0.00000000       0.00000000       0.00000000
I        4.41107436       0.17929277       2.98689433       0.00000000       0.00000000       0.00000000
I        1.97559185       2.08207293       0.21053308       0.00000000       0.00000000       0.00000000
I        2.28711591       6.47656428       6.28253682       0.00000000       0.00000000       0.00000000
I        6.58344658       2.73275470       6.25097429       0.00000000       0.00000000       0.00000000
I        7.06099748       7.04212798       6.19459257       0.00000000       0.00000000       0.00000000
24
Lattice="8.951583967708043 0.0 0.0 0.0 8.951583967708043 0.0 0.0 0.0 6.328972425814492" Properties=species:S:1:pos:R:3:momenta:R:3 config_id=t-FAPI3_parity_29__cage_rattle__sev-0.9 phase=t-FAPI3 mode=parity seed=2384120238 source=t-FAPI3/CONTCAR distortion_family=cage_rattle distortion_severity=0.9 original_config_id=t-FAPI3_parity_29 distortion_label=cage_rattle pbc="T T T"
C        4.47580859       4.47581216       3.61395771       0.00000000       0.00000000       0.00000000
C        0.00000663       8.95157291       3.61395304       0.00000000       0.00000000       0.00000000
N        5.30254330       5.30254700       3.01626364       0.00000000       0.00000000       0.00000000
N        3.64903041       3.64903389       3.01626875       0.00000000       0.00000000       0.00000000
N        0.82676527       8.12481519       3.01626668       0.00000000       0.00000000       0.00000000
N        8.12482240       0.82675785       3.01626817       0.00000000       0.00000000       0.00000000
H        4.47579450       4.47579803       4.70497827       0.00000000       0.00000000       0.00000000
H        5.90092284       5.90092643       3.58290570       0.00000000       0.00000000       0.00000000
H        5.38933710       5.38934018       2.00382741       0.00000000       0.00000000       0.00000000
H        3.56224778       3.56225067       2.00383502       0.00000000       0.00000000       0.00000000
H        3.05066699       3.05067030       3.58291603       0.00000000       0.00000000       0.00000000
H        0.00000348       8.95157626       4.70497583       0.00000000       0.00000000       0.00000000
H        1.42512586       7.52645430       3.58289565       0.00000000       0.00000000       0.00000000
H        0.91354605       8.03803590       2.00382148       0.00000000       0.00000000       0.00000000
H        8.03803680       0.91354491       2.00382628       0.00000000       0.00000000       0.00000000
H        7.52645594       1.42512382       3.58291356       0.00000000       0.00000000       0.00000000
Pb       8.94146572       4.47000444       6.19369412       0.00000000       0.00000000       0.00000000
Pb       4.41105817       8.91645449       6.30464794       0.00000000       0.00000000       0.00000000
I        0.04237051       4.42237484       3.09369276       0.00000000       0.00000000       0.00000000
I        4.32141446       0.16368615       3.01911724       0.00000000       0.00000000       0.00000000
I        1.84960724       1.81680198       6.16661570       0.00000000       0.00000000       0.00000000
I        2.62631606       6.36309319       6.31238804       0.00000000       0.00000000       0.00000000
I        6.35189276       2.23468153       6.30463411       0.00000000       0.00000000       0.00000000
I        6.93474254       7.00072427       6.22770433       0.00000000       0.00000000       0.00000000
24
Lattice="8.951583967708043 0.0 0.0 0.0 8.951583967708043 0.0 0.0 0.0 6.328972425814492" Properties=species:S:1:pos:R:3:momenta:R:3 config_id=t-FAPI3_parity_30__cage_rattle__sev-1.0 phase=t-FAPI3 mode=parity seed=3886812342 source=t-FAPI3/CONTCAR distortion_family=cage_rattle distortion_severity=1.0 original_config_id=t-FAPI3_parity_30 distortion_label=cage_rattle pbc="T T T"
C        4.47580859       4.47581216       3.61395771       0.00000000       0.00000000       0.00000000
C        0.00000663       8.95157291       3.61395304       0.00000000       0.00000000       0.00000000
N        5.30254330       5.30254700       3.01626364       0.00000000       0.00000000       0.00000000
N        3.64903041       3.64903389       3.01626875       0.00000000       0.00000000       0.00000000
N        0.82676527       8.12481519       3.01626668       0.00000000       0.00000000       0.00000000
N        8.12482240       0.82675785       3.01626817       0.00000000       0.00000000       0.00000000
H        4.47579450       4.47579803       4.70497827       0.00000000       0.00000000       0.00000000
H        5.90092284       5.90092643       3.58290570       0.00000000       0.00000000       0.00000000
H        5.38933710       5.38934018       2.00382741       0.00000000       0.00000000       0.00000000
H        3.56224778       3.56225067       2.00383502       0.00000000       0.00000000       0.00000000
H        3.05066699       3.05067030       3.58291603       0.00000000       0.00000000       0.00000000
H        0.00000348       8.95157626       4.70497583       0.00000000       0.00000000       0.00000000
H        1.42512586       7.52645430       3.58289565       0.00000000       0.00000000       0.00000000
H        0.91354605       8.03803590       2.00382148       0.00000000       0.00000000       0.00000000
H        8.03803680       0.91354491       2.00382628       0.00000000       0.00000000       0.00000000
H        7.52645594       1.42512382       3.58291356       0.00000000       0.00000000       0.00000000
Pb       0.51157732       4.35105994       0.24960429       0.00000000       0.00000000       0.00000000
Pb       4.50627324       0.17770847       0.22213368       0.00000000       0.00000000       0.00000000
I        0.03043909       4.25021241       2.53914733       0.00000000       0.00000000       0.00000000
I        4.60080397       0.02163069       2.97595859       0.00000000       0.00000000       0.00000000
I        2.06912634       2.16087044       5.82900376       0.00000000       0.00000000       0.00000000
I        2.70915220       6.23103925       6.09761058       0.00000000       0.00000000       0.00000000
I        6.61804254       2.36993839       6.13162423       0.00000000       0.00000000       0.00000000
I        6.83389818       6.89212276       6.26616648       0.00000000       0.00000000       0.00000000
24
Lattice="8.951583967708043 0.0 0.0 0.0 8.951583967708043 0.0 0.0 0.0 6.328972425814492" Properties=species:S:1:pos:R:3:momenta:R:3 config_id=t-FAPI3_parity_31__fa_rotation_cage_rattle__sev-0.1 phase=t-FAPI3 mode=parity seed=838226761 source=t-FAPI3/CONTCAR distortion_family=fa_rotation_cage_rattle distortion_severity=0.1 original_config_id=t-FAPI3_parity_31 distortion_label=fa_rotation_cage_rattle pbc="T T T"
C        4.71556669       4.25323133       2.92911460       0.00000000       0.00000000       0.00000000
C        8.87742784       0.25200010       2.86497242       0.00000000       0.00000000       0.00000000
N        3.78485403       3.60001907       3.58585402       0.00000000       0.00000000       0.00000000
N        4.96475936       5.53905406       3.02355765       0.00000000       0.00000000       0.00000000
N        1.13794065       0.26913604       3.36976436       0.00000000       0.00000000       0.00000000
N        7.87611833       8.47015751       3.29367330       0.00000000       0.00000000       0.00000000
H        5.33762520       3.67591374       2.24349555       0.00000000       0.00000000       0.00000000
H        3.68093916       2.59846347       3.43325221       0.00000000       0.00000000       0.00000000
H        3.14567747       4.03398796       4.25159997       0.00000000       0.00000000       0.00000000
H        4.44944368       6.17657081       3.63027566       0.00000000       0.00000000       0.00000000
H        5.71481105       5.94088943       2.46398842       0.00000000       0.00000000       0.00000000
H        8.68502427       0.90575637       2.01296635       0.00000000       0.00000000       0.00000000
H        1.83898085       0.88027507       2.95480500       0.00000000       0.00000000       0.00000000
H        1.43264671       8.65343722       4.16439976       0.00000000       0.00000000       0.00000000
H        7.93848838       7.82409204       4.08031915       0.00000000       0.00000000       0.00000000
H        6.97522043       8.53809205       2.82363167       0.00000000       0.00000000       0.00000000
Pb       8.92040834       4.46559946       6.30567240       0.00000000       0.00000000       0.00000000
Pb       4.49513499       0.08600213       0.00980247       0.00000000       0.00000000       0.00000000
I        0.01627229       4.48672456       3.07710194       0.00000000       0.00000000       0.00000000
I        4.54358992       8.87681406       3.16231333       0.00000000       0.00000000       0.00000000
I        1.94794975       1.91244461       6.30367378       0.00000000       0.00000000       0.00000000
I        2.50848332       6.45118402       6.27591379       0.00000000       0.00000000       0.00000000
I        6.46243805       2.48432557       6.29048478       0.00000000       0.00000000       0.00000000
I        6.99124695       7.03184527       6.25555641       0.00000000       0.00000000       0.00000000
24
Lattice="8.951583967708043 0.0 0.0 0.0 8.951583967708043 0.0 0.0 0.0 6.328972425814492" Properties=species:S:1:pos:R:3:momenta:R:3 config_id=t-FAPI3_parity_32__fa_rotation_cage_rattle__sev-0.2 phase=t-FAPI3 mode=parity seed=3583951278 source=t-FAPI3/CONTCAR distortion_family=fa_rotation_cage_rattle distortion_severity=0.2 original_config_id=t-FAPI3_parity_32 distortion_label=fa_rotation_cage_rattle pbc="T T T"
C        4.43131203       4.12711354       3.42429250       0.00000000       0.00000000       0.00000000
C        0.29004146       8.92921846       2.88967449       0.00000000       0.00000000       0.00000000
N        5.18341103       4.04149473       2.35133607       0.00000000       0.00000000       0.00000000
N        3.80564464       5.20381391       3.84096166       0.00000000       0.00000000       0.00000000
N        8.72086368       7.79696403       3.30330989       0.00000000       0.00000000       0.00000000
N        8.93799653       1.17343889       3.33931995       0.00000000       0.00000000       0.00000000
H        4.31587369       3.22259577       4.02333128       0.00000000       0.00000000       0.00000000
H        5.62205304       3.15108528       2.12338119       0.00000000       0.00000000       0.00000000
H        5.36284269       4.81985995       1.71726572       0.00000000       0.00000000       0.00000000
H        3.84044600       6.10419118       3.36326485       0.00000000       0.00000000       0.00000000
H        3.24711732       5.15464081       4.69113584       0.00000000       0.00000000       0.00000000
H        1.04246876       8.87123402       2.10175210       0.00000000       0.00000000       0.00000000
H        0.08148382       6.92439377       2.88106674       0.00000000       0.00000000       0.00000000
H        8.01123175       7.72859597       4.03259390       0.00000000       0.00000000       0.00000000
H        8.25115865       1.34944089       4.07238156       0.00000000       0.00000000       0.00000000
H        0.45577547       1.98578207       2.94312772       0.00000000       0.00000000       0.00000000
Pb       8.93663248       4.44511561       0.03915614       0.00000000       0.00000000       0.00000000
Pb       4.42665176       0.03643629       6.23203180       0.00000000       0.00000000       0.00000000
I        8.94157744       4.49914678       3.10171780       0.00000000       0.00000000       0.00000000
I        4.41437932       8.89800352       3.16212326       0.00000000       0.00000000       0.00000000
I        1.95646145       1.98599041       6.24269406       0.00000000       0.00000000       0.00000000
I        2.49945286       6.46654887       6.29571245       0.00000000       0.00000000       0.00000000
I        6.39616680       2.48111081       6.19138698       0.00000000       0.00000000       0.00000000
I        6.99056149       6.93602752       0.00432003       0.00000000       0.00000000       0.00000000
24
Lattice="8.951583967708043 0.0 0.0 0.0 8.951583967708043 0.0 0.0 0.0 6.328972425814492" Properties=species:S:1:pos:R:3:momenta:R:3 config_id=t-FAPI3_parity_33__fa_rotation_cage_rattle__sev-0.3 phase=t-FAPI3 mode=parity seed=3663397868 source=t-FAPI3/CONTCAR distortion_family=fa_rotation_cage_rattle distortion_severity=0.3 original_config_id=t-FAPI3_parity_33 distortion_label=fa_rotation_cage_rattle pbc="T T T"
C        4.40790800       4.88848675       3.14923350       0.00000000       0.00000000       0.00000000
C        8.64735458       0.01612536       2.90347970       0.00000000       0.00000000       0.00000000
N        5.36324812       4.52480027       3.97341574       0.00000000       0.00000000       0.00000000
N        3.64552191       4.07916327       2.45057799       0.00000000       0.00000000       0.00000000
N        0.20885004       1.15946197       3.29567613       0.00000000       0.00000000       0.00000000
N        0.04742546       7.77852125       3.33532491       0.00000000       0.00000000       0.00000000
H        4.23174390       5.95907302       3.03461631       0.00000000       0.00000000       0.00000000
H        5.89337842       5.24210196       4.46498402       0.00000000       0.00000000       0.00000000
H        5.61687354       3.55471484       4.15969981       0.00000000       0.00000000       0.00000000
H        3.71882987       3.06229933       2.47700297       0.00000000       0.00000000       0.00000000
H        2.93243420       4.47393320       1.83998032       0.00000000       0.00000000       0.00000000
H        7.85810578       0.05795626       2.15137117       0.00000000       0.00000000       0.00000000
H        8.80894726       2.02525884       2.89071640       0.00000000       0.00000000       0.00000000
H        0.94972791       1.24305455       3.99153468       0.00000000       0.00000000       0.00000000
H        0.77135672       7.61727496       4.03534310       0.00000000       0.00000000       0.00000000
H        8.53068179       6.95617233       2.95905010       0.00000000       0.00000000       0.00000000
Pb       8.89379489       4.43773543       0.09117834       0.00000000       0.00000000       0.00000000
Pb       4.48634757       8.89805016       6.20269742       0.00000000       0.00000000       0.00000000
I        0.01130082       4.50925960       3.11813048       0.00000000       0.00000000       0.00000000
I        4.42349636       0.09893054       3.05033814       0.00000000       0.00000000       0.00000000
I        1.95689437       1.94317124       6.13901608       0.00000000       0.00000000       0.00000000
I        2.50832532       6.35490253       0.02802091       0.00000000       0.00000000       0.00000000
I        6.53679657       2.55676697       6.30546166       0.00000000       0.00000000       0.00000000
I        6.93624064       6.97874849       6.31289855       0.00000000       0.00000000       0.00000000
24
Lattice="8.951583967708043 0.0 0.0 0.0 8.951583967708043 0.0 0.0 0.0 6.328972425814492" Properties=species:S:1:pos:R:3:momenta:R:3 config_id=t-FAPI3_parity_34__fa_rotation_cage_rattle__sev-0.4 phase=t-FAPI3 mode=parity seed=91643594 source=t-FAPI3/CONTCAR distortion_family=fa_rotation_cage_rattle distortion_severity=0.4 original_config_id=t-FAPI3_parity_34 distortion_label=fa_rotation_cage_rattle pbc="T T T"
C        4.43252047       4.19255823       2.88554124       0.00000000       0.00000000       0.00000000
C        0.00000663       8.95157291       3.61395304       0.00000000       0.00000000       0.00000000
N        5.48726017       4.97310118       2.83558298       0.00000000       0.00000000       0.00000000
N        3.50077742       4.21707951       3.81053322       0.00000000       0.00000000       0.00000000
N        0.82676527       8.12481519       3.01626668       0.00000000       0.00000000       0.00000000
N        8.12482240       0.82675785       3.01626817       0.00000000       0.00000000       0.00000000
H        4.32019740       3.45775524       2.08693373       0.00000000       0.00000000       0.00000000
H        6.14780746       4.86506157       2.06798675       0.00000000       0.00000000       0.00000000
H        5.69574800       5.69465556       3.52549995       0.00000000       0.00000000       0.00000000
H        3.50073536       4.85926969       4.60279352       0.00000000       0.00000000       0.00000000
H        2.72359212       3.56186222       3.74856379       0.00000000       0.00000000       0.00000000
H        0.00000348       8.95157626       4.70497583       0.00000000       0.00000000       0.00000000
H        1.42512586       7.52645430       3.58289565       0.00000000       0.00000000       0.00000000
H        0.91354605       8.03803590       2.00382148       0.00000000       0.00000000       0.00000000
H        8.03803680       0.91354491       2.00382628       0.00000000       0.00000000       0.00000000
H        7.52645594       1.42512382       3.58291356       0.00000000       0.00000000       0.00000000
Pb       8.94108742       4.47023132       6.04611503       0.00000000       0.00000000       0.00000000
Pb       4.36104560       0.09142320       0.07764578       0.00000000       0.00000000       0.00000000
I        0.15057769       4.47539695       3.08100962       0.00000000       0.00000000       0.00000000
I        4.55637476       8.78902940       3.08946840       0.00000000       0.00000000       0.00000000
I        1.86505305       1.93742644       0.00451564       0.00000000       0.00000000       0.00000000
I        2.58085440       6.43520461       6.26102792       0.00000000       0.00000000       0.00000000
I        6.37681172       2.51897866       6.31164823       0.00000000       0.00000000       0.00000000
I        7.03499473       7.02818651       6.28475734       0.00000000       0.00000000       0.00000000
24
Lattice="8.951583967708043 0.0 0.0 0.0 8.951583967708043 0.0 0.0 0.0 6.328972425814492" Properties=species:S:1:pos:R:3:momenta:R:3 config_id=t-FAPI3_parity_35__fa_rotation_cage_rattle__sev-0.5 phase=t-FAPI3 mode=parity seed=568810594 source=t-FAPI3/CONTCAR distortion_family=fa_rotation_cage_rattle distortion_severity=0.5 original_config_id=t-FAPI3_parity_35 distortion_label=fa_rotation_cage_rattle pbc="T T T"
C        4.36369215       4.52635663       3.59557650       0.00000000       0.00000000       0.00000000
C        0.11467630       8.79324885       3.56575390       0.00000000       0.00000000       0.00000000
N        3.39978968       4.50976675       2.70404087       0.00000000       0.00000000       0.00000000
N        5.64622643       4.39923807       3.34397511       0.00000000       0.00000000       0.00000000
N        8.46252304       7.97942063       2.73060594       0.00000000       0.00000000       0.00000000
N        0.39247116       1.10551628       3.34252903       0.00000000       0.00000000       0.00000000
H        4.07295142       4.65751505       4.63893318       0.00000000       0.00000000       0.00000000
H        2.43582862       4.61788570       3.01434491       0.00000000       0.00000000       0.00000000
H        3.55169034       4.39385675       1.70225028       0.00000000       0.00000000       0.00000000
H        6.03394476       4.27172561       2.40936306       0.00000000       0.00000000       0.00000000
H        6.30814115       4.42736115       4.11743804       0.00000000       0.00000000       0.00000000
H        0.41217379       8.38252555       4.53174166       0.00000000       0.00000000       0.00000000
H        8.29802952       7.01425819       3.01086097       0.00000000       0.00000000       0.00000000
H        8.14019018       8.25152596       1.80207642       0.00000000       0.00000000       0.00000000
H        0.16267128       1.59570900       2.47823428       0.00000000       0.00000000       0.00000000
H        0.86598372       1.64405234       4.06567219       0.00000000       0.00000000       0.00000000
Pb       0.02716430       4.43595163       6.28159081       0.00000000       0.00000000       0.00000000
Pb       4.50691140       0.08148561       6.22290708       0.00000000       0.00000000       0.00000000
I        0.11688792       4.44836763       3.14280055       0.00000000       0.00000000       0.00000000
I        4.53449097       0.02370696       3.16635219       0.00000000       0.00000000       0.00000000
I        1.90802989       2.04714373       0.07111446       0.00000000       0.00000000       0.00000000
I        2.51608904       6.40410334       6.32779765       0.00000000       0.00000000       0.00000000
I        6.29257799       2.49243494       0.12412679       0.00000000       0.00000000       0.00000000
I        6.94854064       7.05350265       6.21321238       0.00000000       0.00000000       0.00000000
24
Lattice="8.951583967708043 0.0 0.0 0.0 8.951583967708043 0.0 0.0 0.0 6.328972425814492" Properties=species:S:1:pos:R:3:momenta:R:3 config_id=t-FAPI3_parity_36__fa_rotation_cage_rattle__sev-0.6 phase=t-FAPI3 mode=parity seed=795649677 source=t-FAPI3/CONTCAR distortion_family=fa_rotation_cage_rattle distortion_severity=0.6 original_config_id=t-FAPI3_parity_36 distortion_label=fa_rotation_cage_rattle pbc="T T T"
C        4.47580859       4.47581216       3.61395771       0.00000000       0.00000000       0.00000000
C        8.89134694       8.84417494       2.79127037       0.00000000       0.00000000       0.00000000
N        5.30254330       5.30254700       3.01626364       0.00000000       0.00000000       0.00000000
N        3.64903041       3.64903389       3.01626875       0.00000000       0.00000000       0.00000000
N        8.06960576       8.32963393       3.67686403       0.00000000       0.00000000       0.00000000
N        0.93272599       0.71240583       3.04865673       0.00000000       0.00000000       0.00000000
H        4.47579450       4.47579803       4.70497827       0.00000000       0.00000000       0.00000000
H        5.90092284       5.90092643       3.58290570       0.00000000       0.00000000       0.00000000
H        5.38933710       5.38934018       2.00382741       0.00000000       0.00000000       0.00000000
H        3.56224778       3.56225067       2.00383502       0.00000000       0.00000000       0.00000000
H        3.05066699       3.05067030       3.58291603       0.00000000       0.00000000       0.00000000
H        8.73508493       8.56556079       1.74806039       0.00000000       0.00000000       0.00000000
H        7.33176253       7.70206973       3.36239609       0.00000000       0.00000000       0.00000000
H        8.11937715       8.51815570       4.67790808       0.00000000       0.00000000       0.00000000
H        1.17298167       1.04099062       3.98375649       0.00000000       0.00000000       0.00000000
H        1.50825846       1.05056725       2.27951403       0.00000000       0.00000000       0.00000000
Pb       8.88033763       4.53469671       0.04059987       0.00000000       0.00000000       0.00000000
Pb       4.52895686       0.02134749       6.20255717       0.00000000       0.00000000       0.00000000
I        0.04323910       4.47256310       3.25920191       0.00000000       0.00000000       0.00000000
I        4.57641388       0.04151673       3.16352258       0.00000000       0.00000000       0.00000000
I        2.01954748       1.85571472       6.30754912       0.00000000       0.00000000       0.00000000
I        2.60531002       6.47096719       6.25538503       0.00000000       0.00000000       0.00000000
I        6.23095488       2.52374511       0.06420558       0.00000000       0.00000000       0.00000000
I        7.07889137       7.11609771       6.23084951       0.00000000       0.00000000       0.00000000
24
Lattice="8.951583967708043 0.0 0.0 0.0 8.951583967708043 0.0 0.0 0.0 6.328972425814492" Properties=species:S:1:pos:R:3:momenta:R:3 config_id=t-FAPI3_parity_37__fa_rotation_cage_rattle__sev-0.7 phase=t-FAPI3 mode=parity seed=2609231216 source=t-FAPI3/CONTCAR distortion_family=fa_rotation_cage_rattle distortion_severity=0.7 original_config_id=t-FAPI3_parity_37 distortion_label=fa_rotation_cage_rattle pbc="T T T"
C        4.37054170       4.88139666       3.22921035       0.00000000       0.00000000       0.00000000
C        0.06256234       0.16053939       3.57703585       0.00000000       0.00000000       0.00000000
N        5.56705879       4.53549206       3.64504184       0.00000000       0.00000000       0.00000000
N        3.47318675       4.07444383       2.71158328       0.00000000       0.00000000       0.00000000
N        0.88915727       8.17203665       3.18046939       0.00000000       0.00000000       0.00000000
N        8.00973683       0.64429712       2.88316284       0.00000000       0.00000000       0.00000000
H        4.09742972       5.93358932       3.32208835       0.00000000       0.00000000       0.00000000
H        6.18295999       5.24881778       4.03108767       0.00000000       0.00000000       0.00000000
H        5.93039027       3.58328414       3.60784432       0.00000000       0.00000000       0.00000000
H        3.61671493       3.07383958       2.57639671       0.00000000       0.00000000       0.00000000
H        2.57363129       4.45408377       2.42203123       0.00000000       0.00000000       0.00000000
H        0.22484143       0.57704548       4.57228401       0.00000000       0.00000000       0.00000000
H        1.63602408       7.87310426       3.80494432       0.00000000       0.00000000       0.00000000
H        0.83465760       7.71080568       2.27250319       0.00000000       0.00000000       0.00000000
H        7.76304189       0.33252457       1.94399204       0.00000000       0.00000000       0.00000000
H        7.43143087       1.37586677       3.29247852       0.00000000       0.00000000       0.00000000
Pb       8.94924301       4.37138043       0.04994872       0.00000000       0.00000000       0.00000000
Pb       4.46950117       0.06904618       6.30507257       0.00000000       0.00000000       0.00000000
I        8.89560947       4.56163234       3.23235409       0.00000000       0.00000000       0.00000000
I        4.43093563       0.04713013       2.99960616       0.00000000       0.00000000       0.00000000
I        1.89215112       1.90661385       0.01345795       0.00000000       0.00000000       0.00000000
I        2.47602591       6.43308551       6.13066585       0.00000000       0.00000000       0.00000000
I        6.52469116       2.42008349       6.07669998       0.00000000       0.00000000       0.00000000
I        7.04921765       7.11923915       6.29384586       0.00000000       0.00000000       0.00000000
24
Lattice="8.951583967708043 0.0 0.0 0.0 8.951583967708043 0.0 0.0 0.0 6.328972425814492" Properties=species:S:1:pos:R:3:momenta:R:3 config_id=t-FAPI3_parity_38__fa_rotation_cage_rattle__sev-0.8 phase=t-FAPI3 mode=parity seed=3368606190 source=t-FAPI3/CONTCAR distortion_family=fa_rotation_cage_rattle distortion_severity=0.8 original_config_id=t-FAPI3_parity_38 distortion_label=fa_rotation_cage_rattle pbc="T T T"
C        4.46394895       4.89567227       3.21427974       0.00000000       0.00000000       0.00000000
C        0.33781535       8.82058396       2.97987213       0.00000000       0.00000000       0.00000000
N        3.84742614       4.23237676       4.16515179       0.00000000       0.00000000       0.00000000
N        5.11413826       4.36553414       2.20405006       0.00000000       0.00000000       0.00000000
N        8.80450517       1.04836039       2.66638553       0.00000000       0.00000000       0.00000000
N        8.81411276       8.01355338       3.90026553       0.00000000       0.00000000       0.00000000
H        4.43326290       5.98491795       3.26839140       0.00000000       0.00000000       0.00000000
H        3.37308046       4.74991076       4.90295527       0.00000000       0.00000000       0.00000000
H        3.80942139       3.21459941       4.21786087       0.00000000       0.00000000       0.00000000
H        5.20910572       3.36173686       2.05089391       0.00000000       0.00000000       0.00000000
H        5.55658541       4.97944337       1.52249090       0.00000000       0.00000000       0.00000000
H        1.21417908       8.48074143       2.42595480       0.00000000       0.00000000       0.00000000
H        0.30458926       1.59067707       1.93220018       0.00000000       0.00000000       0.00000000
H        7.99075541       1.46797299       3.11565544       0.00000000       0.00000000       0.00000000
H        8.00137403       8.22465874       4.47905098       0.00000000       0.00000000       0.00000000
H        0.32116260       7.11823042       4.05908332       0.00000000       0.00000000       0.00000000
Pb       0.13084251       4.50674015       0.01236464       0.00000000       0.00000000       0.00000000
Pb       4.52439833       8.85010701       0.03467944       0.00000000       0.00000000       0.00000000
I        0.03883906       4.67849045       3.11856316       0.00000000       0.00000000       0.00000000
I        4.52875909       8.84492732       3.16202253       0.00000000       0.00000000       0.00000000
I        1.96021675       1.93990252       6.14061937       0.00000000       0.00000000       0.00000000
I        2.60694346       6.48009573       6.29142457       0.00000000       0.00000000       0.00000000
I        6.56062731       2.63125858       6.02796059       0.00000000       0.00000000       0.00000000
I        7.03647140       6.87237353       6.05861094       0.00000000       0.00000000       0.00000000
24
Lattice="8.951583967708043 0.0 0.0 0.0 8.951583967708043 0.0 0.0 0.0 6.328972425814492" Properties=species:S:1:pos:R:3:momenta:R:3 config_id=t-FAPI3_parity_39__fa_rotation_cage_rattle__sev-0.9 phase=t-FAPI3 mode=parity seed=3575675057 source=t-FAPI3/CONTCAR distortion_family=fa_rotation_cage_rattle distortion_severity=0.9 original_config_id=t-FAPI3_parity_39 distortion_label=fa_rotation_cage_rattle pbc="T T T"
C        4.41943124       4.13846606       3.43814709       0.00000000       0.00000000       0.00000000
C        0.00000663       8.95157291       3.61395304       0.00000000       0.00000000       0.00000000
N        5.35494612       4.98731712       3.79659202       0.00000000       0.00000000       0.00000000
N        3.64411720       4.24842834       2.38403467       0.00000000       0.00000000       0.00000000
N        0.82676527       8.12481519       3.01626668       0.00000000       0.00000000       0.00000000
N        8.12482240       0.82675785       3.01626817       0.00000000       0.00000000       0.00000000
H        4.27316105       3.26333753       4.07303367       0.00000000       0.00000000       0.00000000
H        5.89810654       4.80019623       4.63752113       0.00000000       0.00000000       0.00000000
H        5.58046947       5.83818988       3.28156959       0.00000000       0.00000000       0.00000000
H        3.69004716       5.02173518       1.72073114       0.00000000       0.00000000       0.00000000
H        2.94905154       3.52652971       2.20261526       0.00000000       0.00000000       0.00000000
H        0.00000348       8.95157626       4.70497583       0.00000000       0.00000000       0.00000000
H        1.42512586       7.52645430       3.58289565       0.00000000       0.00000000       0.00000000
H        0.91354605       8.03803590       2.00382148       0.00000000       0.00000000       0.00000000
H        8.03803680       0.91354491       2.00382628       0.00000000       0.00000000       0.00000000
H        7.52645594       1.42512382       3.58291356       0.00000000       0.00000000       0.00000000
Pb       8.94900012       4.55802025       0.06993622       0.00000000       0.00000000       0.00000000
Pb       4.30121098       8.95104591       6.30131897       0.00000000       0.00000000       0.00000000
I        0.08629488       4.59047066       3.13646551       0.00000000       0.00000000       0.00000000
I        4.38548105       8.89843299       3.20785001       0.00000000       0.00000000       0.00000000
I        1.83624068       1.95834795       0.15474491       0.00000000       0.00000000       0.00000000
I        2.36462961       6.29296026       6.23648461       0.00000000       0.00000000       0.00000000
I        6.41206555       2.45959970       6.29871391       0.00000000       0.00000000       0.00000000
I        7.20029007       6.93162025       0.02958212       0.00000000       0.00000000       0.00000000
24
Lattice="8.951583967708043 0.0 0.0 0.0 8.951583967708043 0.0 0.0 0.0 6.328972425814492" Properties=species:S:1:pos:R:3:momenta:R:3 config_id=t-FAPI3_parity_40__fa_rotation_cage_rattle__sev-1.0 phase=t-FAPI3 mode=parity seed=832899202 source=t-FAPI3/CONTCAR distortion_family=fa_rotation_cage_rattle distortion_severity=1.0 original_config_id=t-FAPI3_parity_40 distortion_label=fa_rotation_cage_rattle pbc="T T T"
C        4.81967788       4.50493434       3.43374249       0.00000000       0.00000000       0.00000000
C        8.60492753       8.73941294       3.30148003       0.00000000       0.00000000       0.00000000
N        3.65881299       4.63815208       4.03279567       0.00000000       0.00000000       0.00000000
N        5.00310213       4.28889781       2.15154113       0.00000000       0.00000000       0.00000000
N        8.44852027       0.82696584       2.51406752       0.00000000       0.00000000       0.00000000
N        0.79507669       8.30332200       3.78167777       0.00000000       0.00000000       0.00000000
H        5.71182715       4.58051130       4.05718750       0.00000000       0.00000000       0.00000000
H        3.63568666       4.80379563       5.03739839       0.00000000       0.00000000       0.00000000
H        2.76037236       4.58634899       3.55298924       0.00000000       0.00000000       0.00000000
H        4.24577896       4.20043210       1.47425239       0.00000000       0.00000000       0.00000000
H        5.95291685       4.20176590       1.79457202       0.00000000       0.00000000       0.00000000
H        7.70562458       8.18899708       3.58188567       0.00000000       0.00000000       0.00000000
H        7.51170300       1.07494546       2.20098755       0.00000000       0.00000000       0.00000000
H        0.26334341       1.41515885       2.18733219       0.00000000       0.00000000       0.00000000
H        1.69774358       8.73666262       3.58800098       0.00000000       0.00000000       0.00000000
H        0.79776565       7.48360936       4.38602470       0.00000000       0.00000000       0.00000000
Pb       0.05926116       4.54834654       6.15806906       0.00000000       0.00000000       0.00000000
Pb       4.48100403       8.87898754       6.25485071       0.00000000       0.00000000       0.00000000
I        8.87522130       4.59871565       2.95647760       0.00000000       0.00000000       0.00000000
I        4.64177922       8.81537346       3.15266358       0.00000000       0.00000000       0.00000000
I        1.92060763       1.91483244       6.24903189       0.00000000       0.00000000       0.00000000
I        2.54340209       6.43862734       6.25145799       0.00000000       0.00000000       0.00000000
I        6.25003101       2.39083614       6.17702618       0.00000000       0.00000000       0.00000000
I        7.01042661       7.20452565       6.23181863       0.00000000       0.00000000       0.00000000
24
Lattice="8.967262144629387 -0.014335978112454724 0.010178396901923965 -0.014335978112454724 8.986204070376807 -0.054481219054061676 0.00719635693120423 -0.038519454697826 6.215038240892328" Properties=species:S:1:pos:R:3:momenta:R:3 config_id=t-FAPI3_parity_41__combined_strain_rattle_fa_rotation__sev-0.1 phase=t-FAPI3 mode=parity seed=1496963730 source=t-FAPI3/CONTCAR distortion_family=combined distortion_severity=0.1 original_config_id=t-FAPI3_parity_41 distortion_label=combined_strain_rattle_fa_rotation pbc="T T T"
C        4.15881886       4.26912555       3.39947086       0.00000000       0.00000000       0.00000000
C        8.96918928       0.00424928       3.60470031       0.00000000       0.00000000       0.00000000
N        5.29225321       5.02287100       3.79597984       0.00000000       0.00000000       0.00000000
N        3.87850426       4.10867729       2.27847821       0.00000000       0.00000000       0.00000000
N        0.88385446       8.13576681       2.88311330       0.00000000       0.00000000       0.00000000
N        8.14722471       0.75792170       2.99434801       0.00000000       0.00000000       0.00000000
H        3.70691631       3.82036096       4.17810529       0.00000000       0.00000000       0.00000000
H        5.55140058       5.19525460       4.80462046       0.00000000       0.00000000       0.00000000
H        5.97304534       5.45162181       3.13673299       0.00000000       0.00000000       0.00000000
H        4.28734261       4.42685660       1.34628048       0.00000000       0.00000000       0.00000000
H        3.07078178       3.54981503       1.99458664       0.00000000       0.00000000       0.00000000
H        8.94399656       8.86012502       4.51695075       0.00000000       0.00000000       0.00000000
H        1.44776672       7.63897614       3.48841792       0.00000000       0.00000000       0.00000000
H        0.95443547       8.03718347       1.95314603       0.00000000       0.00000000       0.00000000
H        8.11113440       0.91376449       1.99862473       0.00000000       0.00000000       0.00000000
H        7.54844073       1.38525180       3.50498535       0.00000000       0.00000000       0.00000000
Pb       0.00324645       4.47352812       6.16279701       0.00000000       0.00000000       0.00000000
Pb       4.47237583       8.90099144       6.07153035       0.00000000       0.00000000       0.00000000
I        0.00444202       4.47557138       2.96947218       0.00000000       0.00000000       0.00000000
I        4.47827642       8.92621284       2.89792207       0.00000000       0.00000000       0.00000000
I        1.99282680       1.83824693       6.15878196       0.00000000       0.00000000       0.00000000
I        2.58085739       6.39762218       6.16073030       0.00000000       0.00000000       0.00000000
I        6.46513053       2.45240827       6.14943995       0.00000000       0.00000000       0.00000000
I        6.97828263       6.96527988       6.09554400       0.00000000       0.00000000       0.00000000
24
Lattice="8.895640768448812 -0.04307151366841709 0.06334199513926236 -0.04307151366841709 8.867729509082013 -0.03521787552935437 0.044784223895864395 -0.024899834925876267 6.2525279363648965" Properties=species:S:1:pos:R:3:momenta:R:3 config_id=t-FAPI3_parity_42__combined_strain_rattle_fa_rotation__sev-0.2 phase=t-FAPI3 mode=parity seed=4025090763 source=t-FAPI3/CONTCAR distortion_family=combined distortion_severity=0.2 original_config_id=t-FAPI3_parity_42 distortion_label=combined_strain_rattle_fa_rotation pbc="T T T"
C        4.42616969       4.47790756       3.60800035       0.00000000       0.00000000       0.00000000
C        0.03196632       0.02551751       3.56470393       0.00000000       0.00000000       0.00000000
N        5.35315721       5.25125561       3.01094567       0.00000000       0.00000000       0.00000000
N        3.64791651       3.60273428       2.95135321       0.00000000       0.00000000       0.00000000
N        0.86315217       7.98004284       2.93787689       0.00000000       0.00000000       0.00000000
N        8.09314772       0.75670063       3.04882399       0.00000000       0.00000000       0.00000000
H        4.42356126       4.48754085       4.64506900       0.00000000       0.00000000       0.00000000
H        5.91543603       5.76195064       3.53958478       0.00000000       0.00000000       0.00000000
H        5.52140186       5.16820637       1.98506472       0.00000000       0.00000000       0.00000000
H        3.58730079       3.41256666       1.92974865       0.00000000       0.00000000       0.00000000
H        2.96324717       3.10241456       3.56512344       0.00000000       0.00000000       0.00000000
H        8.87628537       8.68228924       4.78428933       0.00000000       0.00000000       0.00000000
H        1.47302886       7.38848243       3.51771117       0.00000000       0.00000000       0.00000000
H        0.80561831       7.94914965       1.95483675       0.00000000       0.00000000       0.00000000
H        8.04848985       0.85263784       2.01045511       0.00000000       0.00000000       0.00000000
H        7.56186060       1.29170102       3.63791097       0.00000000       0.00000000       0.00000000
Pb       8.87020490       4.43865525       0.04945224       0.00000000       0.00000000       0.00000000
Pb       4.49054352      -0.02273210       6.22189364       0.00000000       0.00000000       0.00000000
I        0.07351945       4.45076379       3.10424554       0.00000000       0.00000000       0.00000000
I        4.49450430       0.00633829       3.15096500       0.00000000       0.00000000       0.00000000
I        1.95639870       1.95719617       6.12351370       0.00000000       0.00000000       0.00000000
I        2.55891633       6.36031220       6.21106752       0.00000000       0.00000000       0.00000000
I        6.43682885       2.47688127       6.22196897       0.00000000       0.00000000       0.00000000
I        6.87872769       6.83458556       0.04412871       0.00000000       0.00000000       0.00000000
24
Lattice="9.130629600101312 0.05275331061997672 -0.04024051922201474 0.05275331061997672 8.805227963403334 -0.023902551057888993 -0.028450957671326823 -0.016899644476075414 6.242263499648875" Properties=species:S:1:pos:R:3:momenta:R:3 config_id=t-FAPI3_parity_43__combined_strain_rattle_fa_rotation__sev-0.3 phase=t-FAPI3 mode=parity seed=746978458 source=t-FAPI3/CONTCAR distortion_family=combined distortion_severity=0.3 original_config_id=t-FAPI3_parity_43 distortion_label=combined_strain_rattle_fa_rotation pbc="T T T"
C        4.58090249       4.44885327       3.65631481       0.00000000       0.00000000       0.00000000
C        9.03964451       0.13874469       3.45933540       0.00000000       0.00000000       0.00000000
N        5.40323952       5.17188676       2.95695818       0.00000000       0.00000000       0.00000000
N        3.71195707       3.60682958       3.02292827       0.00000000       0.00000000       0.00000000
N        0.75836694       8.01331364       3.77290361       0.00000000       0.00000000       0.00000000
N        8.53214606       0.72158600       2.32122324       0.00000000       0.00000000       0.00000000
H        4.56167791       4.50554737       4.69326788       0.00000000       0.00000000       0.00000000
H        6.09847686       5.82749118       3.55800482       0.00000000       0.00000000       0.00000000
H        5.57493979       5.43081590       1.92940896       0.00000000       0.00000000       0.00000000
H        3.57293940       3.57500734       1.96459541       0.00000000       0.00000000       0.00000000
H        3.09387192       3.00180915       3.32290471       0.00000000       0.00000000       0.00000000
H        8.78517653       0.82385170       4.40052007       0.00000000       0.00000000       0.00000000
H        1.06556359       7.79853993       4.55571011       0.00000000       0.00000000       0.00000000
H        1.05846168       7.39074643       3.02992755       0.00000000       0.00000000       0.00000000
H        8.71104419       0.13710242       1.48389848       0.00000000       0.00000000       0.00000000
H        8.02132737       1.36975131       2.23789901       0.00000000       0.00000000       0.00000000
Pb       9.12972928       4.60998164      -0.01042578       0.00000000       0.00000000       0.00000000
Pb       4.57423042       0.01349483       6.17411673       0.00000000       0.00000000       0.00000000
I        0.04258259       4.47230306       2.96135344       0.00000000       0.00000000       0.00000000
I        4.46785802       8.79141605       3.00672825       0.00000000       0.00000000       0.00000000
I        1.93856636       1.79900732       6.14982194       0.00000000       0.00000000       0.00000000
I        2.60246459       6.31596394       6.15251709       0.00000000       0.00000000       0.00000000
I        6.55274719       2.41911661       6.17853296       0.00000000       0.00000000       0.00000000
I        7.25702738       6.88326318      -0.03122005       0.00000000       0.00000000       0.00000000
24
Lattice="8.717760133117299 0.09540997272051847 -0.028763896466468587 0.09540997272051847 8.881927354001961 0.008217742431892078 -0.020336725684747557 0.005810129854281785 6.2585967846420525" Properties=species:S:1:pos:R:3:momenta:R:3 config_id=t-FAPI3_parity_44__combined_strain_rattle_fa_rotation__sev-0.4 phase=t-FAPI3 mode=parity seed=1877520591 source=t-FAPI3/CONTCAR distortion_family=combined distortion_severity=0.4 original_config_id=t-FAPI3_parity_44 distortion_label=combined_strain_rattle_fa_rotation pbc="T T T"
C        4.33337778       4.52682017       3.42975968       0.00000000       0.00000000       0.00000000
C        0.10603401       8.84915212       3.48410662       0.00000000       0.00000000       0.00000000
N        5.25476159       5.34493669       3.06623585       0.00000000       0.00000000       0.00000000
N        3.49337973       3.82657675       3.02895768       0.00000000       0.00000000       0.00000000
N        0.90076903       8.11352730       2.97964647       0.00000000       0.00000000       0.00000000
N        7.96770225       0.86816767       2.96949815       0.00000000       0.00000000       0.00000000
H        4.37782209       4.59074626       4.57091686       0.00000000       0.00000000       0.00000000
H        5.87176923       5.90395691       3.51693705       0.00000000       0.00000000       0.00000000
H        5.38703427       5.27708917       1.93623663       0.00000000       0.00000000       0.00000000
H        3.56782773       3.63645942       2.12466935       0.00000000       0.00000000       0.00000000
H        2.87070916       3.21636751       3.62108529       0.00000000       0.00000000       0.00000000
H        8.62789481       0.13488767       4.68194386       0.00000000       0.00000000       0.00000000
H        1.21764094       7.47962202       3.46477155       0.00000000       0.00000000       0.00000000
H        0.93599363       8.07334512       1.94912333       0.00000000       0.00000000       0.00000000
H        7.88806912       1.13305122       2.02040300       0.00000000       0.00000000       0.00000000
H        7.42251781       1.50781890       3.49216268       0.00000000       0.00000000       0.00000000
Pb       8.70272056       4.46331612       6.16371736       0.00000000       0.00000000       0.00000000
Pb       4.22793266       0.08803797       0.00684024       0.00000000       0.00000000       0.00000000
I        8.65358932       4.53374162       2.91540538       0.00000000       0.00000000       0.00000000
I        4.52597582       8.92607418       2.93582077       0.00000000       0.00000000       0.00000000
I        1.99685774       1.87704412       6.18444278       0.00000000       0.00000000       0.00000000
I        2.49456454       6.44137195       6.22148706       0.00000000       0.00000000       0.00000000
I        6.29792092       2.60425928       6.10851466       0.00000000       0.00000000       0.00000000
I        6.83533599       6.98656164       6.15952760       0.00000000       0.00000000       0.00000000
24
Lattice="9.112984716972834 0.08287492336015162 0.04863007067323416 0.08287492336015162 9.08339428912461 -0.036640812250984124 0.034382560390048195 -0.025905883386948724 6.226590765393618" Properties=species:S:1:pos:R:3:momenta:R:3 config_id=t-FAPI3_parity_45__combined_strain_rattle_fa_rotation__sev-0.5 phase=t-FAPI3 mode=parity seed=3650707289 source=t-FAPI3/CONTCAR distortion_family=combined distortion_severity=0.5 original_config_id=t-FAPI3_parity_45 distortion_label=combined_strain_rattle_fa_rotation pbc="T T T"
C        4.75762677       4.48670986       3.51000917       0.00000000       0.00000000       0.00000000
C        9.11304905       0.09419944       3.67410514       0.00000000       0.00000000       0.00000000
N        5.19066343       5.51565693       3.04944230       0.00000000       0.00000000       0.00000000
N        3.83619741       3.61890753       3.10922916       0.00000000       0.00000000       0.00000000
N        1.20454105       8.53345168       3.04949406       0.00000000       0.00000000       0.00000000
N        8.02888037       0.57684176       3.01860691       0.00000000       0.00000000       0.00000000
H        4.80880631       4.60632369       4.54341388       0.00000000       0.00000000       0.00000000
H        5.83127412       6.20926687       3.46870061       0.00000000       0.00000000       0.00000000
H        5.31477009       5.73133085       1.83433028       0.00000000       0.00000000       0.00000000
H        3.70948096       3.54145357       1.85869698       0.00000000       0.00000000       0.00000000
H        3.44362194       2.95866038       3.63155893       0.00000000       0.00000000       0.00000000
H        9.00527036       0.22074624       4.77367705       0.00000000       0.00000000       0.00000000
H        1.85105301       8.11437658       3.55621981       0.00000000       0.00000000       0.00000000
H        1.17483771       8.30300890       2.01703459       0.00000000       0.00000000       0.00000000
H        7.97653851       0.59699158       1.82999524       0.00000000       0.00000000       0.00000000
H        7.28840277       0.99468125       3.16513831       0.00000000       0.00000000       0.00000000
Pb       9.12270638       4.49944593       0.03841252       0.00000000       0.00000000       0.00000000
Pb       4.68062601       9.07233954       6.21174117       0.00000000       0.00000000       0.00000000
I        9.15947393       4.64591449       3.07307260       0.00000000       0.00000000       0.00000000
I        4.76739014       9.08342197       3.06030121       0.00000000       0.00000000       0.00000000
I        1.96899948       2.10028653       0.01159011       0.00000000       0.00000000       0.00000000
I        2.71640130       6.58028953       6.14984484       0.00000000       0.00000000       0.00000000
I        6.63096769       2.77230399       6.21294478       0.00000000       0.00000000       0.00000000
I        7.34791570       7.09024308       6.15860989       0.00000000       0.00000000       0.00000000
24
Lattice="9.059252601105797 0.05622033533976346 0.07811431804636539 0.05622033533976346 9.262502012265987 -0.04716034464560504 0.055228590466244766 -0.033343430830863795 6.406309295475101" Properties=species:S:1:pos:R:3:momenta:R:3 config_id=t-FAPI3_parity_46__combined_strain_rattle_fa_rotation__sev-0.6 phase=t-FAPI3 mode=parity seed=4125719901 source=t-FAPI3/CONTCAR distortion_family=combined distortion_severity=0.6 original_config_id=t-FAPI3_parity_46 distortion_label=combined_strain_rattle_fa_rotation pbc="T T T"
C        4.53612382       4.93846260       3.56687748       0.00000000       0.00000000       0.00000000
C        9.03424543       0.14813563       3.74519333       0.00000000       0.00000000       0.00000000
N        5.65670560       4.90382590       3.34004236       0.00000000       0.00000000       0.00000000
N        3.43382032       4.31668307       2.81841038       0.00000000       0.00000000       0.00000000
N        1.06565220       8.42033519       2.96716777       0.00000000       0.00000000       0.00000000
N        8.17003239       0.91816388       3.07116001       0.00000000       0.00000000       0.00000000
H        4.22737633       5.25236510       4.60095909       0.00000000       0.00000000       0.00000000
H        6.50192406       5.26884552       3.94614218       0.00000000       0.00000000       0.00000000
H        6.16325543       4.53592417       2.31051320       0.00000000       0.00000000       0.00000000
H        3.48959565       3.73672878       1.87339105       0.00000000       0.00000000       0.00000000
H        2.54655671       4.38801648       3.19702922       0.00000000       0.00000000       0.00000000
H        8.91716380       0.14932523       4.77355841       0.00000000       0.00000000       0.00000000
H        1.55192943       7.83523173       3.51104901       0.00000000       0.00000000       0.00000000
H        1.08795934       8.41110805       1.91953821       0.00000000       0.00000000       0.00000000
H        8.11941599       1.08878406       2.08286627       0.00000000       0.00000000       0.00000000
H        7.59847425       1.39989894       3.69463462       0.00000000       0.00000000       0.00000000
Pb       9.13136986       4.54198784       6.43477996       0.00000000       0.00000000       0.00000000
Pb       4.64402130       0.06903981       6.27494127       0.00000000       0.00000000       0.00000000
I        9.10311350       4.56445016       3.27153741       0.00000000       0.00000000       0.00000000
I        4.67655207       9.24732356       3.12221820       0.00000000       0.00000000       0.00000000
I        2.11819056       2.12225976       6.11570657       0.00000000       0.00000000       0.00000000
I        2.64286141       6.67626713       6.15177742       0.00000000       0.00000000       0.00000000
I        6.57576196       2.62316302       0.06566598       0.00000000       0.00000000       0.00000000
I        7.30663135       7.28673836       6.28709690       0.00000000       0.00000000       0.00000000
24
Lattice="9.17109369740759 0.15835156171811032 -0.006140886229600171 0.15835156171811032 8.682620560533463 -0.05447113147805264 -0.004341745523184151 -0.0385123225533212 6.417608197989691" Properties=species:S:1:pos:R:3:momenta:R:3 config_id=t-FAPI3_parity_47__combined_strain_rattle_fa_rotation__sev-0.7 phase=t-FAPI3 mode=parity seed=941248242 source=t-FAPI3/CONTCAR distortion_family=combined distortion_severity=0.7 original_config_id=t-FAPI3_parity_47 distortion_label=combined_strain_rattle_fa_rotation pbc="T T T"
C        4.74607935       4.46282644       3.63971851       0.00000000       0.00000000       0.00000000
C        0.08878266       0.01737071       3.77186067       0.00000000       0.00000000       0.00000000
N        5.53228440       5.28778873       2.94046123       0.00000000       0.00000000       0.00000000
N        3.75364038       3.40655141       3.01270361       0.00000000       0.00000000       0.00000000
N        0.64061402       7.87435590       2.65482148       0.00000000       0.00000000       0.00000000
N        8.49447233       0.98012764       3.47203537       0.00000000       0.00000000       0.00000000
H        4.64575688       4.42661957       4.76098315       0.00000000       0.00000000       0.00000000
H        6.28983014       5.80984658       3.44177958       0.00000000       0.00000000       0.00000000
H        5.64504082       5.42416710       1.82511251       0.00000000       0.00000000       0.00000000
H        3.69246527       3.65764188       2.05710729       0.00000000       0.00000000       0.00000000
H        3.14711738       3.02191456       3.48509414       0.00000000       0.00000000       0.00000000
H        0.79312427       8.61925283       4.52170113       0.00000000       0.00000000       0.00000000
H        1.51182759       7.19695587       3.04815126       0.00000000       0.00000000       0.00000000
H        0.52172982       7.97469040       1.65977596       0.00000000       0.00000000       0.00000000
H        7.98701507       1.21262608       2.55987934       0.00000000       0.00000000       0.00000000
H        8.11221046       1.60531290       4.13715531       0.00000000       0.00000000       0.00000000
Pb       9.19153721       4.40369723       6.19939704       0.00000000       0.00000000       0.00000000
Pb       4.45984846       0.05831781       6.21084816       0.00000000       0.00000000       0.00000000
I        0.08431617       4.19710111       3.09988232       0.00000000       0.00000000       0.00000000
I        4.83081425       8.58205982       2.93320502       0.00000000       0.00000000       0.00000000
I        1.90305810       2.04507556       0.02670117       0.00000000       0.00000000       0.00000000
I        2.70421352       6.32977309       6.35189112       0.00000000       0.00000000       0.00000000
I        6.66881772       2.71294093       6.37860694       0.00000000       0.00000000       0.00000000
I        7.10024589       6.81949143      -0.04201420       0.00000000       0.00000000       0.00000000
24
Lattice="8.973640029068497 -0.03206544073891959 -0.12614871854532458 -0.03206544073891959 8.854650690716017 -0.02099525252013859 -0.08918999856397619 -0.014844118622169552 6.169011501503514" Properties=species:S:1:pos:R:3:momenta:R:3 config_id=t-FAPI3_parity_48__combined_strain_rattle_fa_rotation__sev-0.8 phase=t-FAPI3 mode=parity seed=1565246092 source=t-FAPI3/CONTCAR distortion_family=combined distortion_severity=0.8 original_config_id=t-FAPI3_parity_48 distortion_label=combined_strain_rattle_fa_rotation pbc="T T T"
C        4.18783709       4.62779296       3.61933190       0.00000000       0.00000000       0.00000000
C        8.84105005       0.05573975       3.23704636       0.00000000       0.00000000       0.00000000
N        5.51470965       5.21032354       2.94638620       0.00000000       0.00000000       0.00000000
N        3.60936507       3.77626861       2.75684212       0.00000000       0.00000000       0.00000000
N        0.35682467       7.80590667       3.27001896       0.00000000       0.00000000       0.00000000
N        8.25481788       1.00437872       2.82047843       0.00000000       0.00000000       0.00000000
H        3.86703226       4.61411020       4.45010276       0.00000000       0.00000000       0.00000000
H        5.71720761       5.74177974       3.81205679       0.00000000       0.00000000       0.00000000
H        5.81781730       5.05829963       2.33572490       0.00000000       0.00000000       0.00000000
H        3.91311242       3.53912606       1.84405478       0.00000000       0.00000000       0.00000000
H        2.65661784       3.00542363       3.08746056       0.00000000       0.00000000       0.00000000
H        0.22220879       0.46925578       4.53511248       0.00000000       0.00000000       0.00000000
H        1.11730977       7.28888272       3.63760536       0.00000000       0.00000000       0.00000000
H        0.42254994       7.48910498       2.19094113       0.00000000       0.00000000       0.00000000
H        8.16709573       0.75688056       1.62287388       0.00000000       0.00000000       0.00000000
H        7.96172944       1.80229098       3.07098251       0.00000000       0.00000000       0.00000000
Pb       8.71041113       4.44064498       5.82375126       0.00000000       0.00000000       0.00000000
Pb       4.56636423       0.08369643       5.89368648       0.00000000       0.00000000       0.00000000
I        0.02025280       4.50251821       3.01726299       0.00000000       0.00000000       0.00000000
I        4.27279354       0.18938275       2.87448129       0.00000000       0.00000000       0.00000000
I        1.99835836       1.83367545       0.07081061       0.00000000       0.00000000       0.00000000
I        2.36981092       6.37917080      -0.04718239       0.00000000       0.00000000       0.00000000
I        6.57889462       2.48130750      -0.03805138       0.00000000       0.00000000       0.00000000
I        6.95139845       6.72770707       5.93773631       0.00000000       0.00000000       0.00000000
24
Lattice="9.050727489170596 0.07193686928083431 -0.109584825910267 0.07193686928083431 9.384934389119094 -0.06673230232055845 -0.07747895165545096 -0.047181247790503415 6.068549163570658" Properties=species:S:1:pos:R:3:momenta:R:3 config_id=t-FAPI3_parity_49__combined_strain_rattle_fa_rotation__sev-0.9 phase=t-FAPI3 mode=parity seed=2341345283 source=t-FAPI3/CONTCAR distortion_family=combined distortion_severity=0.9 original_config_id=t-FAPI3_parity_49 distortion_label=combined_strain_rattle_fa_rotation pbc="T T T"
C        4.25092011       4.94626453       3.41609780       0.00000000       0.00000000       0.00000000
C        0.09054399       0.07663088       3.37351235       0.00000000       0.00000000       0.00000000
N        5.44254663       5.63805301       2.89566867       0.00000000       0.00000000       0.00000000
N        3.68899534       3.69693335       2.60358058       0.00000000       0.00000000       0.00000000
N        0.88458908       8.68489130       2.86320818       0.00000000       0.00000000       0.00000000
N        8.18610174       0.92621894       2.93520208       0.00000000       0.00000000       0.00000000
H        3.88199238       5.08258388       4.13884680       0.00000000       0.00000000       0.00000000
H        5.88838403       6.24247481       3.61287427       0.00000000       0.00000000       0.00000000
H        5.99270257       5.26594039       2.10292714       0.00000000       0.00000000       0.00000000
H        3.99665281       3.21876340       1.74599717       0.00000000       0.00000000       0.00000000
H        2.62130851       3.29971667       3.09051894       0.00000000       0.00000000       0.00000000
H        0.16865907       9.25047579       4.39012801       0.00000000       0.00000000       0.00000000
H        1.22503816       7.94113050       3.32435024       0.00000000       0.00000000       0.00000000
H        0.90084168       8.34160647       1.68713147       0.00000000       0.00000000       0.00000000
H        8.03899192       0.86197790       1.65689683       0.00000000       0.00000000       0.00000000
H        7.34822066       1.44335664       3.29815421       0.00000000       0.00000000       0.00000000
Pb       8.89464190       4.85674164       5.87924262       0.00000000       0.00000000       0.00000000
Pb       4.28993427       0.18679641       5.76855680       0.00000000       0.00000000       0.00000000
I        0.05441139       4.57247679       3.13264847       0.00000000       0.00000000       0.00000000
I        4.39362422       0.16231573       2.96718952       0.00000000       0.00000000       0.00000000
I        1.77914838       2.04599096       5.78462575       0.00000000       0.00000000       0.00000000
I        2.56369208       6.88641549       0.09328179       0.00000000       0.00000000       0.00000000
I        6.42313612       2.49077661       5.91367524       0.00000000       0.00000000       0.00000000
I        6.93010718       7.20514735       5.85862773       0.00000000       0.00000000       0.00000000
24
Lattice="8.91164022524366 -0.0005972023279789336 -0.17295179812111025 -0.0005972023279789336 9.151522045620684 -0.1176754786065084 -0.12228083490611594 -0.08319922619078152 6.408382233609918" Properties=species:S:1:pos:R:3:momenta:R:3 config_id=t-FAPI3_parity_50__combined_strain_rattle_fa_rotation__sev-1.0 phase=t-FAPI3 mode=parity seed=2401096036 source=t-FAPI3/CONTCAR distortion_family=combined distortion_severity=1.0 original_config_id=t-FAPI3_parity_50 distortion_label=combined_strain_rattle_fa_rotation pbc="T T T"
C        4.66244485       4.53309440       3.44275357       0.00000000       0.00000000       0.00000000
C        0.13571936       9.02414010       3.49851330       0.00000000       0.00000000       0.00000000
N        5.26607937       5.07879908       2.48652894       0.00000000       0.00000000       0.00000000
N        3.52132065       4.09433995       3.37566566       0.00000000       0.00000000       0.00000000
N        0.16619090       8.44996356       2.31289909       0.00000000       0.00000000       0.00000000
N        8.18797038       0.83313458       3.52783472       0.00000000       0.00000000       0.00000000
H        5.11578502       4.38728118       4.47053666       0.00000000       0.00000000       0.00000000
H        6.18220061       5.35393965       2.54798208       0.00000000       0.00000000       0.00000000
H        4.66062515       5.21413595       1.33593282       0.00000000       0.00000000       0.00000000
H        2.71400408       4.06557750       2.54295322       0.00000000       0.00000000       0.00000000
H        2.95671113       3.55715299       4.37018753       0.00000000       0.00000000       0.00000000
H        0.20547244       8.36223448       4.23874174       0.00000000       0.00000000       0.00000000
H        0.79798459       7.37999824       2.58888374       0.00000000       0.00000000       0.00000000
H        0.15867121       8.59332720       1.42732846       0.00000000       0.00000000       0.00000000
H        7.94311424       1.54379847       2.74550800       0.00000000       0.00000000       0.00000000
H        8.08304993       1.23485645       4.60972268       0.00000000       0.00000000       0.00000000
Pb       8.73533138       4.52871449       6.03351218       0.00000000       0.00000000       0.00000000
Pb       4.30789507       9.02425641      -0.04481173       0.00000000       0.00000000       0.00000000
I       -0.04711758       4.42843385       3.13617937       0.00000000       0.00000000       0.00000000
I        4.35796082       0.20693418       3.21939742       0.00000000       0.00000000       0.00000000
I        1.94163252       1.95247280      -0.04903323       0.00000000       0.00000000       0.00000000
I        2.38275733       6.79814995      -0.03899039       0.00000000       0.00000000       0.00000000
I        6.39944262       2.58927715       6.21619026       0.00000000       0.00000000       0.00000000
I        7.01893137       6.91278874      -0.10829137       0.00000000       0.00000000       0.00000000
