C  N  H  Pb I                           
   1.0000000000000000     
     9.0193899931757802    0.0000000000000000    0.0000000000000000
     0.0000000000000000    8.7777678445653162    0.0000000000000000
     0.0000000000000000    0.0000000000000000   12.7961868062944486
  C               N               H               Pb              I             
     4     8    20     4    12
Direct
     0.5085628738775867    0.0394892239931650    0.2469385397840114
     0.0084172252544334    0.4616776073995155    0.7492630306852135
     0.9922842901646263    0.5399269555902677    0.2466474706145618
     0.4932429628386643    0.9589829449318117    0.7443100907098952
     0.5700832845159809    0.9347748255570849    0.1895963491329411
     0.0710259297031115    0.5681686722795334    0.6896704172727439
     0.1321097906691975    0.5815836699003682    0.2399740433220501
     0.6302962093170308    0.9155431877562705    0.7404173646758423
     0.3652594208726399    0.0828205863412563    0.2391627255273505
     0.8702172183090582    0.4178505350658241    0.7408151931694391
     0.9264402014231123    0.4329611224903616    0.1903939616036823
     0.4289867701469703    0.0650269429878492    0.6864777866334464
     0.5759949195928584    0.0982832658273907    0.3062958601680279
     0.0751171988110357    0.4054280294701869    0.8073961617555128
     0.9250523362962895    0.5965655160841195    0.3056694812575884
     0.4245817921813355    0.9036351119852526    0.8072836288460223
     0.6805618813862253    0.9147533710509137    0.1975990169821671
     0.1821246222956390    0.5863304690128359    0.6987195843561338
     0.1748386406795461    0.6651974647817980    0.2902459929845591
     0.6753762547690272    0.8381687599999168    0.7935052379304111
     0.5117141501271618    0.8807300334830970    0.1314945369043770
     0.0153640431314841    0.6212325342178957    0.6291631419955337
     0.2060439399485290    0.5417353653902950    0.1887623866364692
     0.7016022112363558    0.9629067657992749    0.6860067070642231
     0.2987451930556233    0.0375330740861841    0.1857911703022026
     0.7972420241406155    0.4569087991181178    0.6889651471522171
     0.9840335126285709    0.3788491168256130    0.1313012348400235
     0.4847086044044318    0.1221334385325079    0.6307095901236437
     0.3228190598045657    0.1632372064663841    0.2915615530923645
     0.8256418388743469    0.3434470926068087    0.7919923967988325
     0.8188691106020656    0.4150418898908654    0.1992552813588020
     0.3184377443534885    0.0848165966995893    0.6974795174718054
     0.5043219855164764    0.4929304628870099    0.9798346141565162
     0.0009686460983716    0.0091771285959652    0.4822080189401419
     0.9985447833561452    0.9864867280828307    0.9791046003518389
     0.4954218948019786    0.5117028538435235    0.4817727485905507
     0.7915375135001668    0.7142302866482737    0.5038876194129287
     0.9612952730167379    0.9959461680166939    0.2303698380756529
     0.7059890198232139    0.1980612521447611    0.9623727066387673
     0.2036647160688858    0.2870910529675754    0.0058232098285060
     0.2062293230337247    0.3027489780874930    0.4590803885406061
     0.2963929308805575    0.8039356702925744    0.4600667147983017
     0.7938629703802320    0.6953295198378555    0.9596083854003723
     0.7059048409673991    0.2133080616864120    0.5017162389606753
     0.4619586095458459    0.5025155477984029    0.7318266534484579
     0.0415760289765643    0.0046487509885011    0.7306526231559261
     0.2966324852383622    0.7898149384185018    0.0040670470890944
     0.5404183564773035    0.4921674340463795    0.2306974153564880

  0.00000000E+00  0.00000000E+00  0.00000000E+00
  0.00000000E+00  0.00000000E+00  0.00000000E+00
  0.00000000E+00  0.00000000E+00  0.00000000E+00
  0.00000000E+00  0.00000000E+00  0.00000000E+00
  0.00000000E+00  0.00000000E+00  0.00000000E+00
  0.00000000E+00  0.00000000E+00  0.00000000E+00
  0.00000000E+00  0.00000000E+00  0.00000000E+00
  0.00000000E+00  0.00000000E+00  0.00000000E+00
  0.00000000E+00  0.00000000E+00  0.00000000E+00
  0.00000000E+00  0.00000000E+00  0.00000000E+00
  0.00000000E+00  0.00000000E+00  0.00000000E+00
  0.00000000E+00  0.00000000E+00  0.00000000E+00
  0.00000000E+00  0.00000000E+00  0.00000000E+00
  0.00000000E+00  0.00000000E+00  0.00000000E+00
  0.00000000E+00  0.00000000E+00  0.00000000E+00
  0.00000000E+00  0.00000000E+00  0.00000000E+00
  0.00000000E+00  0.00000000E+00  0.00000000E+00
  0.00000000E+00  0.00000000E+00  0.00000000E+00
  0.00000000E+00  0.00000000E+00  0.00000000E+00
  0.00000000E+00  0.00000000E+00  0.00000000E+00
  0.00000000E+00  0.00000000E+00  0.00000000E+00
  0.00000000E+00  0.00000000E+00  0.00000000E+00
  0.00000000E+00  0.00000000E+00  0.00000000E+00
  0.00000000E+00  0.00000000E+00  0.00000000E+00
  0.00000000E+00  0.00000000E+00  0.00000000E+00
  0.00000000E+00  0.00000000E+00  0.00000000E+00
  0.00000000E+00  0.00000000E+00  0.00000000E+00
  0.00000000E+00  0.00000000E+00  0.00000000E+00
  0.00000000E+00  0.00000000E+00  0.00000000E+00
  0.00000000E+00  0.00000000E+00  0.00000000E+00
  0.00000000E+00  0.00000000E+00  0.00000000E+00
  0.00000000E+00  0.00000000E+00  0.00000000E+00
  0.00000000E+00  0.00000000E+00  0.00000000E+00
  0.00000000E+00  0.00000000E+00  0.00000000E+00
  0.00000000E+00  0.00000000E+00  0.00000000E+00
  0.00000000E+00  0.00000000E+00  0.00000000E+00
  0.00000000E+00  0.00000000E+00  0.00000000E+00
  0.00000000E+00  0.00000000E+00  0.00000000E+00
  0.00000000E+00  0.00000000E+00  0.00000000E+00
  0.00000000E+00  0.00000000E+00  0.00000000E+00
  0.00000000E+00  0.00000000E+00  0.00000000E+00
  0.00000000E+00  0.00000000E+00  0.00000000E+00
  0.00000000E+00  0.00000000E+00  0.00000000E+00
  0.00000000E+00  0.00000000E+00  0.00000000E+00
  0.00000000E+00  0.00000000E+00  0.00000000E+00
  0.00000000E+00  0.00000000E+00  0.00000000E+00
  0.00000000E+00  0.00000000E+00  0.00000000E+00
  0.00000000E+00  0.00000000E+00  0.00000000E+00
