C  N  H  Pb I 
 1.0000000000000000
     9.0193899931757802    0.0000000000000000    0.0000000000000000
     0.0000000000000000    8.7777678445653162    0.0000000000000000
     0.0000000000000000    0.0000000000000000   12.7961868062944486
 C   N   H   Pb  I  
   4   8  20   4  12
Direct
  0.5085628738775844  0.0394892239931676  0.2469385397840148
  0.0084172252544350  0.4616776073995134  0.7492630306852160
  0.9922842901646275  0.5399269555902712  0.2466474706145590
  0.4932429628386634  0.9589829449318119  0.7443100907098943
  0.5700832845159807  0.9347748255570825  0.1895963491329397
  0.0710259297031085  0.5681686722795308  0.6896704172727409
  0.1321097906691946  0.5815836699003696  0.2399740433220497
  0.6302962093170291  0.9155431877562732  0.7404173646758438
  0.3652594208726364  0.0828205863412547  0.2391627255273475
  0.8702172183090615  0.4178505350658276  0.7408151931694373
  0.9264402014231141  0.4329611224903632  0.1903939616036796
  0.4289867701469693  0.0650269429878493  0.6864777866334464
  0.5759949195928551  0.0982832658273921  0.3062958601680295
  0.0751171988110347  0.4054280294701840  0.8073961617555112
  0.9250523362962901  0.5965655160841188  0.3056694812575886
  0.4245817921813350  0.9036351119852510  0.8072836288460195
  0.6805618813862258  0.9147533710509103  0.1975990169821649
  0.1821246222956360  0.5863304690128387  0.6987195843561362
  0.1748386406795432  0.6651974647817996  0.2902459929845597
  0.6753762547690267  0.8381687599999160  0.7935052379304076
  0.5117141501271630  0.8807300334830980  0.1314945369043789
  0.0153640431314836  0.6212325342178986  0.6291631419955330
  0.2060439399485304  0.5417353653902943  0.1887623866364674
  0.7016022112363548  0.9629067657992757  0.6860067070642257
  0.2987451930556234  0.0375330740861834  0.1857911703022012
  0.7972420241406143  0.4569087991181187  0.6889651471522150
  0.9840335126285739  0.3788491168256127  0.1313012348400222
  0.4847086044044338  0.1221334385325090  0.6307095901236445
  0.3228190598045668  0.1632372064663813  0.2915615530923679
  0.8256418388743492  0.3434470926068097  0.7919923967988289
  0.8188691106020638  0.4150418898908668  0.1992552813588000
  0.3184377443534916  0.0848165966995865  0.6974795174718055
  0.5043219855164733  0.4929304628870083  0.9798346141565127
  0.0009686460983698  0.0091771285959662  0.4822080189401395
  0.9985447833561460  0.9864867280828284  0.9791046003518369
  0.4954218948019782  0.5117028538435220  0.4817727485905478
  0.7915375135001637  0.7142302866482755  0.5038876194129283
  0.9612952730167410  0.9959461680166970  0.2303698380756495
  0.7059890198232163  0.1980612521447621  0.9623727066387644
  0.2036647160688864  0.2870910529675789  0.0058232098285057
  0.2062293230337250  0.3027489780874930  0.4590803885406080
  0.2963929308805552  0.8039356702925721  0.4600667147983018
  0.7938629703802301  0.6953295198378532  0.9596083854003729
  0.7059048409674014  0.2133080616864127  0.5017162389606771
  0.4619586095458443  0.5025155477984017  0.7318266534484583
  0.0415760289765663  0.0046487509884993  0.7306526231559245
  0.2966324852383614  0.7898149384184998  0.0040670470890926
  0.5404183564773037  0.4921674340463813  0.2306974153564870
Cartesian
  0.0000000000000000  0.0000000000000000  0.0000000000000000
  0.0000000000000000  0.0000000000000000  0.0000000000000000
  0.0000000000000000  0.0000000000000000  0.0000000000000000
  0.0000000000000000  0.0000000000000000  0.0000000000000000
  0.0000000000000000  0.0000000000000000  0.0000000000000000
  0.0000000000000000  0.0000000000000000  0.0000000000000000
  0.0000000000000000  0.0000000000000000  0.0000000000000000
  0.0000000000000000  0.0000000000000000  0.0000000000000000
  0.0000000000000000  0.0000000000000000  0.0000000000000000
  0.0000000000000000  0.0000000000000000  0.0000000000000000
  0.0000000000000000  0.0000000000000000  0.0000000000000000
  0.0000000000000000  0.0000000000000000  0.0000000000000000
  0.0000000000000000  0.0000000000000000  0.0000000000000000
  0.0000000000000000  0.0000000000000000  0.0000000000000000
  0.0000000000000000  0.0000000000000000  0.0000000000000000
  0.0000000000000000  0.0000000000000000  0.0000000000000000
  0.0000000000000000  0.0000000000000000  0.0000000000000000
  0.0000000000000000  0.0000000000000000  0.0000000000000000
  0.0000000000000000  0.0000000000000000  0.0000000000000000
  0.0000000000000000  0.0000000000000000  0.0000000000000000
  0.0000000000000000  0.0000000000000000  0.0000000000000000
  0.0000000000000000  0.0000000000000000  0.0000000000000000
  0.0000000000000000  0.0000000000000000  0.0000000000000000
  0.0000000000000000  0.0000000000000000  0.0000000000000000
  0.0000000000000000  0.0000000000000000  0.0000000000000000
  0.0000000000000000  0.0000000000000000  0.0000000000000000
  0.0000000000000000  0.0000000000000000  0.0000000000000000
  0.0000000000000000  0.0000000000000000  0.0000000000000000
  0.0000000000000000  0.0000000000000000  0.0000000000000000
  0.0000000000000000  0.0000000000000000  0.0000000000000000
  0.0000000000000000  0.0000000000000000  0.0000000000000000
  0.0000000000000000  0.0000000000000000  0.0000000000000000
  0.0000000000000000  0.0000000000000000  0.0000000000000000
  0.0000000000000000  0.0000000000000000  0.0000000000000000
  0.0000000000000000  0.0000000000000000  0.0000000000000000
  0.0000000000000000  0.0000000000000000  0.0000000000000000
  0.0000000000000000  0.0000000000000000  0.0000000000000000
  0.0000000000000000  0.0000000000000000  0.0000000000000000
  0.0000000000000000  0.0000000000000000  0.0000000000000000
  0.0000000000000000  0.0000000000000000  0.0000000000000000
  0.0000000000000000  0.0000000000000000  0.0000000000000000
  0.0000000000000000  0.0000000000000000  0.0000000000000000
  0.0000000000000000  0.0000000000000000  0.0000000000000000
  0.0000000000000000  0.0000000000000000  0.0000000000000000
  0.0000000000000000  0.0000000000000000  0.0000000000000000
  0.0000000000000000  0.0000000000000000  0.0000000000000000
  0.0000000000000000  0.0000000000000000  0.0000000000000000
  0.0000000000000000  0.0000000000000000  0.0000000000000000
