C  N  H  Pb I                           
   1.0000000000000000     
     8.9515839677080429    0.0000000000000000    0.0000000000000000
     0.0000000000000000    8.9515839677080429    0.0000000000000000
     0.0000000000000000    0.0000000000000000    6.3289724258144924
  C               N               H               Pb              I             
     2     4    10     2     6
Direct
     0.4950044574724757    0.5007090029285592    0.5982215086434906
     0.0164146170513462    0.0059546323225419    0.5860314658613746
     0.5831581015755845    0.5948262791518317    0.4802988407631545
     0.4080785572918941    0.4079172644079492    0.4811496603567917
     0.0991277997120719    0.9092784877426254    0.4766553062286150
     0.9156560589364346    0.0921812469042464    0.4661568766025539
     0.4985236612523707    0.5008781919331540    0.7606421853422560
     0.6712837612070643    0.6581065431578637    0.5728077441669583
     0.6079034307654396    0.6020555471563895    0.3146590498350648
     0.4033351530026152    0.3983891657760807    0.3214307838973269
     0.3408828530327597    0.3381521926130304    0.5552021336398454
     0.9969069602451839    0.9971033549799841    0.7509074420152615
     0.1534165169955131    0.8328792899248469    0.5603160119866928
     0.1026102402477491    0.8987785734908940    0.3090783740697063
     0.8975218173008273    0.1021527942360692    0.3270343313933921
     0.8319852412628634    0.1613481823531160    0.5729405761973965
     0.9972559425424095    0.4949829893885536    0.9863443138417765
     0.5002473963865626    0.0086230025431107    0.9822479297195912
     0.0018088316479989    0.4981521103045168    0.4920730207188981
     0.5033570773948739    0.9955132623856500    0.4958998426971419
     0.2155487778652514    0.2202732634567255    0.9906981675621651
     0.2756966503037077    0.7144492212501845    0.9963548180212953
     0.7211853008467699    0.2765835818000042    0.9954217054650911
     0.7917663809229865    0.7774739037994962    0.9920934588776973

  0.00000000E+00  0.00000000E+00  0.00000000E+00
  0.00000000E+00  0.00000000E+00  0.00000000E+00
  0.00000000E+00  0.00000000E+00  0.00000000E+00
  0.00000000E+00  0.00000000E+00  0.00000000E+00
  0.00000000E+00  0.00000000E+00  0.00000000E+00
  0.00000000E+00  0.00000000E+00  0.00000000E+00
  0.00000000E+00  0.00000000E+00  0.00000000E+00
  0.00000000E+00  0.00000000E+00  0.00000000E+00
  0.00000000E+00  0.00000000E+00  0.00000000E+00
  0.00000000E+00  0.00000000E+00  0.00000000E+00
  0.00000000E+00  0.00000000E+00  0.00000000E+00
  0.00000000E+00  0.00000000E+00  0.00000000E+00
  0.00000000E+00  0.00000000E+00  0.00000000E+00
  0.00000000E+00  0.00000000E+00  0.00000000E+00
  0.00000000E+00  0.00000000E+00  0.00000000E+00
  0.00000000E+00  0.00000000E+00  0.00000000E+00
  0.00000000E+00  0.00000000E+00  0.00000000E+00
  0.00000000E+00  0.00000000E+00  0.00000000E+00
  0.00000000E+00  0.00000000E+00  0.00000000E+00
  0.00000000E+00  0.00000000E+00  0.00000000E+00
  0.00000000E+00  0.00000000E+00  0.00000000E+00
  0.00000000E+00  0.00000000E+00  0.00000000E+00
  0.00000000E+00  0.00000000E+00  0.00000000E+00
  0.00000000E+00  0.00000000E+00  0.00000000E+00
