C  N  H  Pb I 
 1.0000000000000000
     8.9515839677080429    0.0000000000000000    0.0000000000000000
     0.0000000000000000    8.9515839677080429    0.0000000000000000
     0.0000000000000000    0.0000000000000000    6.3289724258144924
 C   N   H   Pb  I  
   2   4  10   2   6
Direct
  0.4950044574724759  0.5007090029285608  0.5982215086434887
  0.0164146170513482  0.0059546323225440  0.5860314658613742
  0.5831581015755813  0.5948262791518341  0.4802988407631523
  0.4080785572918922  0.4079172644079460  0.4811496603567917
  0.0991277997120742  0.9092784877426255  0.4766553062286170
  0.9156560589364336  0.0921812469042481  0.4661568766025552
  0.4985236612523726  0.5008781919331545  0.7606421853422592
  0.6712837612070666  0.6581065431578629  0.5728077441669569
  0.6079034307654418  0.6020555471563874  0.3146590498350615
  0.4033351530026174  0.3983891657760828  0.3214307838973302
  0.3408828530327564  0.3381521926130293  0.5552021336398448
  0.9969069602451853  0.9971033549799836  0.7509074420152628
  0.1534165169955113  0.8328792899248466  0.5603160119866925
  0.1026102402477501  0.8987785734908946  0.3090783740697053
  0.8975218173008264  0.1021527942360718  0.3270343313933903
  0.8319852412628630  0.1613481823531181  0.5729405761973932
  0.9972559425424120  0.4949829893885540  0.9863443138417792
  0.5002473963865606  0.0086230025431105  0.9822479297195895
  0.0018088316479997  0.4981521103045142  0.4920730207188974
  0.5033570773948762  0.9955132623856493  0.4958998426971404
  0.2155487778652544  0.2202732634567251  0.9906981675621654
  0.2756966503037108  0.7144492212501840  0.9963548180212959
  0.7211853008467679  0.2765835818000064  0.9954217054650907
  0.7917663809229899  0.7774739037994951  0.9920934588776981
Cartesian
  0.0000000000000000  0.0000000000000000  0.0000000000000000
  0.0000000000000000  0.0000000000000000  0.0000000000000000
  0.0000000000000000  0.0000000000000000  0.0000000000000000
  0.0000000000000000  0.0000000000000000  0.0000000000000000
  0.0000000000000000  0.0000000000000000  0.0000000000000000
  0.0000000000000000  0.0000000000000000  0.0000000000000000
  0.0000000000000000  0.0000000000000000  0.0000000000000000
  0.0000000000000000  0.0000000000000000  0.0000000000000000
  0.0000000000000000  0.0000000000000000  0.0000000000000000
  0.0000000000000000  0.0000000000000000  0.0000000000000000
  0.0000000000000000  0.0000000000000000  0.0000000000000000
  0.0000000000000000  0.0000000000000000  0.0000000000000000
  0.0000000000000000  0.0000000000000000  0.0000000000000000
  0.0000000000000000  0.0000000000000000  0.0000000000000000
  0.0000000000000000  0.0000000000000000  0.0000000000000000
  0.0000000000000000  0.0000000000000000  0.0000000000000000
  0.0000000000000000  0.0000000000000000  0.0000000000000000
  0.0000000000000000  0.0000000000000000  0.0000000000000000
  0.0000000000000000  0.0000000000000000  0.0000000000000000
  0.0000000000000000  0.0000000000000000  0.0000000000000000
  0.0000000000000000  0.0000000000000000  0.0000000000000000
  0.0000000000000000  0.0000000000000000  0.0000000000000000
  0.0000000000000000  0.0000000000000000  0.0000000000000000
  0.0000000000000000  0.0000000000000000  0.0000000000000000
