C  N  H  Pb I 
 1.0000000000000000
     8.9933867106690890    0.0836063606789356    0.0395266128174035
     0.0813666140308774    8.6299438654357026   -0.0370294883691635
     0.0560780631300184   -0.0539814060822645   13.0142073442645501
 C   N   H   Pb  I  
   4   8  20   4  12
Direct
  0.5079545620594850  0.0406959883747638  0.2475946235704422
  0.0079545554343785  0.4593040156808086  0.7475946208954544
  0.9920454334685080  0.5406959860585883  0.2475946299923701
  0.4920454478785192  0.9593040127881084  0.7475946256013860
  0.5705946771768488  0.9354362274290706  0.1897252141182125
  0.0705946740239366  0.5645637727658527  0.6897252201605892
  0.1310336582348178  0.5838994807281044  0.2399588818968306
  0.6310336640152745  0.9161005167449354  0.7399588856927696
  0.3689663406760989  0.0838994856595276  0.2399588837149887
  0.8689663414621858  0.4161005194902584  0.7399588873068386
  0.9294053217315231  0.4354362199708706  0.1897252216917170
  0.4294053329446624  0.0645637684645837  0.6897252229388682
  0.5763163080256496  0.0964013618091920  0.3070350010383273
  0.0763163041439384  0.4035986538439506  0.8070350065760272
  0.9236836942065134  0.5964013535599981  0.3070350101048526
  0.4236837047439705  0.9035986570811897  0.8070350168177974
  0.6816203964682235  0.9153350004290041  0.1981420696355345
  0.1816203953774488  0.5846650008662725  0.6981420678013572
  0.1727440398663828  0.6618424652955209  0.2915835922463332
  0.6727440483713266  0.8381575300147407  0.7915835946568774
  0.5137159496301192  0.8799864858485240  0.1317994637689628
  0.0137159530701184  0.6200135182310216  0.6317994618654600
  0.2027680669080062  0.5368550561063357  0.1875867459194599
  0.7027680811919139  0.9631449364772251  0.6875867437071859
  0.2972319239003343  0.0368550498131778  0.1875867509889692
  0.7972319185576197  0.4631449498156998  0.6875867489999620
  0.9862840415021580  0.3799864786951984  0.1317994707683488
  0.4862840485959766  0.1200135117898101  0.6317994631872472
  0.3272559576570425  0.1618424731988938  0.2915835925839973
  0.8272559591671835  0.3381575261065085  0.7915835908767332
  0.8183796010724744  0.4153349919539674  0.1981420818729491
  0.3183796102733418  0.0846649986020452  0.6981420736952383
  0.5053689576834063  0.4874516907672511  0.9830162263476746
  0.0009507669134631  0.0105259719845479  0.4805753522413695
  0.9914839815400229  0.9891509970464863  0.9852667832850617
  0.4932342795846892  0.5129555082394787  0.4807499310140473
  0.8046226161947074  0.7032698721541095  0.5050242310466646
  0.9611108019550216  0.9977035793127492  0.2306966673014413
  0.7097106056183209  0.2052590076827880  0.9642930532733577
  0.2028865203069257  0.2872213849886350  0.0036285266254368
  0.2031028775266827  0.3023154863096472  0.4592895002711966
  0.2972386771335361  0.8057177075022686  0.4609656100567651
  0.7932180862681504  0.6947669247810246  0.9576104188521625
  0.7109043521924671  0.2170835695618984  0.5066430111918770
  0.4583359194016874  0.5036244349186467  0.7302893082136280
  0.0436072906209876  0.0004153809339474  0.7351598378345174
  0.2998103916034526  0.7938199872934336  0.0025747669246010
  0.5377961846351462  0.4972837882941641  0.2328625588434699
Cartesian
  0.0000000000000000  0.0000000000000000  0.0000000000000000
  0.0000000000000000  0.0000000000000000  0.0000000000000000
  0.0000000000000000  0.0000000000000000  0.0000000000000000
  0.0000000000000000  0.0000000000000000  0.0000000000000000
  0.0000000000000000  0.0000000000000000  0.0000000000000000
  0.0000000000000000  0.0000000000000000  0.0000000000000000
  0.0000000000000000  0.0000000000000000  0.0000000000000000
  0.0000000000000000  0.0000000000000000  0.0000000000000000
  0.0000000000000000  0.0000000000000000  0.0000000000000000
  0.0000000000000000  0.0000000000000000  0.0000000000000000
  0.0000000000000000  0.0000000000000000  0.0000000000000000
  0.0000000000000000  0.0000000000000000  0.0000000000000000
  0.0000000000000000  0.0000000000000000  0.0000000000000000
  0.0000000000000000  0.0000000000000000  0.0000000000000000
  0.0000000000000000  0.0000000000000000  0.0000000000000000
  0.0000000000000000  0.0000000000000000  0.0000000000000000
  0.0000000000000000  0.0000000000000000  0.0000000000000000
  0.0000000000000000  0.0000000000000000  0.0000000000000000
  0.0000000000000000  0.0000000000000000  0.0000000000000000
  0.0000000000000000  0.0000000000000000  0.0000000000000000
  0.0000000000000000  0.0000000000000000  0.0000000000000000
  0.0000000000000000  0.0000000000000000  0.0000000000000000
  0.0000000000000000  0.0000000000000000  0.0000000000000000
  0.0000000000000000  0.0000000000000000  0.0000000000000000
  0.0000000000000000  0.0000000000000000  0.0000000000000000
  0.0000000000000000  0.0000000000000000  0.0000000000000000
  0.0000000000000000  0.0000000000000000  0.0000000000000000
  0.0000000000000000  0.0000000000000000  0.0000000000000000
  0.0000000000000000  0.0000000000000000  0.0000000000000000
  0.0000000000000000  0.0000000000000000  0.0000000000000000
  0.0000000000000000  0.0000000000000000  0.0000000000000000
  0.0000000000000000  0.0000000000000000  0.0000000000000000
  0.0000000000000000  0.0000000000000000  0.0000000000000000
  0.0000000000000000  0.0000000000000000  0.0000000000000000
  0.0000000000000000  0.0000000000000000  0.0000000000000000
  0.0000000000000000  0.0000000000000000  0.0000000000000000
  0.0000000000000000  0.0000000000000000  0.0000000000000000
  0.0000000000000000  0.0000000000000000  0.0000000000000000
  0.0000000000000000  0.0000000000000000  0.0000000000000000
  0.0000000000000000  0.0000000000000000  0.0000000000000000
  0.0000000000000000  0.0000000000000000  0.0000000000000000
  0.0000000000000000  0.0000000000000000  0.0000000000000000
  0.0000000000000000  0.0000000000000000  0.0000000000000000
  0.0000000000000000  0.0000000000000000  0.0000000000000000
  0.0000000000000000  0.0000000000000000  0.0000000000000000
  0.0000000000000000  0.0000000000000000  0.0000000000000000
  0.0000000000000000  0.0000000000000000  0.0000000000000000
  0.0000000000000000  0.0000000000000000  0.0000000000000000
