C  N  H  Pb I 
 1.0000000000000000
     8.8393407651327784   -0.0155084725993097   -0.0427719792132924
    -0.0150930131864285    8.9480290749704672    0.0403608818287541
    -0.0606824005284551    0.0588378950882459   12.6523145164817805
 C   N   H   Pb  I  
   4   8  20   4  12
Direct
  0.5079545620594851  0.0406959883747638  0.2475946235704422
  0.0079545554343785  0.4593040156808088  0.7475946208954544
  0.9920454334685082  0.5406959860585880  0.2475946299923701
  0.4920454478785191  0.9593040127881086  0.7475946256013861
  0.5705946771768488  0.9354362274290704  0.1897252141182125
  0.0705946740239366  0.5645637727658526  0.6897252201605891
  0.1310336582348178  0.5838994807281046  0.2399588818968306
  0.6310336640152745  0.9161005167449356  0.7399588856927696
  0.3689663406760989  0.0838994856595276  0.2399588837149887
  0.8689663414621858  0.4161005194902584  0.7399588873068389
  0.9294053217315232  0.4354362199708707  0.1897252216917170
  0.4294053329446625  0.0645637684645837  0.6897252229388682
  0.5763163080256496  0.0964013618091920  0.3070350010383273
  0.0763163041439384  0.4035986538439507  0.8070350065760273
  0.9236836942065133  0.5964013535599979  0.3070350101048526
  0.4236837047439705  0.9035986570811894  0.8070350168177977
  0.6816203964682235  0.9153350004290044  0.1981420696355345
  0.1816203953774488  0.5846650008662727  0.6981420678013572
  0.1727440398663828  0.6618424652955210  0.2915835922463332
  0.6727440483713266  0.8381575300147408  0.7915835946568774
  0.5137159496301194  0.8799864858485241  0.1317994637689628
  0.0137159530701184  0.6200135182310217  0.6317994618654601
  0.2027680669080062  0.5368550561063355  0.1875867459194599
  0.7027680811919139  0.9631449364772251  0.6875867437071859
  0.2972319239003343  0.0368550498131778  0.1875867509889692
  0.7972319185576198  0.4631449498157000  0.6875867489999619
  0.9862840415021581  0.3799864786951984  0.1317994707683488
  0.4862840485959766  0.1200135117898101  0.6317994631872471
  0.3272559576570426  0.1618424731988938  0.2915835925839973
  0.8272559591671836  0.3381575261065086  0.7915835908767331
  0.8183796010724745  0.4153349919539673  0.1981420818729491
  0.3183796102733418  0.0846649986020452  0.6981420736952382
  0.5009096247403392  0.4862129441932540  0.9805862858040850
  0.0033064271459338  0.0128646945453883  0.4808407868168042
  0.9968443823050195  0.9874586845173019  0.9820819787158755
  0.4980424998666481  0.5114111664461595  0.4818994690982461
  0.7959553868651523  0.7130667894801754  0.5012259757216226
  0.9621859676084593  0.9944966496076586  0.2312552873925522
  0.7055096679959431  0.1956691495604771  0.9605680584519529
  0.2048179514081289  0.2883874395692689  0.0035883567375320
  0.2069433173477878  0.3055963919066362  0.4609339633185196
  0.2938567796711402  0.8030913867842038  0.4610748300102769
  0.7944154275485560  0.6936266330153393  0.9609340625593876
  0.7051277632348614  0.2112559731170182  0.5028194725308069
  0.4586023920491067  0.5072290092545615  0.7322075811740083
  0.0410159975666239  0.0066848725403364  0.7326171852850060
  0.2962332184271389  0.7913181053313478  0.0036677389679834
  0.5400169327315142  0.4941669747260706  0.2317702512568894
Cartesian
  0.0000000000000000  0.0000000000000000  0.0000000000000000
  0.0000000000000000  0.0000000000000000  0.0000000000000000
  0.0000000000000000  0.0000000000000000  0.0000000000000000
  0.0000000000000000  0.0000000000000000  0.0000000000000000
  0.0000000000000000  0.0000000000000000  0.0000000000000000
  0.0000000000000000  0.0000000000000000  0.0000000000000000
  0.0000000000000000  0.0000000000000000  0.0000000000000000
  0.0000000000000000  0.0000000000000000  0.0000000000000000
  0.0000000000000000  0.0000000000000000  0.0000000000000000
  0.0000000000000000  0.0000000000000000  0.0000000000000000
  0.0000000000000000  0.0000000000000000  0.0000000000000000
  0.0000000000000000  0.0000000000000000  0.0000000000000000
  0.0000000000000000  0.0000000000000000  0.0000000000000000
  0.0000000000000000  0.0000000000000000  0.0000000000000000
  0.0000000000000000  0.0000000000000000  0.0000000000000000
  0.0000000000000000  0.0000000000000000  0.0000000000000000
  0.0000000000000000  0.0000000000000000  0.0000000000000000
  0.0000000000000000  0.0000000000000000  0.0000000000000000
  0.0000000000000000  0.0000000000000000  0.0000000000000000
  0.0000000000000000  0.0000000000000000  0.0000000000000000
  0.0000000000000000  0.0000000000000000  0.0000000000000000
  0.0000000000000000  0.0000000000000000  0.0000000000000000
  0.0000000000000000  0.0000000000000000  0.0000000000000000
  0.0000000000000000  0.0000000000000000  0.0000000000000000
  0.0000000000000000  0.0000000000000000  0.0000000000000000
  0.0000000000000000  0.0000000000000000  0.0000000000000000
  0.0000000000000000  0.0000000000000000  0.0000000000000000
  0.0000000000000000  0.0000000000000000  0.0000000000000000
  0.0000000000000000  0.0000000000000000  0.0000000000000000
  0.0000000000000000  0.0000000000000000  0.0000000000000000
  0.0000000000000000  0.0000000000000000  0.0000000000000000
  0.0000000000000000  0.0000000000000000  0.0000000000000000
  0.0000000000000000  0.0000000000000000  0.0000000000000000
  0.0000000000000000  0.0000000000000000  0.0000000000000000
  0.0000000000000000  0.0000000000000000  0.0000000000000000
  0.0000000000000000  0.0000000000000000  0.0000000000000000
  0.0000000000000000  0.0000000000000000  0.0000000000000000
  0.0000000000000000  0.0000000000000000  0.0000000000000000
  0.0000000000000000  0.0000000000000000  0.0000000000000000
  0.0000000000000000  0.0000000000000000  0.0000000000000000
  0.0000000000000000  0.0000000000000000  0.0000000000000000
  0.0000000000000000  0.0000000000000000  0.0000000000000000
  0.0000000000000000  0.0000000000000000  0.0000000000000000
  0.0000000000000000  0.0000000000000000  0.0000000000000000
  0.0000000000000000  0.0000000000000000  0.0000000000000000
  0.0000000000000000  0.0000000000000000  0.0000000000000000
  0.0000000000000000  0.0000000000000000  0.0000000000000000
  0.0000000000000000  0.0000000000000000  0.0000000000000000
