C  N  H  Pb I                           
   1.0000000000000000     
     9.0193899931757802    0.0000000000000000    0.0000000000000000
     0.0000000000000000    8.7777678445653162    0.0000000000000000
     0.0000000000000000    0.0000000000000000   12.7961868062944486
  C               N               H               Pb              I             
     4     8    20     4    12
Direct
     0.4474820924304836    0.0091999976971877    0.2472017729428089
     0.0238997860655275    0.4604039751694984    0.7258316415020403
     0.0503422731612631    0.5425352699674164    0.2436359577976219
     0.5254312132612569    0.0092372547114863    0.7514343435372624
     0.4705643771491737    0.1526293154687934    0.2233917057154429
     0.0177899436327706    0.6095731831403626    0.7306051998751144
     0.0809911532073713    0.4012824662573777    0.2175856152931033
     0.5139265498615231    0.8616366711781609    0.7661568839931689
     0.5195649649128171    0.8934046308382406    0.2066668585004976
     0.9083704308584046    0.3701704910188184    0.7173664425456252
     0.9305918691234467    0.6167700525707147    0.2154528345639974
     0.5187296899154532    0.0771818670704576    0.6602357375896872
     0.3621995205362012    0.9839405023984327    0.3055239807513956
     0.1333612933324986    0.4068772308707693    0.7295976262282480
     0.1305937403438975    0.6024177098594379    0.2929118482365212
     0.5424836155570176    0.0806688192766529    0.8204970256818598
     0.4034301364140589    0.2340631521168817    0.2554145060336239
     0.1146085116726852    0.6701459624501709    0.7318380425705797
     0.1736597730743838    0.3497093092146812    0.2470840329293367
     0.5274366955079159    0.8174645836046111    0.8395005122930215
     0.5473630942068652    0.1843751260253796    0.1685736096459607
     0.9192527115921436    0.6672743562656507    0.7262516338303087
     0.0116675182969175    0.3367494308277088    0.1729360551080461
     0.4995794462141916    0.7867882613505159    0.7061373577246357
     0.6017154912940086    0.9067897875061561    0.1527816446429213
     0.8024583195852557    0.4103533359950902    0.7145294583680055
     0.8517321202287249    0.5683767196632132    0.1683586102277204
     0.5011888730292355    0.0175844234655358    0.5925210405135530
     0.4993135586249977    0.7855535801727243    0.2333306947449501
     0.9226745882860499    0.2546147595764481    0.7191301581812013
     0.9204543640829428    0.7290817488996240    0.2354151674535814
     0.5214215095443819    0.1935668091046878    0.6574760818080421
     0.5023441722619779    0.4879288203356396    0.9810849892003191
     0.0023441785924945    0.0120711836670608    0.4810849868122489
     0.9976558244282359    0.9879288178551917    0.9810849914872719
     0.4976558298475950    0.5120711849063113    0.4810849885500943
     0.7958928941106862    0.7105293335369609    0.5032699314851357
     0.9606598229172718    0.9944623124655507    0.2320592544955247
     0.7060293635732506    0.1956508126848462    0.9614522052702341
     0.2041070863312058    0.2894707010478257    0.0032699320500740
     0.2060293779368507    0.3043491755398549    0.4614522129329686
     0.2939706246777973    0.8043491828284957    0.4614522154174097
     0.7939706408800902    0.6956508110307098    0.9614522100061293
     0.7041071043942750    0.2105293303375291    0.5032699287679776
     0.4606598128207438    0.5055376617516671    0.7320592563212429
     0.0393401777688851    0.0055376740307977    0.7320592521911493
     0.2958929104798855    0.7894706933117490    0.0032699289927791
     0.5393401671427824    0.4944623109760684    0.2320592517272502

  0.00000000E+00  0.00000000E+00  0.00000000E+00
  0.00000000E+00  0.00000000E+00  0.00000000E+00
  0.00000000E+00  0.00000000E+00  0.00000000E+00
  0.00000000E+00  0.00000000E+00  0.00000000E+00
  0.00000000E+00  0.00000000E+00  0.00000000E+00
  0.00000000E+00  0.00000000E+00  0.00000000E+00
  0.00000000E+00  0.00000000E+00  0.00000000E+00
  0.00000000E+00  0.00000000E+00  0.00000000E+00
  0.00000000E+00  0.00000000E+00  0.00000000E+00
  0.00000000E+00  0.00000000E+00  0.00000000E+00
  0.00000000E+00  0.00000000E+00  0.00000000E+00
  0.00000000E+00  0.00000000E+00  0.00000000E+00
  0.00000000E+00  0.00000000E+00  0.00000000E+00
  0.00000000E+00  0.00000000E+00  0.00000000E+00
  0.00000000E+00  0.00000000E+00  0.00000000E+00
  0.00000000E+00  0.00000000E+00  0.00000000E+00
  0.00000000E+00  0.00000000E+00  0.00000000E+00
  0.00000000E+00  0.00000000E+00  0.00000000E+00
  0.00000000E+00  0.00000000E+00  0.00000000E+00
  0.00000000E+00  0.00000000E+00  0.00000000E+00
  0.00000000E+00  0.00000000E+00  0.00000000E+00
  0.00000000E+00  0.00000000E+00  0.00000000E+00
  0.00000000E+00  0.00000000E+00  0.00000000E+00
  0.00000000E+00  0.00000000E+00  0.00000000E+00
  0.00000000E+00  0.00000000E+00  0.00000000E+00
  0.00000000E+00  0.00000000E+00  0.00000000E+00
  0.00000000E+00  0.00000000E+00  0.00000000E+00
  0.00000000E+00  0.00000000E+00  0.00000000E+00
  0.00000000E+00  0.00000000E+00  0.00000000E+00
  0.00000000E+00  0.00000000E+00  0.00000000E+00
  0.00000000E+00  0.00000000E+00  0.00000000E+00
  0.00000000E+00  0.00000000E+00  0.00000000E+00
  0.00000000E+00  0.00000000E+00  0.00000000E+00
  0.00000000E+00  0.00000000E+00  0.00000000E+00
  0.00000000E+00  0.00000000E+00  0.00000000E+00
  0.00000000E+00  0.00000000E+00  0.00000000E+00
  0.00000000E+00  0.00000000E+00  0.00000000E+00
  0.00000000E+00  0.00000000E+00  0.00000000E+00
  0.00000000E+00  0.00000000E+00  0.00000000E+00
  0.00000000E+00  0.00000000E+00  0.00000000E+00
  0.00000000E+00  0.00000000E+00  0.00000000E+00
  0.00000000E+00  0.00000000E+00  0.00000000E+00
  0.00000000E+00  0.00000000E+00  0.00000000E+00
  0.00000000E+00  0.00000000E+00  0.00000000E+00
  0.00000000E+00  0.00000000E+00  0.00000000E+00
  0.00000000E+00  0.00000000E+00  0.00000000E+00
  0.00000000E+00  0.00000000E+00  0.00000000E+00
  0.00000000E+00  0.00000000E+00  0.00000000E+00
