C  N  H  Pb I 
 1.0000000000000000
     9.0193899931757802    0.0000000000000000    0.0000000000000000
     0.0000000000000000    8.7777678445653162    0.0000000000000000
     0.0000000000000000    0.0000000000000000   12.7961868062944486
 C   N   H   Pb  I  
   4   8  20   4  12
Direct
  0.4474820924304804  0.0091999976971845  0.2472017729428075
  0.0238997860655305  0.4604039751694976  0.7258316415020420
  0.0503422731612631  0.5425352699674139  0.2436359577976199
  0.5254312132612554  0.0092372547114863  0.7514343435372629
  0.4705643771491761  0.1526293154687933  0.2233917057154430
  0.0177899436327673  0.6095731831403660  0.7306051998751121
  0.0809911532073709  0.4012824662573806  0.2175856152931002
  0.5139265498615254  0.8616366711781586  0.7661568839931694
  0.5195649649128140  0.8934046308382423  0.2066668585004977
  0.9083704308584016  0.3701704910188169  0.7173664425456253
  0.9305918691234465  0.6167700525707169  0.2154528345639944
  0.5187296899154558  0.0771818670704561  0.6602357375896901
  0.3621995205362001  0.9839405023984297  0.3055239807513963
  0.1333612933324967  0.4068772308707699  0.7295976262282459
  0.1305937403438978  0.6024177098594393  0.2929118482365224
  0.5424836155570141  0.0806688192766552  0.8204970256818614
  0.4034301364140600  0.2340631521168846  0.2554145060336265
  0.1146085116726858  0.6701459624501701  0.7318380425705818
  0.1736597730743830  0.3497093092146796  0.2470840329293360
  0.5274366955079125  0.8174645836046134  0.8395005122930190
  0.5473630942068638  0.1843751260253766  0.1685736096459591
  0.9192527115921428  0.6672743562656475  0.7262516338303061
  0.0116675182969151  0.3367494308277101  0.1729360551080476
  0.4995794462141947  0.7867882613505164  0.7061373577246370
  0.6017154912940110  0.9067897875061581  0.1527816446429247
  0.8024583195852591  0.4103533359950884  0.7145294583680059
  0.8517321202287252  0.5683767196632165  0.1683586102277177
  0.5011888730292352  0.0175844234655347  0.5925210405135539
  0.4993135586249957  0.7855535801727263  0.2333306947449496
  0.9226745882860530  0.2546147595764479  0.7191301581811994
  0.9204543640829447  0.7290817488996210  0.2354151674535834
  0.5214215095443807  0.1935668091046899  0.6574760818080441
  0.5023441722619808  0.4879288203356366  0.9810849892003165
  0.0023441785924915  0.0120711836670638  0.4810849868122521
  0.9976558244282330  0.9879288178551918  0.9810849914872694
  0.4976558298475982  0.5120711849063111  0.4810849885500975
  0.7958928941106866  0.7105293335369601  0.5032699314851331
  0.9606598229172731  0.9944623124655482  0.2320592544955259
  0.7060293635732524  0.1956508126848427  0.9614522052702348
  0.2041070863312036  0.2894707010478275  0.0032699320500760
  0.2060293779368493  0.3043491755398582  0.4614522129329701
  0.2939706246777947  0.8043491828284943  0.4614522154174112
  0.7939706408800884  0.6956508110307111  0.9614522100061302
  0.7041071043942746  0.2105293303375289  0.5032699287679750
  0.4606598128207440  0.5055376617516696  0.7320592563212425
  0.0393401777688836  0.0055376740307987  0.7320592521911489
  0.2958929104798871  0.7894706933117497  0.0032699289927811
  0.5393401671427811  0.4944623109760681  0.2320592517272514
Cartesian
  0.0000000000000000  0.0000000000000000  0.0000000000000000
  0.0000000000000000  0.0000000000000000  0.0000000000000000
  0.0000000000000000  0.0000000000000000  0.0000000000000000
  0.0000000000000000  0.0000000000000000  0.0000000000000000
  0.0000000000000000  0.0000000000000000  0.0000000000000000
  0.0000000000000000  0.0000000000000000  0.0000000000000000
  0.0000000000000000  0.0000000000000000  0.0000000000000000
  0.0000000000000000  0.0000000000000000  0.0000000000000000
  0.0000000000000000  0.0000000000000000  0.0000000000000000
  0.0000000000000000  0.0000000000000000  0.0000000000000000
  0.0000000000000000  0.0000000000000000  0.0000000000000000
  0.0000000000000000  0.0000000000000000  0.0000000000000000
  0.0000000000000000  0.0000000000000000  0.0000000000000000
  0.0000000000000000  0.0000000000000000  0.0000000000000000
  0.0000000000000000  0.0000000000000000  0.0000000000000000
  0.0000000000000000  0.0000000000000000  0.0000000000000000
  0.0000000000000000  0.0000000000000000  0.0000000000000000
  0.0000000000000000  0.0000000000000000  0.0000000000000000
  0.0000000000000000  0.0000000000000000  0.0000000000000000
  0.0000000000000000  0.0000000000000000  0.0000000000000000
  0.0000000000000000  0.0000000000000000  0.0000000000000000
  0.0000000000000000  0.0000000000000000  0.0000000000000000
  0.0000000000000000  0.0000000000000000  0.0000000000000000
  0.0000000000000000  0.0000000000000000  0.0000000000000000
  0.0000000000000000  0.0000000000000000  0.0000000000000000
  0.0000000000000000  0.0000000000000000  0.0000000000000000
  0.0000000000000000  0.0000000000000000  0.0000000000000000
  0.0000000000000000  0.0000000000000000  0.0000000000000000
  0.0000000000000000  0.0000000000000000  0.0000000000000000
  0.0000000000000000  0.0000000000000000  0.0000000000000000
  0.0000000000000000  0.0000000000000000  0.0000000000000000
  0.0000000000000000  0.0000000000000000  0.0000000000000000
  0.0000000000000000  0.0000000000000000  0.0000000000000000
  0.0000000000000000  0.0000000000000000  0.0000000000000000
  0.0000000000000000  0.0000000000000000  0.0000000000000000
  0.0000000000000000  0.0000000000000000  0.0000000000000000
  0.0000000000000000  0.0000000000000000  0.0000000000000000
  0.0000000000000000  0.0000000000000000  0.0000000000000000
  0.0000000000000000  0.0000000000000000  0.0000000000000000
  0.0000000000000000  0.0000000000000000  0.0000000000000000
  0.0000000000000000  0.0000000000000000  0.0000000000000000
  0.0000000000000000  0.0000000000000000  0.0000000000000000
  0.0000000000000000  0.0000000000000000  0.0000000000000000
  0.0000000000000000  0.0000000000000000  0.0000000000000000
  0.0000000000000000  0.0000000000000000  0.0000000000000000
  0.0000000000000000  0.0000000000000000  0.0000000000000000
  0.0000000000000000  0.0000000000000000  0.0000000000000000
  0.0000000000000000  0.0000000000000000  0.0000000000000000
