C  N  H  Pb I                           
   1.0000000000000000     
     8.9293611250839326   -0.0161051642177191   -0.0149647907289446
    -0.0161051642177191    8.9438392824871169    0.0119017237467513
    -0.0105804456756746    0.0084147880067461    6.3039877359730445
  C               N               H               Pb              I             
     2     4    10     2     6
Direct
     0.5054266009412629    0.4973139230633521    0.5718722882433269
     0.9838435572292070    0.0118210155244824    0.5663828690152002
     0.5649164902922195    0.6131660850079896    0.4801528630561478
     0.4392105248383018    0.3835756976566174    0.4695254863807250
     0.1247273418893968    0.9589875324795187    0.5418500019627999
     0.8932533346243332    0.0333151684295458    0.4242358253101344
     0.5057680022651709    0.4917213679107419    0.7416324515321406
     0.6114468108718469    0.6985545222500207    0.5684151218328992
     0.5601253958088748    0.6327008620220553    0.3266567575155506
     0.4253022340501289    0.3743013249797258    0.3152812065268620
     0.3967254351158545    0.2989286709901435    0.5593704743033001
     0.9401264727483110    0.0186588810478270    0.7222133018671499
     0.1855829949714405    0.9449608771179712    0.6733560376299295
     0.1767925955944634    0.9442512753477246    0.3965055174602128
     0.9095440792628651    0.0215035832863109    0.2625313604222583
     0.7766189484094781    0.0567677298047826    0.4437158145141140
     0.9974748952521537    0.5061607181454448    0.9869989371434400
     0.4983437158447117    0.9964800464880170    0.9959776689526549
     0.9996233664956335    0.4995962724071177    0.4966323163929545
     0.5056788950174749    0.0054193724366982    0.4974391704646948
     0.2222562671195121    0.2173214069533671    0.9964005693337441
     0.2801307866744480    0.7229556712743062    0.9901461337109083
     0.7169289182396028    0.2799346077108851    0.9936348895798730
     0.7804673740200130    0.7798865824528178    0.9902207988391325

  0.00000000E+00  0.00000000E+00  0.00000000E+00
  0.00000000E+00  0.00000000E+00  0.00000000E+00
  0.00000000E+00  0.00000000E+00  0.00000000E+00
  0.00000000E+00  0.00000000E+00  0.00000000E+00
  0.00000000E+00  0.00000000E+00  0.00000000E+00
  0.00000000E+00  0.00000000E+00  0.00000000E+00
  0.00000000E+00  0.00000000E+00  0.00000000E+00
  0.00000000E+00  0.00000000E+00  0.00000000E+00
  0.00000000E+00  0.00000000E+00  0.00000000E+00
  0.00000000E+00  0.00000000E+00  0.00000000E+00
  0.00000000E+00  0.00000000E+00  0.00000000E+00
  0.00000000E+00  0.00000000E+00  0.00000000E+00
  0.00000000E+00  0.00000000E+00  0.00000000E+00
  0.00000000E+00  0.00000000E+00  0.00000000E+00
  0.00000000E+00  0.00000000E+00  0.00000000E+00
  0.00000000E+00  0.00000000E+00  0.00000000E+00
  0.00000000E+00  0.00000000E+00  0.00000000E+00
  0.00000000E+00  0.00000000E+00  0.00000000E+00
  0.00000000E+00  0.00000000E+00  0.00000000E+00
  0.00000000E+00  0.00000000E+00  0.00000000E+00
  0.00000000E+00  0.00000000E+00  0.00000000E+00
  0.00000000E+00  0.00000000E+00  0.00000000E+00
  0.00000000E+00  0.00000000E+00  0.00000000E+00
  0.00000000E+00  0.00000000E+00  0.00000000E+00
