C  N  H  Pb I 
 1.0000000000000000
     8.9293611250839326   -0.0161051642177191   -0.0149647907289446
    -0.0161051642177191    8.9438392824871169    0.0119017237467513
    -0.0105804456756746    0.0084147880067461    6.3039877359730445
 C   N   H   Pb  I  
   2   4  10   2   6
Direct
  0.5054266009412650  0.4973139230633549  0.5718722882433247
  0.9838435572292078  0.0118210155244836  0.5663828690152034
  0.5649164902922178  0.6131660850079900  0.4801528630561459
  0.4392105248383034  0.3835756976566141  0.4695254863807279
  0.1247273418893949  0.9589875324795172  0.5418500019627996
  0.8932533346243328  0.0333151684295448  0.4242358253101333
  0.5057680022651708  0.4917213679107434  0.7416324515321397
  0.6114468108718475  0.6985545222500182  0.5684151218328999
  0.5601253958088723  0.6327008620220532  0.3266567575155473
  0.4253022340501319  0.3743013249797261  0.3152812065268655
  0.3967254351158570  0.2989286709901445  0.5593704743033013
  0.9401264727483102  0.0186588810478259  0.7222133018671500
  0.1855829949714378  0.9449608771179691  0.6733560376299267
  0.1767925955944645  0.9442512753477262  0.3965055174602149
  0.9095440792628653  0.0215035832863096  0.2625313604222589
  0.7766189484094816  0.0567677298047845  0.4437158145141169
  0.9974748952521546  0.5061607181454443  0.9869989371434413
  0.4983437158447082  0.9964800464880176  0.9959776689526566
  0.9996233664956325  0.4995962724071182  0.4966323163929539
  0.5056788950174720  0.0054193724367001  0.4974391704646927
  0.2222562671195144  0.2173214069533681  0.9964005693337467
  0.2801307866744505  0.7229556712743026  0.9901461337109092
  0.7169289182396016  0.2799346077108825  0.9936348895798749
  0.7804673740200128  0.7798865824528161  0.9902207988391293
Cartesian
  0.0000000000000000  0.0000000000000000  0.0000000000000000
  0.0000000000000000  0.0000000000000000  0.0000000000000000
  0.0000000000000000  0.0000000000000000  0.0000000000000000
  0.0000000000000000  0.0000000000000000  0.0000000000000000
  0.0000000000000000  0.0000000000000000  0.0000000000000000
  0.0000000000000000  0.0000000000000000  0.0000000000000000
  0.0000000000000000  0.0000000000000000  0.0000000000000000
  0.0000000000000000  0.0000000000000000  0.0000000000000000
  0.0000000000000000  0.0000000000000000  0.0000000000000000
  0.0000000000000000  0.0000000000000000  0.0000000000000000
  0.0000000000000000  0.0000000000000000  0.0000000000000000
  0.0000000000000000  0.0000000000000000  0.0000000000000000
  0.0000000000000000  0.0000000000000000  0.0000000000000000
  0.0000000000000000  0.0000000000000000  0.0000000000000000
  0.0000000000000000  0.0000000000000000  0.0000000000000000
  0.0000000000000000  0.0000000000000000  0.0000000000000000
  0.0000000000000000  0.0000000000000000  0.0000000000000000
  0.0000000000000000  0.0000000000000000  0.0000000000000000
  0.0000000000000000  0.0000000000000000  0.0000000000000000
  0.0000000000000000  0.0000000000000000  0.0000000000000000
  0.0000000000000000  0.0000000000000000  0.0000000000000000
  0.0000000000000000  0.0000000000000000  0.0000000000000000
  0.0000000000000000  0.0000000000000000  0.0000000000000000
  0.0000000000000000  0.0000000000000000  0.0000000000000000
