C  N  H  Pb I 
 1.0000000000000000
     8.8648655855236598   -0.0295391793364695   -0.0071192927983849
    -0.0287478486605737    8.8252649402575276   -0.0594130755242664
    -0.0101004392365524   -0.0866120893839432   12.9822513330059497
 C   N   H   Pb  I  
   4   8  20   4  12
Direct
  0.5079545620594851  0.0406959883747638  0.2475946235704422
  0.0079545554343785  0.4593040156808085  0.7475946208954544
  0.9920454334685079  0.5406959860585880  0.2475946299923701
  0.4920454478785191  0.9593040127881083  0.7475946256013860
  0.5705946771768485  0.9354362274290704  0.1897252141182125
  0.0705946740239366  0.5645637727658527  0.6897252201605889
  0.1310336582348178  0.5838994807281045  0.2399588818968306
  0.6310336640152745  0.9161005167449353  0.7399588856927696
  0.3689663406760989  0.0838994856595276  0.2399588837149887
  0.8689663414621858  0.4161005194902582  0.7399588873068387
  0.9294053217315231  0.4354362199708705  0.1897252216917170
  0.4294053329446624  0.0645637684645837  0.6897252229388680
  0.5763163080256495  0.0964013618091920  0.3070350010383274
  0.0763163041439384  0.4035986538439505  0.8070350065760273
  0.9236836942065133  0.5964013535599981  0.3070350101048526
  0.4236837047439705  0.9035986570811891  0.8070350168177974
  0.6816203964682235  0.9153350004290040  0.1981420696355345
  0.1816203953774488  0.5846650008662726  0.6981420678013572
  0.1727440398663827  0.6618424652955208  0.2915835922463332
  0.6727440483713266  0.8381575300147406  0.7915835946568777
  0.5137159496301191  0.8799864858485241  0.1317994637689628
  0.0137159530701184  0.6200135182310215  0.6317994618654601
  0.2027680669080062  0.5368550561063355  0.1875867459194599
  0.7027680811919138  0.9631449364772250  0.6875867437071858
  0.2972319239003343  0.0368550498131778  0.1875867509889692
  0.7972319185576197  0.4631449498156997  0.6875867489999621
  0.9862840415021580  0.3799864786951983  0.1317994707683488
  0.4862840485959766  0.1200135117898101  0.6317994631872471
  0.3272559576570425  0.1618424731988938  0.2915835925839973
  0.8272559591671836  0.3381575261065085  0.7915835908767332
  0.8183796010724744  0.4153349919539673  0.1981420818729491
  0.3183796102733418  0.0846649986020452  0.6981420736952383
  0.5022688706476183  0.4877720324505800  0.9810570199701423
  0.0009861849707417  0.0048471395132115  0.4817680996928488
  0.9985858029346620  0.9893995535840782  0.9802539941969748
  0.4954780479679844  0.5117752374032395  0.4818184766125078
  0.7946943203671366  0.7106453669935937  0.5030613900677955
  0.9588518551366257  0.9961057760273501  0.2318198544458525
  0.7031660772778004  0.1950296286758256  0.9610150946711070
  0.2029362651251727  0.2872401990816888  0.0020622546233996
  0.2050783122784650  0.3025577846982787  0.4613128792016161
  0.2978706798301830  0.8036295032372635  0.4614912774881569
  0.7936939284483387  0.6933508324552637  0.9607129996684245
  0.7058994001263634  0.2098567158917254  0.5023239158251893
  0.4622762174384383  0.5036029098767190  0.7340267274882286
  0.0390158444486632  0.0037835654309941  0.7317534681431916
  0.2917901172309857  0.7904322778222032  0.0022643473961734
  0.5410038246236684  0.4926897407820259  0.2316581649109934
Cartesian
  0.0000000000000000  0.0000000000000000  0.0000000000000000
  0.0000000000000000  0.0000000000000000  0.0000000000000000
  0.0000000000000000  0.0000000000000000  0.0000000000000000
  0.0000000000000000  0.0000000000000000  0.0000000000000000
  0.0000000000000000  0.0000000000000000  0.0000000000000000
  0.0000000000000000  0.0000000000000000  0.0000000000000000
  0.0000000000000000  0.0000000000000000  0.0000000000000000
  0.0000000000000000  0.0000000000000000  0.0000000000000000
  0.0000000000000000  0.0000000000000000  0.0000000000000000
  0.0000000000000000  0.0000000000000000  0.0000000000000000
  0.0000000000000000  0.0000000000000000  0.0000000000000000
  0.0000000000000000  0.0000000000000000  0.0000000000000000
  0.0000000000000000  0.0000000000000000  0.0000000000000000
  0.0000000000000000  0.0000000000000000  0.0000000000000000
  0.0000000000000000  0.0000000000000000  0.0000000000000000
  0.0000000000000000  0.0000000000000000  0.0000000000000000
  0.0000000000000000  0.0000000000000000  0.0000000000000000
  0.0000000000000000  0.0000000000000000  0.0000000000000000
  0.0000000000000000  0.0000000000000000  0.0000000000000000
  0.0000000000000000  0.0000000000000000  0.0000000000000000
  0.0000000000000000  0.0000000000000000  0.0000000000000000
  0.0000000000000000  0.0000000000000000  0.0000000000000000
  0.0000000000000000  0.0000000000000000  0.0000000000000000
  0.0000000000000000  0.0000000000000000  0.0000000000000000
  0.0000000000000000  0.0000000000000000  0.0000000000000000
  0.0000000000000000  0.0000000000000000  0.0000000000000000
  0.0000000000000000  0.0000000000000000  0.0000000000000000
  0.0000000000000000  0.0000000000000000  0.0000000000000000
  0.0000000000000000  0.0000000000000000  0.0000000000000000
  0.0000000000000000  0.0000000000000000  0.0000000000000000
  0.0000000000000000  0.0000000000000000  0.0000000000000000
  0.0000000000000000  0.0000000000000000  0.0000000000000000
  0.0000000000000000  0.0000000000000000  0.0000000000000000
  0.0000000000000000  0.0000000000000000  0.0000000000000000
  0.0000000000000000  0.0000000000000000  0.0000000000000000
  0.0000000000000000  0.0000000000000000  0.0000000000000000
  0.0000000000000000  0.0000000000000000  0.0000000000000000
  0.0000000000000000  0.0000000000000000  0.0000000000000000
  0.0000000000000000  0.0000000000000000  0.0000000000000000
  0.0000000000000000  0.0000000000000000  0.0000000000000000
  0.0000000000000000  0.0000000000000000  0.0000000000000000
  0.0000000000000000  0.0000000000000000  0.0000000000000000
  0.0000000000000000  0.0000000000000000  0.0000000000000000
  0.0000000000000000  0.0000000000000000  0.0000000000000000
  0.0000000000000000  0.0000000000000000  0.0000000000000000
  0.0000000000000000  0.0000000000000000  0.0000000000000000
  0.0000000000000000  0.0000000000000000  0.0000000000000000
  0.0000000000000000  0.0000000000000000  0.0000000000000000
