C  N  H  Pb I 
 1.0000000000000000
     8.9648805299137670   -0.0251188385678377    0.0593396739895155
    -0.0244459252388928    8.8185876416599012   -0.0032925974327370
     0.0841876838643153   -0.0047999323487821   12.6857215358408482
 C   N   H   Pb  I  
   4   8  20   4  12
Direct
  0.5079545620594851  0.0406959883747638  0.2475946235704422
  0.0079545554343785  0.4593040156808087  0.7475946208954543
  0.9920454334685082  0.5406959860585879  0.2475946299923701
  0.4920454478785192  0.9593040127881086  0.7475946256013861
  0.5705946771768488  0.9354362274290701  0.1897252141182125
  0.0705946740239366  0.5645637727658529  0.6897252201605891
  0.1310336582348178  0.5838994807281044  0.2399588818968306
  0.6310336640152747  0.9161005167449354  0.7399588856927697
  0.3689663406760990  0.0838994856595276  0.2399588837149887
  0.8689663414621858  0.4161005194902583  0.7399588873068385
  0.9294053217315232  0.4354362199708706  0.1897252216917170
  0.4294053329446624  0.0645637684645837  0.6897252229388683
  0.5763163080256497  0.0964013618091920  0.3070350010383273
  0.0763163041439384  0.4035986538439506  0.8070350065760273
  0.9236836942065134  0.5964013535599982  0.3070350101048526
  0.4236837047439705  0.9035986570811895  0.8070350168177974
  0.6816203964682235  0.9153350004290042  0.1981420696355345
  0.1816203953774488  0.5846650008662725  0.6981420678013572
  0.1727440398663828  0.6618424652955209  0.2915835922463332
  0.6727440483713267  0.8381575300147409  0.7915835946568773
  0.5137159496301194  0.8799864858485238  0.1317994637689628
  0.0137159530701184  0.6200135182310214  0.6317994618654603
  0.2027680669080062  0.5368550561063355  0.1875867459194599
  0.7027680811919139  0.9631449364772253  0.6875867437071862
  0.2972319239003343  0.0368550498131778  0.1875867509889692
  0.7972319185576198  0.4631449498156998  0.6875867489999622
  0.9862840415021580  0.3799864786951983  0.1317994707683488
  0.4862840485959766  0.1200135117898100  0.6317994631872471
  0.3272559576570426  0.1618424731988938  0.2915835925839973
  0.8272559591671836  0.3381575261065086  0.7915835908767332
  0.8183796010724744  0.4153349919539673  0.1981420818729491
  0.3183796102733419  0.0846649986020452  0.6981420736952382
  0.5045521262931647  0.4837719392424090  0.9796717294200366
  0.0036840913181000  0.0112439683024712  0.4787489109271502
  0.9976114694023721  0.9903258272784813  0.9815450493777680
  0.4974657026532227  0.5153819288667335  0.4808254117495147
  0.7935162686033734  0.7110699452450814  0.5043124938123071
  0.9571731458567025  0.9935767784523154  0.2313557341667190
  0.7058496360030837  0.1947198989712893  0.9627787400576409
  0.2060813759234916  0.2887988077137144  0.0020868861626981
  0.2051778683245478  0.3035154253224294  0.4610579075418286
  0.2959158443035629  0.8052288572121483  0.4581344037323901
  0.7939033377722886  0.6969049160769353  0.9602842599787068
  0.7061429710267610  0.2133804887746773  0.5015070477256667
  0.4601340261826063  0.5064469413532161  0.7304683319216925
  0.0403015329513398  0.0074475296205152  0.7324747573307089
  0.2951785212435412  0.7898852245011807  0.0039030278737551
  0.5371195737807887  0.4955726676163446  0.2337423436108111
Cartesian
  0.0000000000000000  0.0000000000000000  0.0000000000000000
  0.0000000000000000  0.0000000000000000  0.0000000000000000
  0.0000000000000000  0.0000000000000000  0.0000000000000000
  0.0000000000000000  0.0000000000000000  0.0000000000000000
  0.0000000000000000  0.0000000000000000  0.0000000000000000
  0.0000000000000000  0.0000000000000000  0.0000000000000000
  0.0000000000000000  0.0000000000000000  0.0000000000000000
  0.0000000000000000  0.0000000000000000  0.0000000000000000
  0.0000000000000000  0.0000000000000000  0.0000000000000000
  0.0000000000000000  0.0000000000000000  0.0000000000000000
  0.0000000000000000  0.0000000000000000  0.0000000000000000
  0.0000000000000000  0.0000000000000000  0.0000000000000000
  0.0000000000000000  0.0000000000000000  0.0000000000000000
  0.0000000000000000  0.0000000000000000  0.0000000000000000
  0.0000000000000000  0.0000000000000000  0.0000000000000000
  0.0000000000000000  0.0000000000000000  0.0000000000000000
  0.0000000000000000  0.0000000000000000  0.0000000000000000
  0.0000000000000000  0.0000000000000000  0.0000000000000000
  0.0000000000000000  0.0000000000000000  0.0000000000000000
  0.0000000000000000  0.0000000000000000  0.0000000000000000
  0.0000000000000000  0.0000000000000000  0.0000000000000000
  0.0000000000000000  0.0000000000000000  0.0000000000000000
  0.0000000000000000  0.0000000000000000  0.0000000000000000
  0.0000000000000000  0.0000000000000000  0.0000000000000000
  0.0000000000000000  0.0000000000000000  0.0000000000000000
  0.0000000000000000  0.0000000000000000  0.0000000000000000
  0.0000000000000000  0.0000000000000000  0.0000000000000000
  0.0000000000000000  0.0000000000000000  0.0000000000000000
  0.0000000000000000  0.0000000000000000  0.0000000000000000
  0.0000000000000000  0.0000000000000000  0.0000000000000000
  0.0000000000000000  0.0000000000000000  0.0000000000000000
  0.0000000000000000  0.0000000000000000  0.0000000000000000
  0.0000000000000000  0.0000000000000000  0.0000000000000000
  0.0000000000000000  0.0000000000000000  0.0000000000000000
  0.0000000000000000  0.0000000000000000  0.0000000000000000
  0.0000000000000000  0.0000000000000000  0.0000000000000000
  0.0000000000000000  0.0000000000000000  0.0000000000000000
  0.0000000000000000  0.0000000000000000  0.0000000000000000
  0.0000000000000000  0.0000000000000000  0.0000000000000000
  0.0000000000000000  0.0000000000000000  0.0000000000000000
  0.0000000000000000  0.0000000000000000  0.0000000000000000
  0.0000000000000000  0.0000000000000000  0.0000000000000000
  0.0000000000000000  0.0000000000000000  0.0000000000000000
  0.0000000000000000  0.0000000000000000  0.0000000000000000
  0.0000000000000000  0.0000000000000000  0.0000000000000000
  0.0000000000000000  0.0000000000000000  0.0000000000000000
  0.0000000000000000  0.0000000000000000  0.0000000000000000
  0.0000000000000000  0.0000000000000000  0.0000000000000000
