C  N  H  Pb I 
 1.0000000000000000
     8.8882698159370825   -0.0800819388328080   -0.0517592781979835
    -0.0779366085898187    8.6536068349739175    0.0615014255788044
    -0.0734330584752941    0.0896564758256908   12.7001254264366725
 C   N   H   Pb  I  
   4   8  20   4  12
Direct
  0.5079545620594851  0.0406959883747638  0.2475946235704422
  0.0079545554343785  0.4593040156808086  0.7475946208954541
  0.9920454334685082  0.5406959860585879  0.2475946299923701
  0.4920454478785191  0.9593040127881086  0.7475946256013861
  0.5705946771768488  0.9354362274290705  0.1897252141182125
  0.0705946740239366  0.5645637727658527  0.6897252201605891
  0.1310336582348178  0.5838994807281046  0.2399588818968306
  0.6310336640152745  0.9161005167449353  0.7399588856927697
  0.3689663406760989  0.0838994856595276  0.2399588837149887
  0.8689663414621858  0.4161005194902584  0.7399588873068386
  0.9294053217315231  0.4354362199708706  0.1897252216917170
  0.4294053329446624  0.0645637684645837  0.6897252229388681
  0.5763163080256496  0.0964013618091920  0.3070350010383274
  0.0763163041439384  0.4035986538439505  0.8070350065760272
  0.9236836942065134  0.5964013535599979  0.3070350101048526
  0.4236837047439705  0.9035986570811892  0.8070350168177974
  0.6816203964682235  0.9153350004290040  0.1981420696355345
  0.1816203953774488  0.5846650008662725  0.6981420678013572
  0.1727440398663828  0.6618424652955209  0.2915835922463332
  0.6727440483713266  0.8381575300147407  0.7915835946568774
  0.5137159496301194  0.8799864858485238  0.1317994637689628
  0.0137159530701184  0.6200135182310215  0.6317994618654601
  0.2027680669080062  0.5368550561063355  0.1875867459194599
  0.7027680811919138  0.9631449364772251  0.6875867437071861
  0.2972319239003343  0.0368550498131778  0.1875867509889692
  0.7972319185576198  0.4631449498156996  0.6875867489999620
  0.9862840415021580  0.3799864786951984  0.1317994707683488
  0.4862840485959767  0.1200135117898101  0.6317994631872471
  0.3272559576570426  0.1618424731988938  0.2915835925839973
  0.8272559591671835  0.3381575261065085  0.7915835908767331
  0.8183796010724744  0.4153349919539674  0.1981420818729491
  0.3183796102733418  0.0846649986020452  0.6981420736952382
  0.5036237931495179  0.4900693470068621  0.9799474978025584
  0.0019781858055324  0.0015707032697338  0.4834079150084286
  0.9977199757013774  0.9845658637365972  0.9827987067351476
  0.4927762155198299  0.5124789620475941  0.4838047628124256
  0.7954355914114388  0.7173855870681223  0.5047622973376893
  0.9625584144068202  0.9909479459215284  0.2299741929095041
  0.7114281475182140  0.1967059170825114  0.9598413868901370
  0.2070142284055454  0.2889207876433211  0.0011215494846321
  0.1953505106891197  0.3051809951508839  0.4612152466235795
  0.2974175219218798  0.8110756379035439  0.4561861051248065
  0.7969875097005359  0.6983879417254507  0.9622348939497788
  0.7021819049970224  0.2152962977079251  0.4995473602507237
  0.4633224553440919  0.5091511324417816  0.7247319480917382
  0.0293337426066086  0.9971658187846318  0.7303681207368994
  0.2863439104898273  0.7874513041502602  0.9995538368304518
  0.5374255659974284  0.4987239653624570  0.2368067220966871
Cartesian
  0.0000000000000000  0.0000000000000000  0.0000000000000000
  0.0000000000000000  0.0000000000000000  0.0000000000000000
  0.0000000000000000  0.0000000000000000  0.0000000000000000
  0.0000000000000000  0.0000000000000000  0.0000000000000000
  0.0000000000000000  0.0000000000000000  0.0000000000000000
  0.0000000000000000  0.0000000000000000  0.0000000000000000
  0.0000000000000000  0.0000000000000000  0.0000000000000000
  0.0000000000000000  0.0000000000000000  0.0000000000000000
  0.0000000000000000  0.0000000000000000  0.0000000000000000
  0.0000000000000000  0.0000000000000000  0.0000000000000000
  0.0000000000000000  0.0000000000000000  0.0000000000000000
  0.0000000000000000  0.0000000000000000  0.0000000000000000
  0.0000000000000000  0.0000000000000000  0.0000000000000000
  0.0000000000000000  0.0000000000000000  0.0000000000000000
  0.0000000000000000  0.0000000000000000  0.0000000000000000
  0.0000000000000000  0.0000000000000000  0.0000000000000000
  0.0000000000000000  0.0000000000000000  0.0000000000000000
  0.0000000000000000  0.0000000000000000  0.0000000000000000
  0.0000000000000000  0.0000000000000000  0.0000000000000000
  0.0000000000000000  0.0000000000000000  0.0000000000000000
  0.0000000000000000  0.0000000000000000  0.0000000000000000
  0.0000000000000000  0.0000000000000000  0.0000000000000000
  0.0000000000000000  0.0000000000000000  0.0000000000000000
  0.0000000000000000  0.0000000000000000  0.0000000000000000
  0.0000000000000000  0.0000000000000000  0.0000000000000000
  0.0000000000000000  0.0000000000000000  0.0000000000000000
  0.0000000000000000  0.0000000000000000  0.0000000000000000
  0.0000000000000000  0.0000000000000000  0.0000000000000000
  0.0000000000000000  0.0000000000000000  0.0000000000000000
  0.0000000000000000  0.0000000000000000  0.0000000000000000
  0.0000000000000000  0.0000000000000000  0.0000000000000000
  0.0000000000000000  0.0000000000000000  0.0000000000000000
  0.0000000000000000  0.0000000000000000  0.0000000000000000
  0.0000000000000000  0.0000000000000000  0.0000000000000000
  0.0000000000000000  0.0000000000000000  0.0000000000000000
  0.0000000000000000  0.0000000000000000  0.0000000000000000
  0.0000000000000000  0.0000000000000000  0.0000000000000000
  0.0000000000000000  0.0000000000000000  0.0000000000000000
  0.0000000000000000  0.0000000000000000  0.0000000000000000
  0.0000000000000000  0.0000000000000000  0.0000000000000000
  0.0000000000000000  0.0000000000000000  0.0000000000000000
  0.0000000000000000  0.0000000000000000  0.0000000000000000
  0.0000000000000000  0.0000000000000000  0.0000000000000000
  0.0000000000000000  0.0000000000000000  0.0000000000000000
  0.0000000000000000  0.0000000000000000  0.0000000000000000
  0.0000000000000000  0.0000000000000000  0.0000000000000000
  0.0000000000000000  0.0000000000000000  0.0000000000000000
  0.0000000000000000  0.0000000000000000  0.0000000000000000
