C  N  H  Pb I                           
   1.0000000000000000     
     8.8594743508834259   -0.0055165917359716    0.0207615335175585
    -0.0055165917359716    8.9407962727237873    0.0652573919909625
     0.0146788739986421    0.0461384528125156    6.3987181067493220
  C               N               H               Pb              I             
     2     4    10     2     6
Direct
     0.5120987918636573    0.5290112326399452    0.5587241083984722
     0.9889733200160151    0.9960942634453218    0.5680181364414949
     0.5455159835506365    0.5914239907623440    0.3813180009902055
     0.4517010705477915    0.4025239315567006    0.5710718250861149
     0.0951836960848738    0.9191770115553055    0.4703638892682633
     0.8971323085907912    0.0955650583662191    0.4796403015484572
     0.5228150400245397    0.5904576541211881    0.6941885153123764
     0.5891823616895167    0.6981789761447246    0.3917770232708833
     0.5360204435546478    0.5358790066942589    0.2362437022401878
     0.4201534052503249    0.3134484010470260    0.4591284426521511
     0.4222521692546692    0.3507134136439376    0.7315440255027426
     0.9964631700629312    0.9907438825043542    0.7378598712874620
     0.1586216127253905    0.8416103499170760    0.5699487519641693
     0.1019541067451613    0.9028247810459575    0.3216820533055511
     0.8972407657403423    0.0974659315147051    0.3163142728421278
     0.8418073633915242    0.1606286852643564    0.5640509996447989
     0.9905029225740165    0.5019289808629139    0.9914128857130180
     0.5149038955595131    0.9977032766863587    0.9892393093750655
     0.0006155617598864    0.4966883972227834    0.4867102953110987
     0.5013133433429928    0.0018838619123756    0.4904480730362621
     0.2191409635096875    0.2195181108051969    0.9822986970138743
     0.2756752471332575    0.7189243613854970    0.9931208064445940
     0.7150641269606055    0.2808717521784274    0.9834329457793203
     0.7813307947139094    0.7905220021429571    0.9939265775208739

  0.00000000E+00  0.00000000E+00  0.00000000E+00
  0.00000000E+00  0.00000000E+00  0.00000000E+00
  0.00000000E+00  0.00000000E+00  0.00000000E+00
  0.00000000E+00  0.00000000E+00  0.00000000E+00
  0.00000000E+00  0.00000000E+00  0.00000000E+00
  0.00000000E+00  0.00000000E+00  0.00000000E+00
  0.00000000E+00  0.00000000E+00  0.00000000E+00
  0.00000000E+00  0.00000000E+00  0.00000000E+00
  0.00000000E+00  0.00000000E+00  0.00000000E+00
  0.00000000E+00  0.00000000E+00  0.00000000E+00
  0.00000000E+00  0.00000000E+00  0.00000000E+00
  0.00000000E+00  0.00000000E+00  0.00000000E+00
  0.00000000E+00  0.00000000E+00  0.00000000E+00
  0.00000000E+00  0.00000000E+00  0.00000000E+00
  0.00000000E+00  0.00000000E+00  0.00000000E+00
  0.00000000E+00  0.00000000E+00  0.00000000E+00
  0.00000000E+00  0.00000000E+00  0.00000000E+00
  0.00000000E+00  0.00000000E+00  0.00000000E+00
  0.00000000E+00  0.00000000E+00  0.00000000E+00
  0.00000000E+00  0.00000000E+00  0.00000000E+00
  0.00000000E+00  0.00000000E+00  0.00000000E+00
  0.00000000E+00  0.00000000E+00  0.00000000E+00
  0.00000000E+00  0.00000000E+00  0.00000000E+00
  0.00000000E+00  0.00000000E+00  0.00000000E+00
