C  N  H  Pb I 
 1.0000000000000000
     8.8594743508834259   -0.0055165917359716    0.0207615335175585
    -0.0055165917359716    8.9407962727237873    0.0652573919909625
     0.0146788739986421    0.0461384528125156    6.3987181067493220
 C   N   H   Pb  I  
   2   4  10   2   6
Direct
  0.5120987918636548  0.5290112326399449  0.5587241083984748
  0.9889733200160138  0.9960942634453226  0.5680181364414963
  0.5455159835506377  0.5914239907623458  0.3813180009902062
  0.4517010705477931  0.4025239315566977  0.5710718250861131
  0.0951836960848731  0.9191770115553034  0.4703638892682644
  0.8971323085907909  0.0955650583662222  0.4796403015484568
  0.5228150400245414  0.5904576541211888  0.6941885153123761
  0.5891823616895172  0.6981789761447259  0.3917770232708851
  0.5360204435546461  0.5358790066942564  0.2362437022401865
  0.4201534052503278  0.3134484010470277  0.4591284426521515
  0.4222521692546686  0.3507134136439394  0.7315440255027399
  0.9964631700629338  0.9907438825043562  0.7378598712874587
  0.1586216127253909  0.8416103499170766  0.5699487519641696
  0.1019541067451596  0.9028247810459602  0.3216820533055523
  0.8972407657403425  0.0974659315147071  0.3163142728421244
  0.8418073633915260  0.1606286852643539  0.5640509996447970
  0.9905029225740164  0.5019289808629108  0.9914128857130144
  0.5149038955595128  0.9977032766863599  0.9892393093750655
  0.0006155617598834  0.4966883972227802  0.4867102953110998
  0.5013133433429928  0.0018838619123744  0.4904480730362621
  0.2191409635096867  0.2195181108051979  0.9822986970138716
  0.2756752471332601  0.7189243613854960  0.9931208064445931
  0.7150641269606088  0.2808717521784272  0.9834329457793171
  0.7813307947139064  0.7905220021429603  0.9939265775208744
Cartesian
  0.0000000000000000  0.0000000000000000  0.0000000000000000
  0.0000000000000000  0.0000000000000000  0.0000000000000000
  0.0000000000000000  0.0000000000000000  0.0000000000000000
  0.0000000000000000  0.0000000000000000  0.0000000000000000
  0.0000000000000000  0.0000000000000000  0.0000000000000000
  0.0000000000000000  0.0000000000000000  0.0000000000000000
  0.0000000000000000  0.0000000000000000  0.0000000000000000
  0.0000000000000000  0.0000000000000000  0.0000000000000000
  0.0000000000000000  0.0000000000000000  0.0000000000000000
  0.0000000000000000  0.0000000000000000  0.0000000000000000
  0.0000000000000000  0.0000000000000000  0.0000000000000000
  0.0000000000000000  0.0000000000000000  0.0000000000000000
  0.0000000000000000  0.0000000000000000  0.0000000000000000
  0.0000000000000000  0.0000000000000000  0.0000000000000000
  0.0000000000000000  0.0000000000000000  0.0000000000000000
  0.0000000000000000  0.0000000000000000  0.0000000000000000
  0.0000000000000000  0.0000000000000000  0.0000000000000000
  0.0000000000000000  0.0000000000000000  0.0000000000000000
  0.0000000000000000  0.0000000000000000  0.0000000000000000
  0.0000000000000000  0.0000000000000000  0.0000000000000000
  0.0000000000000000  0.0000000000000000  0.0000000000000000
  0.0000000000000000  0.0000000000000000  0.0000000000000000
  0.0000000000000000  0.0000000000000000  0.0000000000000000
  0.0000000000000000  0.0000000000000000  0.0000000000000000
