C  N  H  Pb I                           
   1.0000000000000000     
     9.0673997262616233    0.0425737739501478   -0.0497703920048676
     0.0425737739501478    8.8255335616476227    0.0162128047821859
    -0.0351887933752396    0.0114628198519641    6.3518844574058324
  C               N               H               Pb              I             
     2     4    10     2     6
Direct
     0.5031842134845306    0.4987155444057478    0.5787033967820392
     0.9757859748379261    0.0116280690810768    0.5737681244827471
     0.5872261469839586    0.5949190291313755    0.4708935570412365
     0.4100216835769857    0.4092671604582776    0.4795778800124424
     0.1042107821036851    0.9456858558893160    0.5818244393060894
     0.9087115423674987    0.0505231553866068    0.3793930335460018
     0.4958922094603579    0.4988735103193775    0.7487913334694980
     0.6560054428240463    0.6648729989841442    0.5617519662148212
     0.6093616234875014    0.6039071086509153    0.3235453091305658
     0.4011763177467031    0.3973170413335581    0.3187659660065520
     0.3400735883248061    0.3418857260255095    0.5649166216017747
     0.9021482526895070    0.0488370886077121    0.6918600523821610
     0.1355132457670720    0.9221923177861555    0.7358992541743561
     0.1761795750812851    0.9115837876903754    0.4689982186743222
     0.9667907447852926    0.0156434515449106    0.2381342108644446
     0.8177656010699792    0.0972930936875613    0.3665296133386207
     0.0013431352535846    0.4985602144416106    0.9912396324625590
     0.5031112288491570    0.9991928590157642    0.0010172571578764
     0.0048477321069029    0.5001338597696403    0.4875014103567707
     0.4977611268378723    0.9979222578138121    0.4908908794106495
     0.2228447807426761    0.2131665811010635    0.9972121655342860
     0.2897678033414053    0.7143787582284347    0.9889968326287715
     0.7225837115542433    0.2820698017002812    0.9957486526415593
     0.7788224594227842    0.7771327657040672    0.9921872676367371

  0.00000000E+00  0.00000000E+00  0.00000000E+00
  0.00000000E+00  0.00000000E+00  0.00000000E+00
  0.00000000E+00  0.00000000E+00  0.00000000E+00
  0.00000000E+00  0.00000000E+00  0.00000000E+00
  0.00000000E+00  0.00000000E+00  0.00000000E+00
  0.00000000E+00  0.00000000E+00  0.00000000E+00
  0.00000000E+00  0.00000000E+00  0.00000000E+00
  0.00000000E+00  0.00000000E+00  0.00000000E+00
  0.00000000E+00  0.00000000E+00  0.00000000E+00
  0.00000000E+00  0.00000000E+00  0.00000000E+00
  0.00000000E+00  0.00000000E+00  0.00000000E+00
  0.00000000E+00  0.00000000E+00  0.00000000E+00
  0.00000000E+00  0.00000000E+00  0.00000000E+00
  0.00000000E+00  0.00000000E+00  0.00000000E+00
  0.00000000E+00  0.00000000E+00  0.00000000E+00
  0.00000000E+00  0.00000000E+00  0.00000000E+00
  0.00000000E+00  0.00000000E+00  0.00000000E+00
  0.00000000E+00  0.00000000E+00  0.00000000E+00
  0.00000000E+00  0.00000000E+00  0.00000000E+00
  0.00000000E+00  0.00000000E+00  0.00000000E+00
  0.00000000E+00  0.00000000E+00  0.00000000E+00
  0.00000000E+00  0.00000000E+00  0.00000000E+00
  0.00000000E+00  0.00000000E+00  0.00000000E+00
  0.00000000E+00  0.00000000E+00  0.00000000E+00
