C  N  H  Pb I 
 1.0000000000000000
     9.0673997262616233    0.0425737739501478   -0.0497703920048676
     0.0425737739501478    8.8255335616476227    0.0162128047821859
    -0.0351887933752396    0.0114628198519641    6.3518844574058324
 C   N   H   Pb  I  
   2   4  10   2   6
Direct
  0.5031842134845315  0.4987155444057464  0.5787033967820379
  0.9757859748379235  0.0116280690810787  0.5737681244827483
  0.5872261469839566  0.5949190291313775  0.4708935570412359
  0.4100216835769853  0.4092671604582809  0.4795778800124424
  0.1042107821036873  0.9456858558893170  0.5818244393060906
  0.9087115423674976  0.0505231553866100  0.3793930335460006
  0.4958922094603613  0.4988735103193808  0.7487913334694988
  0.6560054428240450  0.6648729989841434  0.5617519662148210
  0.6093616234874979  0.6039071086509160  0.3235453091305677
  0.4011763177466996  0.3973170413335602  0.3187659660065505
  0.3400735883248069  0.3418857260255106  0.5649166216017738
  0.9021482526895053  0.0488370886077146  0.6918600523821611
  0.1355132457670754  0.9221923177861556  0.7358992541743566
  0.1761795750812846  0.9115837876903765  0.4689982186743228
  0.9667907447852951  0.0156434515449107  0.2381342108644471
  0.8177656010699794  0.0972930936875645  0.3665296133386231
  0.0013431352535867  0.4985602144416105  0.9912396324625574
  0.5031112288491564  0.9991928590157647  0.0010172571578749
  0.0048477321069050  0.5001338597696438  0.4875014103567680
  0.4977611268378701  0.9979222578138146  0.4908908794106510
  0.2228447807426762  0.2131665811010635  0.9972121655342880
  0.2897678033414071  0.7143787582284320  0.9889968326287734
  0.7225837115542432  0.2820698017002782  0.9957486526415619
  0.7788224594227814  0.7771327657040703  0.9921872676367368
Cartesian
  0.0000000000000000  0.0000000000000000  0.0000000000000000
  0.0000000000000000  0.0000000000000000  0.0000000000000000
  0.0000000000000000  0.0000000000000000  0.0000000000000000
  0.0000000000000000  0.0000000000000000  0.0000000000000000
  0.0000000000000000  0.0000000000000000  0.0000000000000000
  0.0000000000000000  0.0000000000000000  0.0000000000000000
  0.0000000000000000  0.0000000000000000  0.0000000000000000
  0.0000000000000000  0.0000000000000000  0.0000000000000000
  0.0000000000000000  0.0000000000000000  0.0000000000000000
  0.0000000000000000  0.0000000000000000  0.0000000000000000
  0.0000000000000000  0.0000000000000000  0.0000000000000000
  0.0000000000000000  0.0000000000000000  0.0000000000000000
  0.0000000000000000  0.0000000000000000  0.0000000000000000
  0.0000000000000000  0.0000000000000000  0.0000000000000000
  0.0000000000000000  0.0000000000000000  0.0000000000000000
  0.0000000000000000  0.0000000000000000  0.0000000000000000
  0.0000000000000000  0.0000000000000000  0.0000000000000000
  0.0000000000000000  0.0000000000000000  0.0000000000000000
  0.0000000000000000  0.0000000000000000  0.0000000000000000
  0.0000000000000000  0.0000000000000000  0.0000000000000000
  0.0000000000000000  0.0000000000000000  0.0000000000000000
  0.0000000000000000  0.0000000000000000  0.0000000000000000
  0.0000000000000000  0.0000000000000000  0.0000000000000000
  0.0000000000000000  0.0000000000000000  0.0000000000000000
