48
Lattice="8.62602574 -0.04894492 -0.06339522 -0.04763372 8.63209799 0.07408828 -0.08994146 0.10800554 12.30795668" Properties=species:S:1:pos:R:3:forces:R:3 config_id=O-FAPI3_al_combined_01__combined_strain_rattle_fa_rotation__sev-0.825__seed-new phase=O-FAPI3 mode=active_learning seed=787795557 source=O-FAPI3/CONTCAR energy=-213.5183749 stress="-0.07783516987517386 -0.00016815704742057362 -0.0019851741990916465 -0.00016815704742057362 -0.03632236547737297 0.010687152950372151 -0.0019851741990916465 0.010687152950372151 -0.043339952954330366" pbc="T T T"
C        4.34696412       0.41755908       3.01762690      16.46892030      -2.56489071       1.64571841
C       -0.03625051       4.16353872       9.21143999      -3.07534493     -12.89151481       9.19324567
C        8.32125513       4.78586544       2.71309813      10.79144922       4.35949643       1.49806774
C        4.11355376       8.37623414       9.20367935     -10.37750309       5.06405901      -2.80697816
N        4.78625889       8.22828960       2.17157382       7.30835214       5.05363977       5.73561022
N        0.53458874       4.88210687       8.48687689       7.25877060       3.02984728      -1.10680225
N        1.15754295       4.85661378       2.88837111      -0.21661218       5.10245073       0.08242640
N        5.18692337       8.03603180       9.30983616      21.31317981      -4.94097279      -3.79029788
N        3.23503618       0.59223009       2.92720292     -19.55617378       8.53791230       1.24898200
N        7.34824307       3.56074973       9.12676457       4.58495722       5.49839598      -3.54598329
N        7.90896095       3.70112750       2.51173397      -4.85901263     -10.44549482      -2.83427364
N        3.64742294       0.63760418       8.36986047      -0.09783696      -0.15050876       0.34024953
H        5.04138213       0.94624726       3.90003670      -1.45691818      -1.37765721      -2.27311639
H        0.72761341       3.45500612       9.81610422      -1.69062504       1.72509898      -0.36263024
H        7.87474972       5.37154247       3.39725069      -2.06260434       3.06193032       1.67658274
H        3.64497167       8.07205102       9.97301176      -5.51301792      -2.31472791       5.19601772
H        5.61917976       7.78173162       2.42161594       2.10507271      -0.55738584       0.30862025
H        1.49738284       5.08962222       8.55018909       1.82713565      -0.07809224       0.53991185
H        1.40379810       5.90381942       3.31520952      -0.26733009      -3.08586821      -1.38258700
H        5.72492400       7.14653698       9.68917491      -1.63266937       1.89133469       0.17084848
H        4.31342992       7.68661184       1.67380519      -6.10363129      -5.54243996      -5.67058936
H        0.17121498       5.39725062       7.87584710      -4.51393254       5.68009342      -7.05894596
H        1.90303624       4.61205461       2.13271338      -2.00621763       0.31824350       1.19313522
H        5.82284480       8.50822808       8.45023652      -0.96480280      -1.66300705       2.56996011
H        2.55419397       0.37441636       2.20777365       0.25443993      -1.02203368      -0.56148931
H        6.86050586       4.12878793       8.48655952      -2.24621059       0.00937421      -0.83197430
H        8.55985060       2.89321752       2.09933714      -1.87706320       1.63384477       0.81820109
H        3.98480932       1.10416030       7.59091919       1.09985459       0.90349630      -1.85315455
H        2.75563698       1.52454326       3.37548832       1.26445867      -2.44869360      -0.24164512
H        7.00571106       2.90579715       9.70092780      -1.54954436      -2.97977215       3.03041169
H        6.88840288       3.62213902       2.82491049       0.61635734      -0.97867138      -0.97998670
H        2.76155024       0.75124065       8.70009892      -3.64618733       1.35527804       0.11336993
Pb       4.17573802       4.18384730      11.73718171      -0.25629712       0.37487060       2.83942725
Pb       8.45245367       0.20244097       5.91584830       1.00884697      -0.59169062       0.48765439
Pb      -0.00368558       8.61944387      12.03483064      -0.94705305      -0.15883695       1.23334490
Pb       4.25850591       4.40867064       5.98333510      -0.60167039       0.25813386      -0.92801063
I        6.68048251       6.14777830       6.24425526       0.31200572       0.15698982       0.06446209
I        8.30063491       8.55657909       3.12009245      -0.23994414      -0.02195983      -1.11074718
I        5.86876418       1.86082248      11.90657533       0.44751860      -0.71683160      -0.04970817
I        1.61145890       2.42315084       0.17532351       0.28084737       0.51461167       0.06701801
I        1.64036964       2.69384304       5.62053016       0.01554201       0.14468469       0.04464043
I        2.32601229       7.10792203       5.66526440       0.53798604      -0.61033316       0.28902710
I        6.71927990       6.05743727      11.80257031       0.04001159      -0.10903716       0.00545399
I        6.06885803       1.82496345       5.96509745      -0.94238696       0.71623535       0.29929671
I        4.14942293       4.40899230       9.05461208      -0.69075471       0.24408893      -2.40147530
I        0.37810801       0.09915386       9.16867540      -0.07938058       0.02282850      -1.10653376
I        2.51047133       6.89904071       0.10079917       0.20889767      -0.48663264      -0.23530660
I        4.66775999       4.32823609       2.75981816      -0.27387895       0.08011393       0.44055187
48
Lattice="8.64224964 -0.13691646 -0.02643237 -0.13324858 8.9517708 0.14552158 -0.03750071 0.21214065 13.23017147" Properties=species:S:1:pos:R:3:forces:R:3 config_id=O-FAPI3_al_combined_02__combined_strain_rattle_fa_rotation__sev-0.875__seed-new phase=O-FAPI3 mode=active_learning seed=1928845249 source=O-FAPI3/CONTCAR energy=-196.4491983 stress="-0.08539655819074601 0.003236570277383491 -0.027545686759530577 0.003236570277383491 -0.020177554908932548 0.016452588814358012 -0.027545686759530577 0.016452588814358012 -0.012784757113589758" pbc="T T T"
C        4.01877482       8.83547097       3.42527977       3.91072324       8.04972754       5.59410280
C        8.47631448       4.19483670       9.91020752      37.05154007       8.97847850       7.54132110
C       -0.07015978       4.86383327       3.24854280      -5.13479376       2.50609649       4.88996095
C        4.20155691       8.91619815       9.99602263     -48.31901905      24.18928258     -20.33578783
N        4.83011818       8.32512269       2.53801688      -4.75777364      -1.00073698      -3.27890460
N        0.42792447       5.23504690       9.19560035      -5.30374582      -4.50047390       6.33289681
N        1.12321532       5.36958566       3.42825156     -12.76268151     -29.59615239     -24.17867260
N        4.94982306       8.44607127      10.38990083      45.76930730     -31.46198045      30.64041232
N        3.35836939       1.12672953       3.24170684      -1.16349979      -5.73040150      -6.58240395
N        7.51993569       3.87317099       9.72271280     -29.48814004     -19.24766472       4.84285022
N        7.83762223       3.78656807       2.45470357       5.41220003       3.55775859       2.07184401
N        4.17800455       0.34286119       8.69791156      -0.44522220       4.96527274     -12.46174894
H        5.12391164       0.40598669       4.22894532      -2.57069902      -1.95150084      -1.18943481
H        0.67154690       3.68999299      10.77000884      -2.14989422       1.91571999      -2.08435157
H        8.05847867       5.36876473       4.21102418      -0.66649508      -2.21206759      -2.77017296
H        2.96438399       8.79829836      10.15250634       1.86182292       0.25452103       1.95592543
H        5.67649315       7.82236572       2.79434078       0.14996758      -0.23068055       0.12388531
H        1.25806453       5.14443912       9.27790801      14.15857458      -0.10663699       0.57378132
H        1.46168786       5.89786320       3.82407819      14.22843631      23.14703015      17.69476515
H        4.69166812       7.85509367      11.46753434       1.44571113       1.60519846      -2.64552721
H        4.16690195       8.05837765       1.65326122       2.38114488       0.04782410       1.06726265
H       -0.01782794       5.74425032       8.67383795      -5.79792374       7.17355162      -7.65841099
H        1.64706938       4.62220923       2.67756593       0.63741881       3.25484961       2.43139789
H        5.98246199       8.14043075      10.20982422      -1.89462898       1.00264080      -0.35357474
H        2.46895679       0.92567056       2.23270404       2.47440010       1.30472683       3.13403015
H        6.83684464       4.14512053       9.28179966      -9.31242826       3.74333894      -6.66293028
H        8.38195922       3.42544599       1.64975199      -0.89905737      -0.46717558       0.06327960
H        5.04775589       0.34062649       8.05773572      -1.39074899       0.01682287       0.92609682
H        2.88258494       1.60472790       3.98889757      -0.31133240      -0.50923096       1.39829402
H        7.07378808       3.05949638      10.66986175       0.43532476       1.68055957      -2.47041170
H        6.85601479       3.75867564       2.71909362      -0.64995805      -0.30583040      -0.30370083
H        3.33794525       0.76385060       8.01804851       2.18647783      -1.26655863       3.15656257
Pb       4.09904766       4.71795286      13.01877635      -0.19792878      -0.72640826      -0.09948158
Pb      -0.12543760       9.02040038       6.75140152      -0.14358001       0.26665222      -0.23000936
Pb       8.38718560       8.77109567      13.07890345       0.07591427       0.48993268       0.30056600
Pb       4.17134002       4.61579187       6.35311109       0.17692485      -0.03046190       0.13800361
I        6.86704261       6.26345593       6.60939219       0.00820563       0.02551272       0.03094699
I        8.16402240       8.85889580       3.20876204       0.11346131      -0.12653496      -0.07785254
I        6.04615496       1.66270297      12.68278022       0.09780776       0.61493444      -0.24770363
I        1.68472945       2.51572862       0.06918079      -0.17204529      -0.01102514       0.10345935
I        1.82914756       2.71281522       6.18604985      -0.42211095      -0.16800515       0.03011550
I        2.51339888       7.33601716       6.30610148       0.02884487      -0.16246570      -0.18760634
I        6.63212223       6.29156757      12.65513354       0.48852840      -0.00877123      -0.08366886
I        5.91968265       1.78123234       6.61448570       0.88285620       0.70973387      -0.95263988
I        3.72607706       4.54457607       9.77947535       0.42480771      -0.00603504       0.11374414
I        0.60418940       0.26974358       9.79393585      -0.25178184      -0.04534048      -0.09123750
I        2.52643967       7.02566683       0.25764817      -0.02651838       0.14545143      -0.23060658
I        4.56212098       4.26242438       3.11895623      -0.16839338       0.22652154       0.02133458
48
Lattice="8.82839257 -0.08555926 -0.13862628 -0.0832672 9.17828805 0.13555565 -0.19667492 0.19761236 12.82050255" Properties=species:S:1:pos:R:3:forces:R:3 config_id=O-FAPI3_al_combined_03__combined_strain_rattle_fa_rotation__sev-0.925__seed-new phase=O-FAPI3 mode=active_learning seed=3843110209 source=O-FAPI3/CONTCAR energy=-205.419099 stress="-0.025708674165669115 -0.01719447657789715 -0.01061758398490794 -0.01719447657789715 -0.005742987308980711 0.006964351873034147 -0.01061758398490794 0.006964351873034147 -0.04359885716290188" pbc="T T T"
C        4.57796946       0.30020346       3.27091751     -34.89087909     -27.95111867     -31.85776018
C       -0.04249300       4.59795923       9.77616094     -13.79591079      -8.16795736       0.33830270
C       -0.07449471       4.94397588       2.96616179       0.05170377       9.84518200       0.19125208
C        4.08136189       9.00861310       9.85776627       8.36704425       1.99935158     -13.31505997
N        4.86088169       8.51705851       2.50791197       3.88250507       5.21942820       9.49016522
N        0.39610356       5.02898709       8.81674638       5.10824022       6.17145568     -15.48463524
N        1.20074000       5.04515561       3.00312172       3.25812589       4.03326913       2.35285173
N        5.43256080       8.33866503       9.10002671     -11.69821711       4.59447777      11.31319181
N        3.37168331       0.81568255       2.88077766      -1.89867260       2.05980068       5.55254617
N        7.48345622       3.71432502       9.56272801       9.03433334       5.96462028     -10.53114993
N        7.99518676       3.95826806       2.50970953      -2.23311311      -7.07241046      -0.82078232
N        3.68148314       0.87840205       9.09582578       1.61680603      -3.24818768      -2.87495382
H        5.02166196       0.69453861       3.63410392      31.60871495      26.84229816      26.61692674
H        0.20510784       4.56648316      10.63709852       4.38968254       0.03092196      10.95436593
H        8.28754960       6.17697146       2.81915160       0.52331261      -3.78383224       0.10952775
H        3.94452557       8.69060203      10.71675416      -1.48599762      -2.95011329       8.47170083
H        5.82349007       8.46021027       2.60499877       2.84660791      -1.11820705      -0.40133036
H        1.35014175       5.41354500       8.66537553      -0.15049480       0.05685728       0.78918565
H        1.61463719       6.32293485       3.51057633      -0.96768357      -4.31017678      -1.33186184
H        5.75581529       7.84539528       9.78527116       3.21991868      -4.34363803       4.37631192
H        4.47208056       8.11778830       1.81107785      -4.46862772      -3.32158807      -6.14465790
H       -0.09042133       5.05700717       7.73036980       0.76018451      -0.23158216       3.31959335
H        1.82458495       4.29458990       3.29386917       0.29703380      -0.16402589      -0.18177558
H        5.69488998       8.40301892       8.28975618       3.32798358       1.20688091     -11.50929741
H        2.72791563       0.26962158       2.32416856       0.07795776      -0.40850282      -0.53706362
H        6.96077717       4.00062208       8.76585648      -1.07076155      -0.26959264      -0.32635928
H        8.37687205       2.96189800       2.52025351      -0.56859863       1.07523789      -0.29178800
H        3.76166344       0.75089584       7.90830434      -0.42807859       1.32131450       3.78402250
H        2.69977248       1.35350660       3.71472314       2.50811076      -1.32547790      -2.63985616
H        7.20239025       3.46933298      10.32969754      -4.80830240      -3.44408361      10.88428711
H        6.97730435       3.98357418       2.44264534      -0.38942790       0.52716495       0.16666879
H        2.90535417       1.09939608       9.65249505      -2.64484380       1.77260738      -0.04000359
Pb       4.36999433       4.87162354      12.62139516      -0.62737101      -0.48177552       0.28025681
Pb      -0.07411571       0.17219768       6.29972199      -0.30679094       0.25440799       0.01941390
Pb       8.58678245       0.13115038      12.34584457       0.01412516       0.27713757       0.10490464
Pb       4.13119446       4.85855471       6.40390655       0.96396974      -0.76970925      -0.99881395
I        6.95245563       6.71206604       6.66217456       0.06053631      -0.53900906      -0.34767799
I        8.28659252      -0.02647019       2.77015956       0.45913166      -0.09852431       0.23432016
I        5.82737417       2.06553791      12.39476589       0.12540826      -0.32252564       0.00156888
I        1.64038944       2.57366179       0.12812292       0.00304314      -0.07913551      -0.09683951
I        1.62945586       2.90965392       6.00143908       0.03381141      -0.14796475      -0.22846022
I        2.51449807       7.22161358       6.08459473      -0.63389628       0.97637825      -0.36704398
I        6.80263492       6.41573762      12.07564932       0.40607596       0.37621332       0.03856175
I        6.09150634       1.86224199       6.42045375       0.07464255      -0.15853144      -0.06569956
I        3.57916392       4.63852508       9.18851420       0.43830051      -0.11715540       1.35791366
I        0.42821531       0.23732151       9.40626062      -0.28478802      -0.09995793      -0.07955248
I        2.33993795       7.34675408      12.88089599      -0.19979582       0.22881857      -0.00856455
I        4.62388103       4.46176396       3.00669045       0.09494100       0.09095940      -0.26685263
48
Lattice="9.23790183 -0.08281473 -0.08693252 -0.08059619 8.54137888 0.14327108 -0.12333481 0.20885988 13.21264272" Properties=species:S:1:pos:R:3:forces:R:3 config_id=O-FAPI3_al_combined_04__combined_strain_rattle_fa_rotation__sev-0.975__seed-parity phase=O-FAPI3 mode=active_learning seed=313057053 source=O-FAPI3/CONTCAR energy=-207.15508825 stress="-0.015886501175688607 0.0015128737921476481 0.009886814708412453 0.0015128737921476481 -0.023537868884374126 -0.009579643130940386 0.009886814708412453 -0.009579643130940386 -0.007603033555637313" pbc="T T T"
C        4.81898457       0.14885538       3.12814602     -14.70496954      17.61797988      19.53408608
C       -0.04076356       3.94832515       9.98379143       2.05235779       7.05418867      -5.95718859
C        9.02574076       4.60403590       3.10047624     -12.22298643     -18.89638778      -4.88460949
C        4.46788080       8.18036194       9.77906083      10.69129924      -8.08728818      -1.50000281
N        5.10782054       8.15334255       2.40324683      10.38198590     -11.11603417     -15.03457977
N        0.37304381       5.02496923       8.78311189       7.80910739      -4.56516440      15.64185486
N        0.57039490       5.46509957       3.42241121      -1.32774192      10.40835530       8.08083679
N        5.81131966       8.18179222       9.47368321      -3.92304363      -4.89032989       2.17098456
N        3.40839574       0.68731950       2.93163106       1.42170370       1.44669401       4.82519581
N        7.96847982       3.54088509       9.82305253       3.43582021      -4.06797268       8.69642120
N        0.20965610       3.32832252       2.40612799      -7.35197928       4.56555664       4.59465877
N        3.85764319       0.52926567       9.87766259     -11.22500154      14.48187738      -0.15390274
H        5.24031007       0.92339257       4.04912812       0.13426833      -2.70803151      -2.41906766
H        0.73943636       4.13269414      10.84492001      -1.72370185      -1.30200822      -1.27643747
H        7.87555354       4.46033828       3.52999332       2.81105047       1.00089164      -1.13394262
H        4.11149345       7.36164038      10.25392435      -0.65518872      -4.02336992       0.64028930
H        6.07718780       8.15692024       2.50620034       3.54386750      -1.34185602      -1.27521707
H        1.60607348       5.34872959       9.19482702      -4.28422799      -1.06580778      -2.24545249
H        0.14980827       6.32365225       3.79645785       0.36473665       0.84569171       0.64065487
H        6.25072628       7.25467459       9.37913301      -0.19645537       0.68294800      -0.01974640
H        4.63640903       7.56694499       1.78885055      -1.40809542      -1.38588956      -2.29770811
H        0.09186275       5.23969792       7.97372614      -3.26697748       1.63202240      -8.52794071
H        1.32945425       5.61406336       3.06529801      11.75463198       1.65620582      -5.16275121
H        6.32548029       0.36730546       8.94831357       2.23195570       3.94542342      -2.15411534
H        2.59484413       8.54042775       2.87475586      -0.02863330      -0.11192411       0.16673525
H        7.14435847       3.69489831       9.43699396      -4.28018500       1.54768070      -3.65524731
H        1.12938417       3.39311496       2.14160560       2.48706247      -0.84397174      -1.16529320
H        4.05151570       1.52344522       9.41519721      -0.23048271      -1.79934369       1.40128660
H        3.05108355       1.47621353       4.26778549       0.36653892      -2.12201633      -3.12047221
H        7.69361736       3.11261135      10.88723395       0.27791596       0.53186519      -2.51975832
H        8.58673318       2.53971777       2.24588330       3.08470271       1.75208415      -0.19732490
H        2.60814612       0.47179709       9.98401452       2.86420328      -0.33525434      -0.16151713
Pb       4.56817059       4.48415476      13.02731319      -0.15622204      -0.00083647       0.28198751
Pb       0.00001476       0.23435146       6.31193646      -0.15265379      -0.04664073       0.52848171
Pb       9.09785490      -0.04523359      -0.03206124       0.17636801      -0.72521506      -0.35793471
Pb       4.41437225       4.37867556       6.42761854       0.41501468       0.12471409      -0.13197332
I        7.05417268       6.35831126       6.73171376      -0.06521748      -0.46758019      -0.28122328
I        8.60591596      -0.01390206       3.05489046      -0.13167683      -0.07343875       0.01433774
I        6.55546730       1.90434471      12.81886618      -0.33847145       0.19978309      -0.19470444
I        1.69294786       2.26112403       0.02688482       1.12099152       0.35533402      -0.99119724
I        1.83134869       2.76975501       6.15160746       0.12305714      -0.17108511      -0.44417800
I        2.38481378       6.96427491       6.06732228       0.30688565      -0.16320742       0.05652177
I        7.08613736       6.14684403      12.57951544      -0.19269473      -0.23276874      -0.01701817
I        6.30822129       1.62916745       6.47622266      -0.25187380       0.67333982      -0.12562455
I        4.07529013       4.26168004       9.63004297       0.01152734       0.05155123      -0.04225496
I        0.37572424       0.15182081       9.54053539       0.25810070       0.11879331       0.15005511
I        2.64177179       6.64760423       0.27134419      -0.10204928      -0.04092503      -0.11044983
I        4.86700239       4.47236641       2.97318761       0.09537635      -0.10863266       0.13444610
48
Lattice="8.69901275 -0.14632417 0.20173915 -0.14240426 9.07462041 0.15023478 0.28621579 0.21901153 12.47802381" Properties=species:S:1:pos:R:3:forces:R:3 config_id=O-FAPI3_al_combined_05__combined_strain_rattle_fa_rotation__sev-1.025__seed-new phase=O-FAPI3 mode=active_learning seed=2723977900 source=O-FAPI3/CONTCAR energy=-193.1010444 stress="-0.12832441904397562 -0.03151146518714699 -0.009762647836035632 -0.03151146518714699 0.004206939517463717 -0.013096510745190372 -0.009762647836035632 -0.013096510745190372 -0.0384377423128605" pbc="T T T"
C        4.36070115       0.58694154       3.22309257       6.07897410      -3.31001048      -0.76616119
C        8.80631356       4.17118878       9.49873596      45.22262681      22.95597736      20.92636199
C        8.46011966       4.94470325       3.20445668       8.64721769      -5.47524711      -4.50086914
C        4.43202901       8.53874801       9.37835241     -37.51089496       8.81401687      -5.08629815
N        5.14757911       8.30949398       2.50836234       0.29559027       6.46466613       8.01062191
N        0.75826557       5.50081970       8.97759043      -4.32604452      -3.96138037      -1.70694394
N        1.22287023       5.52821162       3.04576286     -25.57261883     -27.13647783     -33.71600443
N        5.45315601       8.55365682       9.46185061      32.43975277      -8.08914827       8.34241651
N        3.14262919       0.50271354       3.16709526      -5.89636138      -1.52517248      -3.87915595
N        7.95963762       3.74807188       9.23327711     -47.11291792     -25.26143384     -15.41997365
N        8.07037043       3.62155943       2.66263858      21.81240828      14.72071674      14.69315042
N        3.95031370       0.84598513       8.51729941      -0.46209040      -4.89333902       2.79552017
H        4.79769870       1.30194397       4.04647201       0.06986804      -1.29896309      -1.58131213
H        0.45859167       3.91378184      10.47452732       0.11083795       1.11140160      -2.54513999
H        7.97535389       5.33120198       3.92098277      -4.70066244       3.23865216       4.92100951
H        3.71189074       8.25240967      10.04454942      -2.20771854      -1.76695708       1.40090415
H        6.08128640       8.73479798       2.83757878      -1.29457679      -1.48335471      -1.99965638
H        1.46394923       5.79281414       9.53586554       2.99258855       1.16771797       1.29387796
H        1.57140379       5.87403813       3.55720396      19.92588578      20.87958868      30.60934928
H        5.90325710       7.47623983      10.01674145      -0.62701715       2.22972035      -0.23264559
H        4.64487103       7.95210712       1.78428694      -1.40791728      -0.88508553      -3.26146332
H        0.53195550       5.61248859       8.02347836       0.91307046       1.88830137      -1.49565825
H        1.66795450       4.62184642       2.55155187      -0.06014421       3.17255193       1.45064736
H        6.16864816       8.62653221       8.94636119       7.32952034       2.62789128      -5.28268157
H        2.33941577       8.97989048       2.42845313       2.22927483       1.30870625       2.64734942
H        7.42149059       3.84898577       8.31352851       0.18007149       0.18947665       0.74217965
H        8.51876257       3.32451806       2.02227333       8.61056217      -5.27311759     -10.96189002
H        4.53969834       1.34583158       7.87116876      -0.18556580       0.34276782       0.08097588
H        2.58905281       1.23393235       3.58569571      -0.63826794       0.53801391       0.72939182
H        7.33309847       2.93312538       9.88509515       1.63617362       1.79826348      -1.59523119
H        7.32754799       3.50324636       2.58590475     -28.96546419      -4.16813498      -2.15612865
H        3.06599724       1.08972172       8.99252164       0.50180067       0.06843861      -0.85772370
Pb       4.71373610       4.53579477      12.57652487       0.10503586       0.14573716      -0.36367097
Pb       8.80170197       0.17046362       6.01695252       0.22160182      -0.06561761       0.91077462
Pb       0.36908168       0.28364018      12.41870572      -0.16603599      -0.87348983      -3.18418695
Pb       4.50092593       4.79669666       6.31568079      -1.68991079      -0.98251865      -0.62759612
I        6.75862848       6.33259410       6.41621883       1.99178835       1.32293933       0.16351846
I        8.28294419       8.92527215       2.95066514       0.18799869       0.00784096       3.12071819
I        6.47144558       1.91304351      12.14725035      -0.31709033       0.38785174      -0.37930244
I        1.74609041       2.80174978      12.50730282       1.16778469       1.08447935       0.01287215
I        1.83879419       2.77014296       6.07626697      -0.17485160      -0.06501590      -0.42335855
I        2.57935723       7.24518768       6.15893789      -0.26589220       0.17906050      -0.23330710
I        7.19595194       6.46163579      12.17219045      -0.48441616      -0.24040506      -0.22797921
I        6.20010207       1.97197451       6.68057164       1.13378839       0.21659578      -1.08193375
I        4.12111543       4.60847993       9.18867558       0.17672209       0.03908384       1.21200326
I        0.40022873       9.18816295       9.18542724      -0.32741946       0.02265433      -0.24518117
I        2.32424401       7.12301977       0.35370181       0.42832321       0.07526510      -0.06277412
I        4.69281641       4.67556973       3.09055036      -0.01538807      -0.24350786      -0.18941508
48
Lattice="9.02732858 -0.15245869 -0.01950942 -0.14837445 8.55348501 0.07575749 -0.02767883 0.11043889 12.59065646" Properties=species:S:1:pos:R:3:forces:R:3 config_id=O-FAPI3_al_combined_06__combined_strain_rattle_fa_rotation__sev-1.075__seed-new phase=O-FAPI3 mode=active_learning seed=1653469476 source=O-FAPI3/CONTCAR energy=-206.57944862 stress="-0.0065441983011614805 -0.006840618841715158 0.007288099132397476 -0.006840618841715158 -0.0284977034973846 0.005182500326246178 0.007288099132397476 0.005182500326246178 -0.03598826736793188" pbc="T T T"
C        4.17571970       0.21469202       3.09777504      15.63941672       5.90262974       5.23464507
C        0.03482437       4.28156855       9.65717156     -13.43131543      -0.86957710      -5.74051619
C        8.70397674       4.34993236       3.03293956       5.67461730      15.80199578       9.93546444
C        4.29356375       8.11000099       9.59125330      10.38998189       7.59605095     -11.98032714
N        5.48261856       0.21697717       2.35783339      -6.21770399      -2.04505772      -0.00066992
N        0.81366017       4.49297274       8.75368834       6.05387203      -9.83698513      21.25147417
N        0.90119665       5.19279844       3.34514695      -5.80567234     -15.20004913     -11.30171928
N        5.62989722       7.87992109       9.17612261      -9.89527704     -10.96006896      14.29289961
N        3.01945505      -0.00445850       2.93067426      -7.71654207      -0.87641950      -0.94177427
N        7.51772102       3.83090428       9.24690692       4.46394419       2.71884447      -3.58900837
N        8.43201132       3.34968618       2.51356193     -10.42130738      -7.94159076      -0.87265685
N        3.96051303       0.57482497       8.73930556      -5.05139966      -1.38072728       2.79076039
H        4.67647583       0.77679963       4.16074258      -2.38260195      -1.34022738      -2.22105953
H        0.00560368       4.04910931      10.56701313       1.53692217      -1.82656620       7.62091971
H        8.15425947       5.08577728       3.64317403      -2.05667461      -1.33714812      -0.22094278
H        3.60582209       7.81516383      10.14468354      -5.08612270      -4.16373399       5.97811392
H        6.44432742       0.49310255       2.80419148      -1.88320567      -1.16106300      -0.75637868
H        1.71076901       4.34828874       9.23319942       1.64347571       0.47225677      -1.14245519
H        1.45169909       5.76417871       3.63274893       6.85927132      10.47589217       5.84745950
H        5.95975265       7.06425644      10.19268553       0.51591844       2.21106735      -3.27517174
H        5.07966481       8.15904567       1.59073096       2.12403242       1.06568349       0.87056717
H        0.78457672       4.83053109       8.06064838      -1.53482274      10.72462544     -23.22355834
H        1.83457562       4.78328275       2.55924692      -2.75651312       0.63997816       2.30725447
H        6.15033767       8.33017927       8.65266876       6.31845959       6.21716803      -6.60373288
H        2.72830346       7.97950233       2.12143758      -1.44891771       0.23300231       0.26986814
H        7.06315047       4.35261249       8.21004609       1.77650921      -1.65664124       3.46486837
H        8.94867833       3.04525654       1.84095028       4.40158005      -3.67308831      -5.53621483
H        4.31615940       1.16456056       7.97625041       0.71268645      -0.43803525       0.10879862
H        2.26955125       0.40030764       3.66985289       1.51983705      -1.27605849      -2.14866893
H        6.84723806       3.71846397       9.97306525      -0.45699608       0.18988891       1.06595343
H        7.27186325       2.97930538       2.52928402       3.64209913       1.33610499      -0.17649591
H        2.87198427       0.59743819       8.93226667       2.16422316       0.77603071      -0.93977350
Pb       4.43937911       3.91449553      12.46988588      -0.19059957       0.97809270       0.00373417
Pb       0.17260009       0.07445922       6.28263630      -0.62268991       0.01656456      -0.89976909
Pb       8.85078280       8.47784104      12.37420991      -0.17867361      -0.62452054       0.21450262
Pb       4.30757920       4.68682068       6.20730362       0.70333367      -2.15389164       0.06206902
I        6.97431208       5.94661535       6.31050568       0.57776078       0.24719167      -0.02479714
I        8.50767518       8.41766519       2.87624760       0.25294480      -0.08133938       0.27761808
I        6.24278852       1.69339137      12.17578387       0.76963197      -0.55897666      -0.48487615
I        1.78052367       2.42472215      12.59856707       0.00399430       0.35829836      -0.00456339
I        1.65842433       2.57925374       5.80959665       0.30159689       0.28593444      -0.11770760
I        2.79311237       6.93025884       5.72670333      -1.22793589       1.48920743       0.42330596
I        6.99982802       5.91574434      12.06507261      -0.23889917       0.18556228       0.03974050
I        6.24882165       1.90707188       6.46175742       0.30605369      -0.37980752      -0.37329476
I        4.12255524       4.45958843       9.31204288      -0.13917853      -0.00060569       0.07071216
I        0.32588984       0.13337547       9.14528388       0.22119982      -0.03476999       0.80704804
I        2.50721376       6.56707912       0.41361068      -0.21453107       0.02107846      -0.74543398
I        4.53906401       4.12330774       2.88832203       0.38421746      -0.12620020       0.38378888
48
Lattice="9.01938999 0.0 0.0 0.0 8.77776784 0.0 0.0 0.0 12.79618681" Properties=species:S:1:pos:R:3:forces:R:3 config_id=O-FAPI3_al_global_rattle_01__global_rattle__sev-0.514__seed-new phase=O-FAPI3 mode=active_learning seed=3689662630 source=O-FAPI3/CONTCAR energy=-210.82634381 stress="-0.04575150214300269 -0.0010914801759663775 0.020765825226801364 -0.0010914801759663775 0.0017028476415026715 -0.012217147152120023 0.020765825226801364 -0.012217147152120023 -0.009842864110778067" pbc="T T T"
C        4.53592509       0.25448698       3.19719254       3.59923458       4.16783968       0.83202364
C        8.91431635       3.91592506       9.47948365      56.56002190      10.60981402      -6.13519175
C        8.80538413       4.69185929       3.16862978       6.80183863       1.49211522      -2.03046666
C        4.25822944       8.37945380       9.40049381       7.18339186       2.06872287      -1.11955687
N        5.12097603       8.41466512       2.22612524       5.53645092      -5.25039347       0.52080874
N        0.66267596       4.99124156       8.83297167       0.13078306      -3.48405819       2.28787626
N        1.21398139       5.26733729       2.94161954     -11.96673649       4.38129948       4.29853687
N        5.71715663       8.02658411       9.48304777      -4.06459656      -0.97706548       1.44655097
N        3.41998050       0.79780087       2.92803421      -2.46992232       3.85633932       4.54221704
N        7.96402918       3.76247116       9.66379263     -55.30894988      -9.33728574       4.22338789
N        8.29002556       3.76226830       2.41991197       5.54882017       4.23217276       3.97152127
N        3.78978713       0.70973985       8.62165902      -1.39660434      -7.17899462       5.87229204
H        5.34119066       0.89713878       3.84825817      -2.16901446      -1.72779393      -0.55206574
H        0.68506263       3.47974206      10.19596672      -0.45140242      -0.25878104      -0.66080553
H        8.41445247       5.13018897       3.98751689      -2.21854746       1.45150126       2.55401354
H        3.97698854       7.93626325      10.33281886      -2.29246136      -0.27034181       0.29340174
H        6.18552832       8.09816856       2.61852529      -2.54834408       0.90407035      -1.47193676
H        1.76117759       5.00054213       8.92825361      -2.57049981      -0.18713220      -0.57096715
H        1.61970810       5.75021459       3.71361400       0.22078565       0.55922169       1.08379534
H        6.27744041       7.21966744      10.27604679      -2.22976870       2.24031375      -1.93725007
H        4.74988947       7.56231805       1.74741374      -0.38487307       1.05934567      -0.05758929
H        0.08825825       5.46675335       8.19711174      -0.28200391       1.43349638      -1.62955702
H        1.67513126       4.64664219       2.56264447       6.82762011      -7.84098872      -5.33910204
H        6.34010037       8.44475056       8.83821618       0.84701194       0.57204145      -1.01172901
H        2.85688474       0.36810140       2.30377864      -2.57933164      -1.59763878      -2.95845414
H        7.29663193       4.13544940       8.68267840       0.49191783      -0.38465331       2.91118343
H        8.91947066       3.51361995       1.78975748       2.80396588      -2.57149376      -4.67586036
H        4.48777833       1.15918649       8.13781229       1.43688734       2.02400870      -2.16031227
H        2.92583401       1.52645277       3.56357244       1.01257148      -1.48522070      -0.79880004
H        7.36072011       2.97559948      10.16956012       1.36652517       1.52252817      -0.31892024
H        7.40443502       3.63925588       2.46778007      -7.96023018      -1.81251159       0.04798396
H        2.78642888       0.68921532       8.85803121       0.07230483       1.44545351      -1.06796868
Pb       4.54014671       4.20419617      12.64559271      -0.28726489       0.16990949      -0.24671467
Pb       0.09625700       0.17048225       6.17718707       0.10660006      -0.21173846      -0.48598633
Pb       0.02484905       8.69256889      12.34078882       0.04776273      -0.13311452       1.69325031
Pb       4.65541262       4.43641474       6.10260475      -0.29917077       0.22342252       0.25149472
I        7.10956176       6.27965549       6.50774022       0.20573891      -0.03783299      -0.02341725
I        8.57212719       8.54669810       2.92267108       0.02862628       0.14334046       0.52600818
I        6.33072841       1.71006481      12.35898577       0.07803663       0.15669741      -0.23448892
I        1.84945451       2.43633855       0.05399773      -0.02732053       0.30530189       0.02229604
I        1.90459888       2.67641058       5.72063576      -0.22173822      -0.04537067       0.00504267
I        2.75887392       7.09452096       5.79198935      -0.17290434       0.05659860       0.04260718
I        6.97075524       6.21674558      12.21302708       0.10235098      -0.15010287      -0.04770430
I        6.19932979       1.72347443       6.41627602       0.52094016       0.01790036      -0.02859363
I        4.19751244       4.43801326       9.17663694       0.01342185      -0.07683998       0.39162181
I        0.24150138       8.68734481       9.55304189       0.29871864       0.16104081      -1.79455524
I        2.75256946       7.09408470      12.73190171      -0.07373242      -0.28949014      -0.04798083
I        4.78551876       4.33495138       2.98054260       0.13309024       0.05434719      -0.41193884
48
Lattice="9.01938999 0.0 0.0 0.0 8.77776784 0.0 0.0 0.0 12.79618681" Properties=species:S:1:pos:R:3:forces:R:3 config_id=O-FAPI3_al_global_rattle_02__global_rattle__sev-0.542__seed-new phase=O-FAPI3 mode=active_learning seed=3019682915 source=O-FAPI3/CONTCAR energy=-209.33014781 stress="-0.020881991108629715 -0.006766522697470634 -0.001183965478820199 -0.006766522697470634 -0.010497295517645342 -0.005665226418962361 -0.001183965478820199 -0.005665226418962361 -0.0201333252908742" pbc="T T T"
C        4.80159051       0.57408550       3.23530572     -26.18706738     -25.05558963     -37.32409425
C        0.03559592       3.80560283       9.49238771      29.22582630       8.24802318       1.27663680
C        8.70474108       4.93698302       3.19061517      14.33607078      -8.18548159     -10.13909004
C        4.49313134       8.43616468       9.51570965       2.76790124      -2.56865723       1.45203430
N        5.07133755       8.21647804       2.40263852       8.96059712       3.93767572       6.49445962
N        0.67164773       4.90533969       8.83609278      -8.08672780      -2.87256531      -1.34773388
N        1.41198226       5.16201856       3.17099132      -9.26424815      -2.76897948      -2.27774479
N        5.72901821       8.05647899       9.45103990       3.04038401      -1.91100719      -0.50680953
N        3.41753201       0.79376573       3.01418352       2.76901423      -0.19278660      -0.08285805
N        7.98266442       3.68713632       9.51519422     -26.05705404      -2.00767261      -5.28778683
N        8.41185543       3.88698011       2.39875834      -3.49234221       0.34868779       1.94608233
N        4.01207414       0.59827589       8.89660774      -4.28162415       6.35019013      -5.51699361
H        5.11967318       0.91959881       3.78635009      19.34053047      19.10646209      30.75897751
H        0.74034788       3.51316456      10.38978889      -1.19226679      -0.40820221      -1.59219453
H        8.14481230       5.35071564       3.77338423      -6.34284906       5.11757167       6.95951239
H        3.84300505       8.03897981      10.18102576      -1.74732516      -1.98012066       2.53384705
H        6.22307703       8.03664923       2.70416877      -3.41409091      -0.03692452      -1.69382820
H        1.54629721       5.14223453       8.92713497       6.26693534       0.99130252       0.82012020
H        1.69610594       5.74367401       3.82254564       1.79290738       3.80292095       3.88569052
H        6.21136734       7.23949940       9.88973157      -1.46948376       0.55584572       0.62329993
H        4.76431066       7.54318313       1.73910480      -1.58635863      -0.16704772      -0.83240909
H        0.12192493       5.47341997       8.12815027       0.62180982      -0.91139084       0.92224299
H        2.04162632       4.71928858       2.55731499       0.32038874      -0.95032483      -1.15152391
H        6.34121941       8.21910022       8.65021013      -0.41061755       0.96360461      -0.28870718
H        2.69828058       0.33533364       2.31908710       2.11946590       0.83776542       1.63841850
H        7.28057652       3.84079123       8.65335543       1.55414153       0.57242431       1.75613759
H        0.00942481       3.26446178       1.64929719      -1.10800855       1.74801483       1.94993527
H        4.44739509       1.11607080       8.09764762       0.62161981      -0.60325278       0.74603515
H        3.10868221       1.40732767       3.70865535      -1.76748111       1.56466063       1.05398651
H        7.54474642       3.04910732      10.03424774      -2.40486815      -3.66058307       3.47853098
H        7.28286131       3.58017649       2.69173049       3.23586362       0.65638465      -1.71627871
H        2.96164983       0.81950829       8.77778785       1.33822667      -0.92569252       1.16737557
Pb       4.51510455       4.23301060      12.60263130       0.45910347      -0.37198360      -0.19949090
Pb       0.15285828       0.12861844       6.03121035      -0.02618283      -0.24045562       0.24071022
Pb       0.24558690       8.49231711      12.53658980      -0.79494223       0.20386757      -0.32923467
Pb       4.49521671       4.37523844       6.31418523      -0.05034077       0.30377032      -0.07635702
I        7.15267688       6.35980678       6.45196279      -0.18401084      -0.20114191      -0.05483370
I        8.82903847       0.11622862       2.88721463      -0.31066580      -0.07401412      -0.04028162
I        6.47052553       1.56257197      12.14526104      -0.12222936       0.33999760       0.13419613
I        1.80487221       2.43872276       0.06453437       0.04489023       0.29458199       0.04567428
I        1.81522683       2.68008241       5.78258761       0.17997430       0.13802268       0.14728946
I        2.51504247       6.89841667       5.78198964       0.26889983       0.40768874       0.48409460
I        7.25170843       6.03602012      12.27440911      -0.12892187      -0.09577927       0.02932412
I        6.26138265       1.82575930       6.53832694       0.28278493       0.09640380      -0.15851126
I        4.32521591       4.65804847       9.43482240      -0.07974519      -0.13646112      -0.23390303
I        0.51344654       0.12065683       9.24123068      -0.03761940      -0.01680629       0.08507615
I        2.64057533       6.77474029       0.21044903       0.38592722      -0.10548388      -0.15953263
I        4.68517796       4.40648536       2.88846316       0.61380875      -0.13746232       0.38050926
48
Lattice="9.01938999 0.0 0.0 0.0 8.77776784 0.0 0.0 0.0 12.79618681" Properties=species:S:1:pos:R:3:forces:R:3 config_id=O-FAPI3_al_global_rattle_03__global_rattle__sev-0.569__seed-new phase=O-FAPI3 mode=active_learning seed=873856251 source=O-FAPI3/CONTCAR energy=-211.27590147 stress="-0.0554308274175511 -0.007667555661788372 0.002283634371205025 -0.007667555661788372 -0.0037213015110799455 0.0007530332201437151 0.002283634371205025 0.0007530332201437151 -0.012404481785582677" pbc="T T T"
C        4.79660874       0.51916152       3.13741093      -6.98294881      -5.72446047      -6.15456981
C        8.90011776       4.09496361       9.56084910       4.87586235       2.33759068      -0.44985537
C        0.09915539       4.98552987       3.11782150     -35.42199443      -6.91404481       1.49041678
C        4.30624669       8.40878094       9.64014553       4.02767672       0.91381853      -5.46658494
N        5.32415755       8.17245350       2.44711973     -19.76451792       6.77717939       0.35977452
N        0.53964093       5.06496761       8.92797337       3.09384293      -0.44920224       1.78596517
N        1.15209981       5.04527399       3.05063167      26.79020925       9.31485596       4.99669470
N        5.58403846       8.05938865       9.32908610     -12.76209149      -7.72835629      10.44769424
N        3.25917551       0.87313396       3.08866539      16.08761236       3.34565051       5.38624432
N        7.80826747       3.50511921       9.47181886      -3.38456207       4.55450408      -7.13467320
N        8.37431348       3.97797185       2.40554902       1.60598569       2.16454553       0.56951157
N        3.77105837       0.42990891       8.63752168      -0.04487996      -4.21268304       4.35211581
H        5.19680223       0.88819617       3.94917670       3.01324230       2.49824531       3.86974030
H        0.56010863       3.71784578      10.19268462       2.13297171      -1.79098626       3.39443740
H        8.21835614       5.33977574       3.79213780       2.56998084       0.73940116      -0.30970090
H        3.76874183       7.84181298      10.42976879      -0.09299152       0.59309138      -0.42955790
H        6.10223786       7.88923882       2.42043252      15.21938195      -4.60313300       0.28681473
H        1.70156105       5.23319915       9.05859787      -3.42992278      -1.09872577       0.21985937
H        1.49786633       6.09342373       3.73065609       0.21765446      -2.66947536      -1.44493946
H        5.95726722       7.42209637      10.29657366      -1.07437902       1.15130145      -2.66118105
H        4.62226537       7.50643518       1.79547315       1.56322159       2.33608635       1.66245142
H        0.30307360       5.35217372       8.04724971      -1.45752696       1.38357124      -2.95791136
H        1.72928665       4.85340936       2.36794038       4.33155389      -1.91776216      -4.49827386
H        6.36851371       8.29481681       9.13330290      12.23286583       5.47340310      -4.81052023
H        2.76192031       0.37987800       2.61819426      -8.40431395      -7.42721686      -7.55347644
H        7.14617705       4.07811214       8.81029030       0.54788028      -1.81927614       1.25410662
H        8.85276894       3.36347114       1.81453294       1.29948015      -1.14011462      -1.31798900
H        4.28958210       1.07951938       8.15076600       1.73705561       1.78314698      -1.47387689
H        3.10702869       1.61712606       3.65984315      -1.33125735       2.50668822       1.84645487
H        7.39817854       3.01168576      10.13923751      -2.05593174      -3.16354543       3.99500538
H        7.46347730       3.63434840       2.59199714      -1.14041314       0.44773763       0.78636612
H        2.94665428       0.64456036       9.05764289      -3.99437693       2.01127156       0.22133453
Pb       4.76507235       4.33056812       0.02789837      -0.61432302      -0.42927004      -1.23108024
Pb       0.14109465       0.06504589       6.25882777      -0.39631167      -0.37812678      -0.22631574
Pb       8.88389097       8.60116995      12.41917570       0.73081740       0.46653472       0.88779369
Pb       4.41740562       4.18398378       6.07843660       0.60539040       0.67314724       0.57685969
I        7.24240709       6.33522148       6.42104413      -0.12171248      -0.12621610      -0.05942315
I        8.56804348       8.52566139       2.82720525       0.54990660       0.11845191       0.45309925
I        6.42911859       1.59051617      12.45873460      -0.24431673       0.19775194      -0.14953503
I        1.93525795       2.51737788      12.73293193       0.06786273      -0.05406000       0.02067665
I        1.91461058       2.65817091       5.91255937      -0.40651565       0.03760158       0.03802401
I        2.66396991       7.10758184       5.84971244      -0.00207656      -0.34264868      -0.32635009
I        7.18082883       6.15403185      12.15227194      -0.14949240      -0.27012677      -0.12227708
I        6.42012581       1.82708175       6.51599158      -0.15253915       0.09626019      -0.11395712
I        4.23881809       4.51547241       9.44056942      -0.23446882      -0.05492361      -0.38700301
I        0.13632925       0.07376099       9.46958170       0.23980004       0.04703653      -0.85316115
I        2.70263081       6.68733523       0.08036811       0.07479075       0.27134604       0.14323958
I        4.81473582       4.28536340       2.90621492       0.04881869       0.07413522       1.08753229
48
Lattice="9.01938999 0.0 0.0 0.0 8.77776784 0.0 0.0 0.0 12.79618681" Properties=species:S:1:pos:R:3:forces:R:3 config_id=O-FAPI3_al_global_rattle_04__global_rattle__sev-0.597__seed-parity phase=O-FAPI3 mode=active_learning seed=629855035 source=O-FAPI3/CONTCAR energy=-207.49493223 stress="-0.003802509673969648 0.011739092092486489 -0.030211627408363192 0.011739092092486489 -0.010270654543556799 0.0093568680664648 -0.030211627408363192 0.0093568680664648 -0.03984863540083433" pbc="T T T"
C        4.68766055       0.36917703       3.25608187      -6.51714329      -4.04742004      -7.56220143
C        0.12047515       3.93670485       9.73511691     -11.72033249      13.26141206     -21.40715459
C        8.94052399       4.66361111       3.21305354       5.08794505      -2.19259836      -5.55383220
C        4.42774130       8.69793325       9.40971897      18.80884815     -27.24003536      30.10715951
N        5.21961064       8.20022960       2.42283871       1.74138972       3.38772834       4.55141662
N        0.62576429       5.04205184       8.79929402       6.05577635      -5.67681549       7.12028736
N        1.20434986       5.16162830       3.10872418      -6.44071195     -10.46539419      -8.05343801
N        5.67926049       7.96904514       9.48827540      -9.74068021       8.25612289     -17.19259249
N        3.18575407       0.69855487       3.03289142      10.54473550       2.60890959       9.42195808
N        7.80214069       3.83380307       9.34481747       7.07886435      -8.73213823      12.12867914
N        8.26666859       3.78972560       2.46247733       9.11790840      -0.97926452      -2.17993563
N        3.92855567       0.47493342       8.70909114     -19.60327274      24.35033092     -26.68298333
H        5.35833743       1.00973428       3.66917272       1.54955283       1.85411200       2.33842731
H        0.44869111       3.57231460      10.43597558       6.83422364      -6.96625274      13.08697650
H        8.38484019       5.12695147       3.83140661      -3.90836955       3.45730005       4.90859172
H        3.86699067       7.94006429      10.30709533       0.29125730       2.53869130      -1.69883636
H        6.23986906       8.06892666       2.40249495       0.17835794       0.31048301       0.54157453
H        1.77764213       4.93649471       8.89115977      -3.25432139       1.18482094      -0.92919253
H        1.40245679       5.76422777       3.68008416       3.44004137       8.71925421       8.13351513
H        6.18263391       7.77754313      10.09195099       9.29822437      -5.15322175      16.21560085
H        4.84742416       7.75221391       1.67228695      -2.64196697      -1.68232013      -2.61264128
H        0.12397440       5.47364065       8.07184923      -1.15283192       0.33017643      -1.45027279
H        1.83272255       4.76978568       2.42937795       0.56300074       0.08855215      -0.11886558
H        6.47501592       8.50104441       9.02954605      -1.05794198      -0.28698694      -1.14760127
H        2.74144169       0.43539563       2.26550064      -2.84579589      -1.29597370      -4.19902671
H        7.19406893       4.08205634       8.74941154      -5.03552117       3.19368376      -6.44527687
H        8.88752245       3.17573935       1.64958779      -2.60655679       1.96003116       2.46820646
H        4.43748883       1.06954529       7.89606583      -1.09188091      -1.28360419       1.19455268
H        3.19870095       1.43366992       3.88228668      -2.24425288      -1.27695299      -2.78070969
H        7.24412032       2.82165859      10.08563595       1.34220163       3.20990708      -1.92341158
H        7.34341903       3.85406041       2.61160102      -4.90115452      -0.60161547       0.13117794
H        2.74922191       0.83578236       8.89448652       2.70524137      -1.29316684      -0.80160934
Pb       4.31420170       4.23440249      12.60429878       1.01550517       0.38738942      -0.12741705
Pb       8.93778444       0.04554099       6.21797172       0.83295652      -0.04537153      -0.14368795
Pb       8.92023037       8.74196622      12.57240044      -0.03467764      -0.52774529       0.00050508
Pb       4.41769027       4.33922423       6.21687829      -0.23281858       0.46280163      -0.05868125
I        7.29118359       6.40330080       6.47766470      -0.52076396      -0.71646340      -0.14082722
I        8.67374216       8.65051417       2.88991796       0.07812930       0.05174843       0.16364655
I        6.39720240       1.74801584      12.32589534       0.19393254      -0.06876638      -0.32008433
I        1.98442427       2.51972839      12.57519500      -0.76061383      -0.45686699       0.32749949
I        1.79492589       2.69874588       5.76608475       0.36340835       0.16420001       0.17786470
I        2.75448869       7.15019632       5.83706801       0.18601217      -0.32600314       0.15518380
I        7.44837650       6.06575279      12.20015322      -0.06643005       0.12455724       0.21680703
I        6.50152860       1.78875346       6.14568337      -0.64657850       0.51843717       0.30173596
I        4.33648645       4.48660953       9.47578478      -0.24531625      -0.14127947      -0.73946742
I        0.34316136       8.72893492       9.38812962       0.49680692       0.34254643      -0.20719414
I        2.87439571       6.84624118      12.62689326      -0.34999161       0.59173948       0.12149671
I        4.89712560       4.23889434       2.82618847      -0.18439461       0.10132145       0.66407788
48
Lattice="9.01938999 0.0 0.0 0.0 8.77776784 0.0 0.0 0.0 12.79618681" Properties=species:S:1:pos:R:3:forces:R:3 config_id=O-FAPI3_al_global_rattle_05__global_rattle__sev-0.625__seed-new phase=O-FAPI3 mode=active_learning seed=2359263512 source=O-FAPI3/CONTCAR energy=-213.40575198 stress="-0.017428016753894205 -0.0027261281205183843 -0.007898399455910973 -0.0027261281205183843 -0.004066444813523021 -0.00445810797465857 -0.007898399455910973 -0.00445810797465857 -0.008101798273350514" pbc="T T T"
C        4.51003530       0.48386831       3.36365519      -0.33595188      -8.98780558     -10.76681071
C        0.01611070       4.00806933       9.63999940       8.04516622       6.28966763      -3.86429398
C        8.75311730       4.78650601       2.98108042       9.75075393       6.59533746       4.41339918
C        4.41910009       8.51870519       9.64131446      -5.27454929       0.55337035      -0.55870219
N        5.10593458       8.08643708       2.35435134       3.20020646       3.95713745       4.49441225
N        0.75342590       5.12579798       8.81761176       5.93085162      -8.97973389      11.75724615
N        1.07977350       5.25009398       3.17576532      -5.39969831     -12.82031907     -15.58573949
N        5.60405339       8.22067601       9.61102679       8.69818974      -3.46661492       0.05881402
N        3.33842601       0.82371899       3.02848607      -3.37328963      -1.55046624      -1.11258306
N        7.92590621       3.62854200       9.25108208      -6.22731628      -3.67310576       3.84801685
N        8.16536506       3.95432534       2.41024074       0.31051547      -9.65766857      -9.05503660
N        3.88518125       0.59918483       8.78762735      -4.69079044      -3.49248699       5.42928166
H        5.22174887       0.83341579       3.92285047       3.73771705       2.32199178       3.78680150
H        0.80558810       3.58209470      10.28240829      -1.20436654      -0.42331084       0.52698756
H        8.50685693       5.15087817       3.82567597      -4.48759187       2.98008049       5.91577301
H        3.84308090       7.87642608      10.27640265      -1.16921126       0.24683315       0.71173133
H        6.22391439       8.10222556       2.37917966      -2.93478622      -0.12284788       0.18642932
H        1.76570271       5.28902830       9.09349499      -1.64830314       0.11047712      -0.82964661
H        1.47539470       5.75663491       3.71765223       5.19165816       8.79468681       9.57549320
H        6.12380115       7.35860125      10.15548125      -1.83868466       2.39880329      -1.04628840
H        4.77546043       7.51463142       1.57826748      -1.11626120       0.53057865       0.06741277
H        0.17400180       5.43521333       8.27190532      -7.26385962       5.43988931      -8.36727664
H        1.80007010       4.82059789       2.41854598      -1.72507557       1.36705395       2.17000249
H        6.20487654       8.60102029       8.85408473      -0.04018611      -0.02335275       0.51255966
H        2.47044772       0.19068173       2.37272910       3.02528091       2.02008294       2.20669972
H        7.12979315       4.01374020       8.67878798       1.38516352       0.14496519       0.19475433
H        8.94454601       3.20447890       1.56342774      -1.99028536       2.09548964       1.88446058
H        4.38645252       1.04252250       8.20064553       5.08178650       4.07432143      -5.56325377
H        3.05295690       1.31387227       3.83810721      -2.32995491       1.76854099       1.09461257
H        7.46450984       3.05215979      10.22497836       0.73470480       0.93647978      -3.01375437
H        7.24828160       3.53679703       2.50387120      -0.74892658       0.37221181       0.45218610
H        2.93148412       0.92285835       8.81408129      -0.59820076      -0.34119753       0.45701635
Pb       4.41624825       4.23218848      12.51781792       0.45541736       0.39122900       0.22235959
Pb       0.20906215       0.00617946       6.10748650      -0.70409981       0.25008053       0.19565551
Pb       9.00174788       8.74379823      12.45226331       0.00607963      -0.40424914       0.34334011
Pb       4.46303264       4.70668494       6.12077240       0.41348034      -0.69246709      -0.08907260
I        7.14314934       6.24877091       6.52388248      -0.08258328      -0.13867914       0.01479508
I        8.66602815       0.02216176       3.07627753       0.24285891       0.05319536      -0.24776833
I        6.44199260       1.73135054      12.40628700       0.01925156       0.23604362      -0.29462731
I        1.91821329       2.59006386       0.14936541      -0.69858396      -0.26956716       0.19711037
I        1.89783903       2.53354872       5.89988244       0.19884994       0.30282439       0.07407487
I        2.74451875       7.06755838       5.76544251       0.19574368       0.16436701       0.03747312
I        7.20473093       6.10395038      12.44331136      -0.03365709       0.17096958      -0.32925743
I        6.45685241       1.62937816       6.31974517      -0.02347763       0.27257415       0.20592145
I        4.16386173       4.55973711       9.46226702       0.16436462      -0.02533902      -0.59842877
I        0.45060854       0.06465309       9.51181321      -0.07148314       0.03860904      -0.39390001
I        2.61480423       6.82942508       0.05046343      -0.07473132       0.13647280       0.00144041
I        5.02724951       4.29463659       2.78658798      -0.70213456       0.05484686       0.68017917
48
Lattice="9.01938999 0.0 0.0 0.0 8.77776784 0.0 0.0 0.0 12.79618681" Properties=species:S:1:pos:R:3:forces:R:3 config_id=O-FAPI3_al_global_rattle_06__global_rattle__sev-0.653__seed-new phase=O-FAPI3 mode=active_learning seed=253799826 source=O-FAPI3/CONTCAR energy=-202.71153805 stress="-0.05385506226954925 -0.009243844753273785 -0.029989110530154107 -0.009243844753273785 -0.021421253408917554 -0.010694091386407029 -0.029989110530154107 -0.010694091386407029 -0.020947803596860475" pbc="T T T"
C        4.72521305       0.17352646       3.12250350      -0.57077567       2.39659265       0.46517337
C        0.06198639       4.00651575       9.46866102       4.25506576      -4.88891531       5.54010566
C        8.77475581       4.69577417       3.07902602      15.32759230       7.79081211      -2.14874423
C        4.20170105       8.42903643       9.69886787      13.53562444      -4.18362555       0.49577435
N        5.24091435       8.02204539       2.26548912       5.80657739       7.62297965      11.29152437
N        0.72493717       4.83713538       8.67048108     -29.43576009     -18.85694271     -12.12905279
N        1.13941864       5.38550203       2.89437628       0.13311042      -5.70160009      -2.96784074
N        5.63831607       8.03234005       9.63318709      -2.95542931       4.47412544      -5.86799231
N        3.48630531       0.54692735       3.01035336       2.28814669       5.77297442       6.56213784
N        7.88736022       3.41989612       9.57770360       1.02293470       7.15981989      -6.40350947
N        8.40365500       3.75712673       2.56489276      -4.65680620     -12.52932205     -11.07050400
N        3.79702744       0.49192402       8.97139493      38.81822272       3.33722789      -4.87538062
H        5.27377361       0.88793424       3.93095992      -0.36582054      -2.23929725      -1.63236477
H        0.98583168       3.53019483      10.27716991      -2.72652973       1.14141463      -1.93198797
H        8.52437728       5.15485117       3.77688884      -5.99625888       7.08808562      11.08929763
H        3.85779585       7.77826360      10.30826209      -4.03281272      -3.64107742       4.49190835
H        6.03491091       7.96478108       2.72440990       6.16002373      -2.68590229       0.64856429
H        1.29913057       5.16798832       8.95885543      30.83102189      15.89132772      15.32290973
H        1.70470115       5.74303376       3.68254205      -1.02677014      -0.00021607       0.46816055
H        6.12524533       7.46326235      10.23292415       0.93151090      -1.97419049       2.17666432
H        4.61224086       7.85114225       1.75287874     -10.37702690      -5.21974080     -10.83966872
H        0.25220172       5.49759298       8.22833188      -3.49891463       3.53991529      -3.70700407
H        1.92295469       4.54261783       2.39337754      -2.76882048       3.08868001       1.50128584
H        6.25776922       8.31786661       8.66219977      -2.21061691      -0.78990447       3.53615915
H        2.81161327       0.37396293       2.44837107      -5.21716639      -3.02636790      -5.74758607
H        7.41963892       4.20402703       8.83117252      -0.68120270      -3.04731166       1.97620756
H        8.88097140       3.35013973       1.57584119      -0.49184333       0.76144828       2.66827495
H        4.26679308       1.12463439       7.92246910      -0.20592818      -2.04791718       3.15695244
H        2.97122608       1.46850976       3.52443518       2.55670360      -2.56805811      -0.55389886
H        7.28429413       2.84684095      10.13074993       0.06194841      -0.72105104       1.28019788
H        7.39697256       3.57665845       2.50802728      -0.56739365      -0.48584086       0.57379433
H        3.10002874       0.56006574       8.91373774     -43.74176728       4.98954691      -3.51502478
Pb       4.46964575       4.14577995      12.63286703      -0.10914011       0.53117030       0.04293104
Pb       0.02919225       0.15822111       6.15110192       0.06235975      -0.30410731       0.25224872
Pb       0.13918290       8.69692258      12.71977950      -0.06628014      -0.13465184      -0.53848448
Pb       4.38262902       4.43776169       6.31198454       0.32224440       0.50969769      -0.00181625
I        7.07648585       6.11036720       6.37637021       0.31843846       0.26405350       0.10369562
I        8.91564924       0.15626033       2.90454195      -0.30558616       0.01232451       0.68038122
I        6.31002486       1.82076703      12.51187102       0.18370026      -0.18761000      -0.08984856
I        1.79484174       2.53040865       0.18231713       0.36187478       0.64966636      -0.06514204
I        1.97225982       2.66987992       5.93633865      -0.62715470      -0.48866451      -0.10145332
I        2.70604663       7.14499558       5.86928420      -0.12500106       0.02142971       0.12131661
I        7.49285264       6.29672325      12.36273492      -0.62214882      -0.87676205       0.08247814
I        6.25079272       1.83866349       6.28394643      -0.15890246      -0.28108941       0.38447106
I        4.11344965       4.50410599       9.39086865       0.09399973      -0.13587253       0.66751748
I        0.11587932       8.59481739       9.40334339       0.28391775       0.09969432      -0.37832475
I        2.72709536       7.07353990       0.10325077       0.09288549      -0.18296564      -0.16198966
I        4.79180338       4.13475095       3.26332656       0.09395362       0.05601766      -0.85251404
48
Lattice="9.01938999 0.0 0.0 0.0 8.77776784 0.0 0.0 0.0 12.79618681" Properties=species:S:1:pos:R:3:forces:R:3 config_id=O-FAPI3_al_global_rattle_07__global_rattle__sev-0.681__seed-new phase=O-FAPI3 mode=active_learning seed=1840468762 source=O-FAPI3/CONTCAR energy=-204.42927025 stress="-0.03401195967570069 0.022899872213639035 -0.012961429470635303 0.022899872213639035 -0.017237930644756042 0.014477956205863018 -0.012961429470635303 0.014477956205863018 -0.023252971261930926" pbc="T T T"
C        4.38892996       0.48130423       3.15356278      49.03084149     -12.90578879      -1.53546465
C        0.27598224       4.05697027       9.58115511     -10.29265766       2.04063630      -5.42395269
C        8.99179688       4.66025160       3.02769872       1.74720219       8.24093160       7.06068892
C        4.25311455       8.42340856       9.55669200      13.69410402     -21.48076039      16.44877083
N        5.39324779       8.27011757       2.29576528     -13.67742021       3.48846728      -2.08526646
N        0.59068932       5.07159333       8.74347757       7.49080368      -6.12322961      15.35073180
N        1.39389071       5.21438875       3.02490596     -10.03339887      -3.37499307      -2.24973505
N        5.65710941       8.01532662       9.58327250       1.39535386      -1.57334246      -0.94166999
N        3.41982014       0.70829055       3.20043343     -45.80831604       9.24228894      -3.82853446
N        7.88997386       3.60234615       9.59584001      11.78246217       7.87297303      -4.28434854
N        8.18800039       3.85414107       2.49886201       6.31052595      -2.60431882      -4.96765045
N        3.98294972       0.46886508       8.93390338     -13.17506835      24.83438513     -19.08938470
H        5.14362399       0.79977763       3.80314393       0.99932779       1.25170275       1.63275731
H        0.89222421       3.77247606      10.26480521       3.88628405      -2.05147933       4.42874532
H        8.40750916       5.50570574       3.99985447       1.23072737      -2.56831061      -2.52814634
H        3.90384895       7.94436838      10.51924152      -1.30525545       0.18627357      -1.05429944
H        6.20938443       7.84767767       2.39590978       4.74627440      -2.21677510       1.75802648
H        1.54529200       5.31605241       8.93532542       0.82068589       0.73057727      -0.61325041
H        1.66052968       5.77038116       3.73478747       1.10016130       2.34280331       3.26697697
H        5.92598599       6.97218275      10.11124150      -0.74952895       3.67627574      -1.76379073
H        4.47729392       7.73046603       1.84141274       3.74802909       0.60613874       0.54227230
H        0.20824924       5.25169303       8.02969488      -7.49424262       3.66315832     -13.34300874
H        1.85717051       4.64943625       2.46865239       4.30625133      -2.82668703      -3.17139407
H        6.41479490       8.45226416       8.75786662      -2.88835615      -1.79241996       2.87520330
H        2.66899299       0.38285718       2.21447840       1.20390747       0.39936964       2.69620928
H        7.28045836       3.95815113       8.95925301      -1.71554394       2.09933495      -2.90502936
H        8.70381335       3.28343387       1.70554692      -0.94999442       0.62434465       1.09763478
H        4.36184843       1.37205710       8.03132242       0.32978768      -3.25030237       2.53082156
H        2.92559058       1.47697803       3.70161784      -0.21071096      -0.08607549       0.58646567
H        7.43527926       3.00418604      10.02629542      -4.17548767      -8.21106181       6.63586035
H        7.29274503       3.50685361       2.52356927      -3.51088172       0.01118284       1.26230032
H        2.82700116       0.69984450       8.82533925       2.77452324      -0.51896408       0.88603793
Pb       4.62203231       4.09329864      12.43082074      -0.23316822       0.68084823       0.43337444
Pb       8.96638060       0.12302665       6.50559315       0.62778282      -0.67226901      -0.68573984
Pb       0.12594956       8.54283071      12.51776008      -0.26805411       0.09296418       0.62334226
Pb       4.44743324       4.46130489       6.09312163       0.08623411       0.30775480      -0.18633183
I        7.26194787       6.16003277       6.28424509      -0.09050751      -0.05554466       0.02540619
I        8.93733429       8.65565101       2.79772783       0.02210181       0.15810749       0.25127626
I        6.38196315       1.83958253      12.19291404       0.40609728      -0.74749251       0.13183212
I        1.86992888       2.72615595       0.11653103      -0.32255384      -0.34206280       0.03557592
I        1.94688187       2.48681580       5.60536848      -0.03409526       0.30516613       0.38106944
I        2.70382308       7.05549149       5.82887474       0.19129966      -0.24802185       0.19737336
I        7.08977511       6.18199993      12.24939807       0.20719024      -0.05308447       0.09601261
I        6.46883070       1.57066428       6.43214111      -1.04783945       0.74130907       0.08529651
I        4.30152098       4.35587425       9.38539828      -0.27683161      -0.05415142      -0.60080653
I        0.44535376       8.67898670       9.45256482       0.22892236       0.14998017      -0.34376063
I        2.71895924       6.98007405       0.02222314       0.04432077       0.02249753      -0.05534408
I        4.88296759       4.25527945       2.89069238      -0.15128903      -0.01233603       0.33684675
48
Lattice="9.01938999 0.0 0.0 0.0 8.77776784 0.0 0.0 0.0 12.79618681" Properties=species:S:1:pos:R:3:forces:R:3 config_id=O-FAPI3_al_global_rattle_08__global_rattle__sev-0.708__seed-new phase=O-FAPI3 mode=active_learning seed=3526456493 source=O-FAPI3/CONTCAR energy=-209.05664905 stress="-0.07357452898740988 -0.016855752811144754 0.012860733275281108 -0.016855752811144754 -0.004950104755641682 -0.00197732791682988 0.012860733275281108 -0.00197732791682988 -0.005402910788747917" pbc="T T T"
C        4.47403476       0.40373791       3.17903692      11.29782540      -5.39836448       0.85980429
C        8.99555670       4.06995680       9.55615341      23.42980682       3.73573397       5.67217641
C        0.00277761       4.90289710       3.14920159     -11.12354603      -3.65715004      -0.51846273
C        4.44025633       8.26535537       9.68401508      19.96886511      16.09341368     -24.45931954
N        5.08570336       8.10881459       2.61236918      -9.19484403       2.13514481       0.29519481
N        0.66823326       5.00342940       9.07100160      -5.25427084       6.52190100      -4.85747400
N        1.19073211       5.00051668       3.18844289       5.62788441       2.43060585       2.86653658
N        5.75945622       8.24884369       9.41352430      -6.41025198      -9.12875224      11.08904503
N        3.29885993       0.59754295       2.99122690      -3.41080230       5.80833708       4.41212235
N        7.97682553       3.74602276       9.33416362     -27.23294005      -9.49856384      -1.18815840
N        8.37661631       4.03922294       2.29209150       9.68517303       1.81094749      -1.99811013
N        3.90616206       0.59755076       8.51164137       3.72661629      -6.47152610       3.76155867
H        5.30209603       0.72348575       3.94006646      -2.37874686       1.03974809      -0.63702220
H        0.78799416       3.59113185      10.20491663      -1.75428559      -0.90091543       0.51708561
H        8.37522840       5.34447588       3.98246406       0.66666661      -0.37839335      -1.16071587
H        3.89165519       7.98324028      10.18510147     -16.93748218      -9.68126827      16.48778941
H        5.93887001       7.94039609       2.51703132      10.05868338      -0.98641415       0.13314635
H        1.44390639       5.18853646       8.58255835       4.68084915      -0.22651014      -1.11713731
H        1.57543606       5.73240468       3.71367172       0.80866379       1.44649280       1.91356550
H        6.09911147       7.15838370      10.10654735       0.28454152       3.43397507      -1.96813434
H        4.65920040       7.63841709       1.84654312      -1.42311349      -0.64031672      -0.86305185
H        8.96060314       5.56445780       8.06531038       1.54024375      -1.18086924       2.87485949
H        1.76519113       4.89774139       2.47302113       3.46971522      -1.77292632      -4.67834940
H        6.31317704       8.53204239       8.75275915       3.71248979       2.48577556      -5.25965485
H        2.79473330       0.20844056       2.29590335      -2.77276361      -1.48714226      -2.87265810
H        7.07886616       4.08661674       8.73183956       2.87172259      -0.35686838       1.21649663
H        8.89008495       3.37644213       1.55975600      -0.70881560       1.97181077       1.85091912
H        4.66319275       1.08898419       8.04782592      -0.15115165       0.62474169      -0.02855474
H        3.12430894       1.38122662       3.67399061      -2.05762396      -0.31993245      -1.15084375
H        7.46107490       3.04544208      10.22125288       1.52274796       1.69771733      -2.94852316
H        7.53731769       3.78781240       2.44495820      -8.18434959      -1.86803305       1.59816666
H        3.07279676       0.78159755       8.88462693      -4.53017082       2.34158706       0.93389510
Pb       4.68568070       4.21258447      12.37207294      -0.38351349       0.38238144       0.77529717
Pb       8.95603734       8.63659605       6.17517219       0.77604995       1.12323714       0.25858087
Pb       8.81817985       0.04525633      12.71272483       1.07819550      -0.35302052      -0.66193589
Pb       4.50292639       4.50941593       6.31763162      -0.03046820      -0.14325635      -0.95680487
I        7.30343661       6.32196907       6.44625992      -0.43712302      -0.78610677       0.08872860
I        8.75489557       8.75834009       2.89801666      -0.09394687      -0.00682974       0.76692289
I        6.30773348       1.52123334      12.36452677      -0.57379513       0.59403481      -0.20173859
I        1.96150266       2.54032648      12.63071369      -0.03441761       0.07120064       0.12288671
I        2.01053216       2.88624865       5.97102246      -0.25339289      -0.39933350      -0.02667695
I        2.73566910       7.03722197       6.01332064      -0.18724065       0.18235513      -0.10806426
I        7.27750812       6.17461501      12.37641110      -0.36001877      -0.26784958      -0.38307378
I        6.29551906       1.76130178       6.43171142       0.45297986       0.08321448      -0.20003776
I        4.24508630       4.41092656       9.29954584       0.15038773       0.08600274       0.47171408
I        0.24303684       0.02045474       9.49642913       0.13414555       0.07163030      -0.41891096
I        2.75291751       6.97322257       0.15600970      -0.05774449      -0.22294314      -0.17048489
I        4.84229916       4.27133714       2.97610450      -0.00743373      -0.03870284      -0.13259401
48
Lattice="9.01938999 0.0 0.0 0.0 8.77776784 0.0 0.0 0.0 12.79618681" Properties=species:S:1:pos:R:3:forces:R:3 config_id=O-FAPI3_al_global_rattle_09__global_rattle__sev-0.736__seed-new phase=O-FAPI3 mode=active_learning seed=3701382083 source=O-FAPI3/CONTCAR energy=-197.0595024 stress="-0.03453348180325663 -0.010758651322344898 0.002145018480099894 -0.010758651322344898 -0.04414398797973023 0.01412762017379701 0.002145018480099894 0.01412762017379701 -0.005152830320216341" pbc="T T T"
C        4.80005856       0.23640750       2.90782097     -10.86627171      14.37849275       7.35547033
C        0.09259928       3.91744686       9.70770633       3.49857217       5.55714963      -2.85610442
C        8.84504780       4.74065139       3.31512949      -0.29745600      -5.00796577      -7.91989978
C        4.26833260       8.52854981       9.75448842      17.88138219       3.07748012      -8.42132585
N        5.30101965       8.10088142       2.54960874       2.91206965     -15.33721699     -12.39007110
N        0.59302291       5.04411251       8.86166455       6.03330083      -7.54929416      13.66591793
N        1.03181434       4.98101028       2.96810419       5.92639665       5.08758476       2.12258929
N        5.65772165       8.27906695       9.29861415      -5.48386376      -8.65580089      10.00630190
N        2.74285783       0.80497661       3.25995207       2.91947857      -6.85819242      -5.75623161
N        7.90494623       3.62615295       9.84899913      12.12613722      28.25239555     -13.06376860
N        8.16404200       3.88267804       2.34320587      36.16965442      17.18840463      -5.76554397
N        3.93846402       0.66520663       9.10579277     -10.33864500      10.52358489      -8.40767136
H        5.22548948       0.58812054       3.74919291       1.24398778       2.79746979       3.10067592
H        0.63698991       3.57246575      10.50597277       2.65438487      -0.92874473       1.56849762
H        8.33710949       5.10653991       4.10885354      -1.46574940       1.36909670       2.75985010
H        3.90474494       7.94082839      10.25138969      -7.29738265     -10.96624938      10.35458838
H        6.20714293       7.78414453       2.72127509       2.58983054      -1.12968702       0.43601041
H        1.55424455       5.33802598       8.79467805       0.59956473      -0.48639846       0.46602233
H        1.57025433       6.01207595       3.90572828      -0.93333548      -2.41673428      -1.80717050
H        6.08582447       7.29020233      10.08794003      -1.00968439       3.30404756      -2.79945213
H        4.73946738       7.64124256       1.45630894       1.66782067       0.18139605       2.68096606
H        0.08691138       5.22874303       8.22295223      -9.00869486       3.55128610     -11.29826287
H        1.94678112       4.97265306       2.16451531      -3.87793035      -0.64514137       2.20834314
H        6.36925032       8.56558611       8.77976589       3.35486198       2.67489214      -3.20900508
H        2.72887029       0.19111922       2.23408920      -0.75800657       3.35326286       3.51861678
H        7.21082570       3.95181911       8.88616119       1.91456830      -0.07245137       2.88470992
H        8.96527491       3.26786615       1.71513421      -2.77132168       2.13446814       1.82977648
H        4.28856778       0.88309716       8.13739897       1.01290008       0.19721761       1.14748206
H        2.80339868       1.55049324       3.91243936       0.26252936       2.13502529       0.12835395
H        7.49256132       3.03115854       9.97898344     -17.70620728     -28.28905402       8.17853287
H        7.53983410       3.53685013       2.46955849     -31.93106934     -17.44765480       6.78719500
H        2.85671698       0.88067740       8.91890689       1.87536645      -0.36001642       1.43136180
Pb       4.34598324       4.31373192      12.51637144       0.97392264      -0.54161310       0.04932443
Pb       0.15406787       8.77620979       6.31176943      -0.09951682       0.08396758      -0.20248935
Pb       8.98320636       8.68073822      12.66294651      -0.45155439      -0.07640793      -0.54496548
Pb       4.56238808       4.28653646       6.09726683       0.45464591       0.55102343      -0.08633930
I        7.21441794       6.38864394       6.44491785       0.07095747      -0.01884915      -0.06520045
I        8.73981632       0.04908993       2.77381687      -0.17880199      -0.02813793       0.89452200
I        6.39376268       1.71267075      12.12884238      -0.11914796      -0.27379212       0.37230654
I        1.79929669       2.63867110       0.08363690      -0.21489067      -0.36930960      -0.08178169
I        2.07636468       2.88992487       5.59762576      -0.95148495      -0.31884682       0.65706620
I        2.69755055       7.08819544       5.71158732      -0.17129454      -0.28832531      -0.13998312
I        7.28075168       5.84973482      12.29455261      -0.14828961       0.69878944      -0.03217634
I        6.18339487       1.67951019       6.31606179       0.15582018      -0.10123281       0.11853052
I        4.22681148       4.56252678       9.34258032       0.01025906      -0.02721637      -0.19434455
I        0.19419071       0.06581237       9.39339538       0.36756366       0.09694369      -0.33361144
I        2.55895806       6.68863671      12.75332432       0.01883859       0.78509489       0.42426720
I        5.05045947       4.25715227       2.86773513      -0.61421459       0.21525962       0.22811983
48
Lattice="9.01938999 0.0 0.0 0.0 8.77776784 0.0 0.0 0.0 12.79618681" Properties=species:S:1:pos:R:3:forces:R:3 config_id=O-FAPI3_al_global_rattle_10__global_rattle__sev-0.764__seed-parity phase=O-FAPI3 mode=active_learning seed=1508704073 source=O-FAPI3/CONTCAR energy=-210.63391106 stress="-0.020452433336368404 0.00789183348817469 0.01418287336426973 0.00789183348817469 -0.014262038375388583 -0.013829341823085978 0.01418287336426973 -0.013829341823085978 -0.03518565988801626" pbc="T T T"
C        4.74880949       0.28595229       3.18483961      -8.90503115       5.08016191       2.47838046
C        0.12584484       4.06328395       9.47328646      -3.81112997      -4.83867030       4.44236398
C        8.96370698       4.67105571       3.36935538       7.49133248       3.08771107      -1.95904758
C        4.45582966       8.13732847       9.60844656      -7.25403328       7.59332954      -2.51540271
N        5.11213072       8.27258834       2.27708515       1.66716263      -0.42265178       0.50707969
N        0.66018462       4.94516539       8.77390332      -8.38354101       1.06891299      -2.46917611
N        1.33215912       5.07426854       3.05174225     -23.58812957      13.64197701      36.33054563
N        5.68400694       8.06940654       9.63977687      -2.32180243      -1.44103121       4.62385953
N        3.35436165       0.61440311       3.08924531      15.04540905     -10.27274764      -2.14372565
N        7.81404367       3.53147323       9.36291768       3.98062077       1.26626109       1.04904094
N        8.20170373       4.03614317       2.63944936       3.62442604      -5.23445019      -7.16841696
N        3.78534905       0.56597502       8.96495845       1.23615325      -0.17970728      -1.57888648
H        4.96388207       0.99227302       4.14127447       1.69577214      -2.10896814      -1.96902490
H        0.85173662       3.78155543      10.32893189      -1.59978507      -0.57778591      -0.97057916
H        8.36940125       5.26271167       3.89734076      -1.27763437       2.93798780       4.25461649
H        3.78446930       7.78747912      10.28707902      -1.58958387      -1.82555196       2.04716714
H        6.04080157       8.07971576       2.45479220       3.11280569      -1.61292312      -0.74731163
H        1.53005951       5.02564980       8.78147354      10.21130961       1.38028465       0.34215276
H        1.73624637       5.94920352       3.62450238      -1.23341819      -2.65553296      -1.29980644
H        6.17685077       7.44267839      10.12048342       2.41779122      -3.69171632       2.96152014
H        4.52332663       7.85142700       1.56270130      -0.42237637      -0.20201125      -0.47995041
H        0.18372164       5.37226436       8.01850717      -0.68504889       0.76349089      -1.30379620
H        1.68427493       4.86032756       2.47200230      20.04842417     -12.74702877     -33.44624871
H        6.05138438       8.35700018       8.91351445       5.78768870       4.40136193      -9.17026276
H        2.71158598       0.36859155       2.52246150      -4.67260098      -4.18197363      -6.65780366
H        7.28787266       3.99720377       8.61135271      -0.41408957      -0.64870610       0.52422213
H        8.83600045       3.52130471       1.65651910      -2.26599103       1.00765445       2.61647471
H        4.29686544       1.13864002       8.06382167      -1.19795440      -2.07659760       3.05244094
H        2.91637700       1.21785542       3.42157175      -7.35172558      13.75785621       9.20504414
H        7.39738808       2.84767379      10.10082617       0.86276880       1.60474644      -1.52209047
H        7.24967528       3.84601865       2.77788568      -2.14491401      -0.23882665       0.38041792
H        2.67036656       0.97172242       9.04796449       3.18968653      -2.47838326       0.02732167
Pb       4.57200942       4.20223338      12.51514288      -0.45875357       0.55219010      -0.16855732
Pb       0.04189471       0.00208490       5.99862448       0.39374111       0.11851912       0.72065245
Pb       0.07579048       8.60016042      12.62496052       0.06353648       0.14292224      -0.28608120
Pb       4.65859060       4.38382380       6.13961683      -0.76435132       0.07064284      -0.13689829
I        6.98717179       6.27985712       6.16018069       0.28641213       0.21689990       0.28226852
I        8.62537054       8.73475142       3.06150267      -0.08197019      -0.01297387      -0.75613263
I        6.16446507       1.80787301      12.47873952       0.65246519      -0.73078919      -0.20587795
I        1.65844006       2.59737328       0.15431472      -0.17774596       0.25799296       0.12384578
I        1.91866732       2.48680123       5.84891779      -0.04280359       0.09830483       0.12842910
I        2.64638418       6.91990149       6.10344790      -0.17785006       0.07212068      -0.17844391
I        7.07152952       6.26796298      12.11316833       0.12244035      -0.38479256       0.34791521
I        6.44576153       1.97442984       6.47458850       0.13789595      -0.52108873      -0.10882141
I        4.37940594       4.49333295       9.28392298      -0.27292795      -0.01107606      -0.10953133
I        0.47819732       8.66870794       9.29186237      -0.40200296       0.06403771       0.41747196
I        2.81588765       7.15724478       0.01393121      -0.31605030      -0.14309446      -0.02819876
I        4.87572682       4.45023393       2.73291348      -0.21459668       0.05371261       0.51684136
48
Lattice="9.01938999 0.0 0.0 0.0 8.77776784 0.0 0.0 0.0 12.79618681" Properties=species:S:1:pos:R:3:forces:R:3 config_id=O-FAPI3_al_global_rattle_11__global_rattle__sev-0.792__seed-new phase=O-FAPI3 mode=active_learning seed=953190752 source=O-FAPI3/CONTCAR energy=-205.48629926 stress="-0.03114388504501139 -0.015481689432975655 -0.008201341599554067 -0.015481689432975655 -0.01814136405603454 0.006273062238906939 -0.008201341599554067 0.006273062238906939 -0.009680192313788631" pbc="T T T"
C        4.46201561       0.41010653       3.20620630       0.86821867      -3.08622304      -4.49452242
C        0.05801614       4.07586266       9.91075392       0.41126374       3.65899410      -7.00673406
C        8.98239976       4.61152612       3.23792753      -0.59910356       2.25245746      -2.66112860
C        4.28199012       8.41954617       9.47953099       7.85056559      -2.64514670      -0.13994222
N        5.21584748       8.17120846       2.16467219      -8.64162540       6.69645864       6.72410015
N        0.71742122       5.03498618       8.94234694     -13.11667313      -3.74557895       1.95044960
N        1.18952973       5.08423367       3.08025343       4.86796910       1.19778593       1.27950465
N        5.64417308       8.04077372       9.36003508     -11.66179198      -8.00651819      11.16504027
N        3.11375562       0.70334849       2.90346464      30.73470698      16.64730908      23.33291707
N        7.84281706       3.68355121       9.66298980      10.71116489      13.47222043     -16.19116812
N        8.52236270       3.80713920       2.26404149      -5.63511095       1.45444501       5.18243956
N        3.65261240       0.62039077       9.13382947      14.79260469       3.14202409      -4.83463411
H        5.34411457       0.89288833       4.22604626      -2.66435196      -0.78673041      -2.35501064
H        0.39526692       3.20147945      10.31538112       3.16943907      -1.27574561       2.68068464
H        8.09573005       5.33775896       3.78439074       2.62478167      -2.40349784      -0.74366117
H        3.80094339       7.93619031      10.14540988      -3.15896862      -4.65663494       4.88992827
H        6.03696463       8.29995663       2.43510962       9.83035665       0.12853112       1.82518606
H        1.58195582       5.17631316       8.76414238       8.14759734       0.59790323      -0.63194952
H        1.81805224       5.72776642       3.79821727      -2.60981417      -1.32785699      -1.17244735
H        5.99878059       7.35382149      10.19941593      -0.52632117       1.72126149      -2.41249040
H        4.60767660       7.76003771       1.61470641      -3.08235929      -3.02416402      -4.14378310
H        0.02319219       5.30120201       7.99695084       1.91454360      -0.73469061       3.23694756
H        2.03174296       4.71380520       2.43906351      -2.91393762       0.18767168       1.12094731
H        6.09809481       8.48915027       8.82243285       8.83966396       7.73531274      -9.21484297
H        2.61268278       0.37173812       2.49570238     -24.81244639     -17.06520419     -20.98411462
H        7.25124321       4.01390558       8.83701424       1.00839500       0.20690233       1.13588686
H        8.90527892       3.29685455       1.54653370       1.94467916      -1.41864314      -1.94758836
H        4.45836339       1.16789869       8.07172843      -2.17809560      -0.65373447       2.61398262
H        2.90885699       1.29681048       3.68601493      -1.71634272       0.73826770       0.38143212
H        7.37527299       3.27607705      10.15007051     -12.36783358     -12.09454748      14.39754632
H        7.46625058       3.58435752       2.53037070       2.29114482       0.15893324      -1.31650891
H        2.87468379       0.87592617       8.94491053     -13.41210507       3.61630400      -2.33337673
Pb       4.58206108       4.11763773      12.73845541      -0.28334013       0.70433393      -0.96039765
Pb       8.76100738       0.00603586       6.15813534       0.36837547       0.10510474      -0.50333495
Pb       8.99592884       0.05784391      12.23459467       0.09202278      -0.72854706       0.67523359
Pb       4.55990071       4.83448757       6.13096469      -0.59210200      -0.93056309       0.34903238
I        7.22708639       5.93423777       6.56607420       0.50212730       0.31715642      -0.09819628
I        8.78715468       0.39052008       3.04273181      -0.42596506      -0.41722552      -0.25912286
I        6.39410505       1.77620493      12.23355882       0.03825210      -0.32696341       0.00064151
I        1.84302603       2.45143876      12.52330570       0.30751651       0.20839042       0.28666514
I        1.71710894       2.29040798       5.86733419       0.39835361       0.49325641       0.27553858
I        2.56196188       6.97147149       5.68219819      -0.07795568       0.39928169       0.14554293
I        7.11845181       6.14047371      12.12637374      -0.08221432       0.08673550       0.10350356
I        6.38103009       1.92965243       6.20718236      -0.65530514      -0.20820415       0.22921663
I        4.23994678       4.59627861       9.29981252       0.02979472      -0.15041764      -0.31663045
I        0.30444184       0.02493378       9.24930200      -0.11944295      -0.00242552      -0.01575665
I        2.82308864       7.07724192       0.02942675      -0.40062536      -0.25296266      -0.16117253
I        5.02203639       4.30996468       2.81163600      -0.00970557       0.01518425       0.91614729
48
Lattice="9.01938999 0.0 0.0 0.0 8.77776784 0.0 0.0 0.0 12.79618681" Properties=species:S:1:pos:R:3:forces:R:3 config_id=O-FAPI3_al_global_rattle_12__global_rattle__sev-0.819__seed-new phase=O-FAPI3 mode=active_learning seed=1886611174 source=O-FAPI3/CONTCAR energy=-191.85070277 stress="-0.0825419275834686 -0.018095290858459644 0.02334076547773328 -0.018095290858459644 -0.03598307309041468 0.013889389484967325 0.02334076547773328 0.013889389484967325 -0.022703776049257905" pbc="T T T"
C        4.55124859       0.42914700       3.05984812       2.71829895      11.28168290      11.15537329
C        0.39120359       4.11504820       9.47013603     -15.63328381     -22.82654718      21.21661924
C        8.98284099       4.80248093       3.07516976     -15.49775845       1.58613165       7.93646120
C        4.52804972       8.45432904       9.82421919       9.91656980      22.35126000     -29.72976030
N        4.91379803       8.31578865       2.48859192      12.78288272     -18.94758873     -12.97223441
N        0.67113173       4.90519530       8.82256593       4.77920756      20.34099849     -18.62388223
N        1.08626557       4.95249509       2.98012608      15.95125604       8.77451338       2.52206769
N        5.60740256       8.18432236       9.46354984       8.68551059     -10.35102330       4.32371526
N        3.40632010       0.67187449       3.16756962     -16.88843529       4.93361725       0.72072018
N        7.75311111       3.83168114       9.76149254       2.60671399       5.85874752      -5.69095773
N        8.26825285       3.92065048       2.64504079      39.11794437       1.14140410      -2.25439374
N        4.13958784       0.72382711       8.70707472     -20.67738840     -16.57434925      34.39201443
H        5.11499501       0.78586688       3.91665507       1.27440411       0.97733068      -0.11139530
H        0.61440869       3.60729874      10.46848621       1.66824724       0.37829078      -1.63569057
H        8.25854158       5.17373381       4.10691927       2.10042521       0.65987680      -2.26848210
H        4.09954220       8.15075073      10.36918691     -19.25119902     -12.58609177      23.31039069
H        5.97706731       8.19508838       2.65346451      -1.49489480      -0.32387192      -0.68174913
H        1.63648092       4.96685402       8.75845230       3.67169952       1.75330965      -0.79172923
H        1.41924431       6.00491961       3.59170998      -0.31347665      -3.63951005      -1.96239021
H        5.69656392       7.20283071      10.09172885       2.34543299       1.96902298      -2.03216148
H        4.68498467       7.43856838       1.56312447      -0.60631426       3.35692506       2.79506939
H        8.98634718       5.42262970       8.05091723       1.20943554      -0.82554039       1.10602780
H        1.80783228       4.51529212       2.47934258       1.11502817      -0.94856017      -1.22765332
H        6.25057607       8.52725675       8.82411696       1.41725335       0.70516209      -1.71627267
H        2.84876693       0.07607419       2.49209679      -0.34482979       1.18866124       1.06133174
H        7.05516618       4.34993705       8.59564348       2.05354736      -1.97835034       3.64411620
H        9.00205562       3.28885871       1.72005345      -2.51252850       1.37099299       2.41962677
H        4.43256830       1.04581662       8.10822328      13.47879795      13.82390770     -26.25560520
H        2.76159805       1.43579976       3.77964182       2.68434853      -2.35768987      -1.84859839
H        7.46505145       2.96959926      10.11140542      -0.47179923      -2.55779978       0.31858475
H        7.58456514       3.75389598       2.53983617     -39.23730226      -8.83200290      -5.10216458
H        2.70219057       0.87327563       9.21418312       3.28927422       0.04522082      -2.15782176
Pb       4.35897738       4.39709403      12.55955755       0.80876376      -0.28192394      -0.15429881
Pb       0.09379769       0.30992288       6.15188197      -0.52661106      -0.98317610      -0.01275944
Pb       8.97442301       8.64889529      12.53488740      -0.63075343       0.02004301       0.00355263
Pb       4.29900953       4.29024217       6.09099554       0.73124029       0.51181502       0.10822129
I        7.22884301       6.13494021       6.56652014       0.13798447      -0.12607124       0.08097130
I        8.59835630       0.07218740       3.02662500       0.01196732      -0.12737814      -0.29087796
I        6.23098361       1.60696308      12.04529467       0.24780214      -0.05374788       0.44325704
I        1.98122933       2.58046739      12.79212492      -0.73769278      -0.32786216       0.21081973
I        1.76035890       2.69247969       5.93829340       0.06288861       0.57696101      -0.21133293
I        2.75504789       7.30759021       6.09144111       0.01729840      -0.53631737      -0.34265896
I        7.21711140       5.94002109      12.38368765       0.16714700       0.57904020       0.09801162
I        6.28296687       1.67340542       6.59666655       0.27957767       0.40650854      -0.50314460
I        4.07717881       4.52104217       9.33721334       0.02545762       0.12786055      -0.01593174
I        0.48778728       8.72487064       9.27762278       0.30707250       0.17198960       0.49047333
I        2.83766695       7.04950742      12.77676744      -0.18401594       0.08532553       0.10150154
I        5.06858141       4.09344321       2.94702811      -0.65519431       0.20880294       0.13501968
48
Lattice="9.01938999 0.0 0.0 0.0 8.77776784 0.0 0.0 0.0 12.79618681" Properties=species:S:1:pos:R:3:forces:R:3 config_id=O-FAPI3_al_global_rattle_13__global_rattle__sev-0.847__seed-new phase=O-FAPI3 mode=active_learning seed=1866463585 source=O-FAPI3/CONTCAR energy=-204.85595388 stress="-0.05546764244732637 -0.011552662683816889 0.004806830177158955 -0.011552662683816889 -0.0044904059805888795 0.00021945017511517542 0.004806830177158955 0.00021945017511517542 0.005607263408646039" pbc="T T T"
C        4.26938219       0.32083066       3.20877385      45.67154972     -12.49929811       1.40636651
C        0.12269275       3.97210444       9.49499544      -5.18139662      -6.42629592       6.26158775
C        9.01929574       4.91920312       3.32393902     -20.89010308      -8.18030923       0.66380794
C        4.54150747       8.45554827       9.69855526      -2.98150664       5.84677414      -6.18175829
N        4.92382777       8.10622594       2.35254926      16.04689454      14.20766009      18.58025804
N        0.60850803       4.81581892       8.78013416       4.99351216       8.12278933      -5.62817151
N        1.03446090       5.05827132       3.00992431      29.51561719       8.90360399      -0.88294917
N        5.72768974       8.13581097       9.46898246      -4.60352927     -11.10725117       8.87697002
N        3.27642961       0.55281197       3.18768983     -39.18390533      12.35573452      -1.60775890
N        7.80129134       3.52209427       9.30185108       5.45063995       1.23082327       0.38060692
N        8.62112521       3.97251559       2.34015909      -9.56452824      -2.50599654       2.47645494
N        3.92766835       0.63286925       8.86640222      -1.18922383       0.09226224      -0.56002481
H        5.25708602       0.68058239       4.04424175      -3.24047507      -0.43502974      -1.98694693
H        0.63612423       3.48847752      10.64413908      -0.77721013       1.10672899      -3.42988896
H        8.17272713       5.16180588       4.05499823       1.65018828       0.53937806      -0.52832499
H        4.06298562       7.83769366      10.30640254      -2.98737001      -2.11481313       2.99605726
H        6.24849485       7.95751256       2.42438590      -5.09758574       0.66343814      -0.24884687
H        1.68836333       5.15996360       8.82772664      -2.61896124      -1.21372934       0.36029687
H        1.73153951       5.89834487       3.84433575      -1.60893865      -1.74762280      -1.89349456
H        6.07941863       7.25017299      10.09705603      -0.59955789       2.47409155      -1.55540222
H        4.51493237       7.69949990       1.82499907     -11.93640079     -12.30615809     -16.03851272
H        0.07483108       5.52202616       8.04852255       0.95656783      -2.34223896       1.70807200
H        1.92762710       4.60705060       2.41912193      -3.36772174       1.04306347       1.38230282
H        6.35046356       8.54046624       9.07802568      10.13422802       7.05204401      -7.00419205
H        2.79951204       0.27126937       2.28243140      -1.03625502       0.26616074       1.08278915
H        7.24681947       4.12078947       8.74900232      -1.37961917       0.38753743      -0.58473181
H        0.01020021       3.25465394       1.71155985       0.62765495       0.82243774       0.84484077
H        4.53003868       1.12976938       7.88328142      -1.58094305      -1.74003313       3.36521340
H        2.93264564       1.48241629       3.73951617      -0.35016214      -1.90867177      -0.68871397
H        7.52508560       2.93610339      10.04037916      -1.37278373      -0.75697068       1.03241159
H        7.38432611       3.52023988       2.78759184       3.73225453       1.20130354      -1.92180516
H        2.72475582       0.80216650       8.88573418       3.91639355      -0.79829033       0.31789566
Pb       4.33532809       4.11423266      12.67047438       0.28636486       0.61289735       0.14936139
Pb       8.75861210       0.09977566       6.14848408       0.67034609       0.37954139       0.03740902
Pb       8.81234764       8.64256976      12.61038004      -0.17499404      -0.38720422      -0.20865024
Pb       4.38433900       4.52601109       6.33932141      -0.20792174       0.01606777      -0.37469491
I        7.11776525       6.40908894       6.19689013      -0.36619724      -0.49396275       0.31192853
I        8.98091814       8.72284201       2.84885039      -0.61205570       0.00708635       0.52326509
I        6.18560769       1.74931530      12.41496435       0.50597184      -0.56803236      -0.09146699
I        1.82143325       2.34617919      12.54816011      -0.31460103      -0.12216030       0.18521762
I        1.89159644       2.68588548       5.69420370       0.09482331      -0.07835431       0.02068058
I        2.28383013       7.02470286       5.89622299       0.39616505      -0.35660314      -0.07972625
I        6.98921883       5.86923524      12.52826102       0.21545336       0.46981951      -0.33819960
I        6.33224268       1.90350320       6.50006609      -0.47302316       0.23637696      -0.10162080
I        4.19667616       4.28894087       9.42296532      -0.16108614       0.24907696       0.00386113
I        0.49049562       0.01362231       9.49432531      -0.16407440      -0.10362773      -0.54911780
I        2.74435874       6.83650725       0.30123542      -0.74413841       0.05192902      -0.48031379
I        4.90298432       4.27581214       3.10486805      -0.09835598      -0.14597279      -0.00234172
48
Lattice="9.01938999 0.0 0.0 0.0 8.77776784 0.0 0.0 0.0 12.79618681" Properties=species:S:1:pos:R:3:forces:R:3 config_id=O-FAPI3_al_global_rattle_14__global_rattle__sev-0.875__seed-new phase=O-FAPI3 mode=active_learning seed=1235049398 source=O-FAPI3/CONTCAR energy=-183.0875076 stress="-0.10686192684830868 -0.013692799879357722 0.0003294989410945223 -0.013692799879357722 -0.07678348273399048 -0.00013418141745986462 0.0003294989410945223 -0.00013418141745986462 -0.027493862841416892" pbc="T T T"
C        4.50006734       0.28771153       3.41322672      22.28092830     -12.85779301      -3.82726500
C        0.23476101       4.11335207       9.49561593     -38.35796185     -62.73729848      36.79224040
C        8.90214261       4.77565774       2.94173420       8.58745331      10.89016808      12.24884319
C        4.75433107       8.45774464       9.63665588     -55.68121560      15.82134342      -0.44611283
N        5.24600787       8.31112292       2.21897729      -1.91938217       3.85999347       4.84732407
N        0.65070660       4.82724600       9.09875448      24.60923896      60.20033936     -39.23891082
N        1.36804872       5.28871151       3.22563462     -14.63202894     -45.20829851     -42.56699272
N        5.67867071       8.10421311       9.65154540      46.29499854     -16.28952069      -2.30603487
N        3.53255846       0.63097150       3.11764939     -31.43741978      11.23818772      -4.95237583
N        7.95658665       3.85079587       9.29651238       6.57185624      -8.60998245      11.40242390
N        8.59320749       3.73966459       2.47303316      -7.90387057      -4.53852053       1.59706799
N        3.68251204       0.66855632       8.81812502      20.01479674      -2.06571770      -3.21656503
H        5.16026143       0.80092909       3.89298097       4.09181359       2.45164806       4.38900610
H        0.71067228       3.44936625      10.36001972      -0.70526697       0.67238123      -1.24794270
H        8.56398800       4.99754681       4.13238496      -0.82400421       0.19799078      -3.23752926
H        3.82940651       7.73881281      10.12209510       2.19996613       1.91895516      -0.32615654
H        6.13387247       8.22548157       2.61865095       1.83921092      -1.41518418      -0.16332666
H        1.44380086       5.06843606       9.08387123      14.97385055       5.11113336      -0.01961434
H        1.49743674       5.77217095       3.67240069      10.61477674      40.01048839      36.44046281
H        5.88322317       7.07264887      10.02933938       0.78436797       1.68971527      -0.17758740
H        4.74256175       7.69814339       1.65234793      -0.94756852      -1.65984556      -0.92981789
H        0.11809430       5.37042542       8.05015355       0.75545048      -0.56981589       2.25749200
H        1.98179936       4.64801627       2.53267593      -0.70182021       2.83607156       2.56250255
H        6.36996844       8.58070388       8.95099678       0.55554404      -1.06370670       1.22073532
H        2.63446875       0.48220817       2.34438196       3.51077060      -0.47916462       1.67265747
H        7.27479653       3.99459923       8.83460497     -10.48318698       4.46884441      -9.55670770
H        8.77200697       3.36415712       1.69636848       3.79148754      -4.06309018      -8.37692772
H        4.31618019       1.23088944       7.75154903      -2.01776278      -1.75594899       3.60137469
H        2.95209992       1.33247209       3.83145921       1.53556766      -1.18110585      -1.32257219
H        7.44300247       3.05451381       9.88758783       2.32168728       1.56048450      -0.74092104
H        7.53931314       3.55969445       2.46942656       0.42624091       0.09193466       1.07892311
H        2.84354209       0.84116173       8.83557454     -11.86746392       1.51651576       1.57028111
Pb       4.60109713       4.20482133      12.32848119      -0.40841318       0.25765829       0.48366022
Pb       8.91117851       0.22979389       6.29232281       0.06953342      -0.14079270      -0.52290521
Pb       8.83789452       0.14832093      12.67593656       1.40701104      -1.11204723       0.09319051
Pb       4.34309342       4.40957610       6.22834597       0.05007881       0.60594234      -1.25720038
I        7.19019547       6.08774417       6.39622721       0.73753517       0.23412349       0.26096339
I        8.36574921       8.64075636       2.92547178       1.00987300       0.23203690       0.24446468
I        6.39532988       1.42143477      12.30968474      -1.37987736       1.15337786      -0.23514239
I        1.90242602       2.45889407       0.00106784      -0.20266813      -0.03405070       0.12993331
I        1.73603875       2.92613395       5.70882655      -0.51361517      -0.70454110       0.06303937
I        2.90300530       7.03154030       5.68539289      -0.45833421       0.66290212       0.35889629
I        7.02811198       5.90352726      12.17351156       0.47967764       0.35111755      -0.04530723
I        6.05839244       1.95511208       6.35338775       0.85260269      -0.93624835       0.07342338
I        4.32929240       4.51714027       9.09438663      -0.18320446       0.19669202       1.45045614
I        0.28637095       0.19280709       9.21006812      -0.22556889      -0.12237699       0.43011151
I        2.76278121       7.06683123      12.59327192       0.01188066      -0.45990421      -0.02412467
I        4.71961769       4.33102921       2.92300954       0.47243496      -0.22509112      -0.53143304
48
Lattice="9.01938999 0.0 0.0 0.0 8.77776784 0.0 0.0 0.0 12.79618681" Properties=species:S:1:pos:R:3:forces:R:3 config_id=O-FAPI3_al_global_rattle_15__global_rattle__sev-0.903__seed-new phase=O-FAPI3 mode=active_learning seed=1071388753 source=O-FAPI3/CONTCAR energy=-204.15698749 stress="-0.016493445115186644 -0.010969976250947925 0.02308057206048578 -0.010969976250947925 -0.0333047215127607 0.00706081606305761 0.02308057206048578 0.00706081606305761 -0.017601026431105442" pbc="T T T"
C        4.65864003       0.38288966       3.12173304     -12.04271895      20.90488986      16.60014504
C        0.07336985       4.03257721       9.49073534      -3.94095413      -8.16075394       9.01992134
C        8.88110371       4.81783755       3.38067258      12.44110909      -6.96784116     -12.08215265
C        4.44965301       8.45389963       9.81132051      17.18877457      12.81959901     -14.91734797
N        5.07966578       8.33623111       2.59356480      14.60568478     -25.20659163     -16.18634526
N        0.53300581       4.86897840       8.81000264       6.04800172       7.91485742      -5.92737155
N        1.40612669       5.08301558       3.07324547      -5.84711633       2.46657335       4.28960056
N        5.88350476       8.06444254       9.60038765     -32.99415107     -15.77388340      23.84891194
N        3.33545881       0.63609508       2.89411498      -5.67067410       3.70140516       1.99820504
N        7.94003210       3.54460152       9.72809820      -5.98425462      -0.05471591      -3.02630787
N        8.48351006       3.76829749       2.55857989       1.80591624       3.77851595       2.63262891
N        3.69972843       0.48130432       8.79294353       9.94643176      -3.16085002       0.62830511
H        5.21015101       0.70931088       4.07667254      -0.90870951       1.11554118      -1.18326915
H        0.48671957       3.55865139      10.32075615       3.80957366       0.04726615       1.47440486
H        8.37737845       5.21786816       4.07207192      -3.99238314       3.29665438       5.57516392
H        3.83541081       7.99435733      10.11269975     -14.04353236     -12.15487699       9.49670455
H        6.40548175       7.74818764       2.55234649      -3.53175928       2.10281090       0.25918532
H        1.44841085       5.09936005       9.21772792       0.60291445       0.36996027      -0.92705585
H        1.61362569       5.85223911       3.88005721       0.95348783      -1.97159496      -2.55608674
H        6.01301472       7.20370902      10.07578557       0.95936726      -0.82737320       0.59758943
H        4.33930627       7.89820978       1.99313930       1.52375912      -0.84392001      -0.69019215
H        0.31000194       5.42177633       7.97658174      -0.84468305      -0.31955573       0.12917507
H        2.00414453       4.59724136       2.34064868      -1.11481992       0.64845862       1.18289570
H        6.36620005       8.38706729       9.17543704      25.51016724      17.68392161     -22.81652762
H        2.45336400       0.09703656       2.37711615       3.50504476       0.88462395       1.23561717
H        7.33917126       3.85900001       8.99769467      -1.78048444       0.19216636      -0.80537114
H        8.80290443       3.24280790       1.72559369       0.71591670       0.68381800       0.43939952
H        4.29681962       1.06053755       8.10758539      -1.16416987      -0.68962263       1.11486999
H        2.47486388       1.56369087       3.64423743       3.00547704      -2.33332725      -1.42063178
H        7.30876978       3.02149948      10.38992492       2.10197042      -0.06787675       0.25929186
H        7.60361210       3.67652900       2.87202441      -4.86997773      -1.77980417       0.28689688
H        2.90319841       0.78289947       9.13982243      -5.42382212       2.11787808       1.79820802
Pb       4.68031976       4.29722541      12.71618940       0.14648912      -0.30104041      -0.18273770
Pb       8.88560114       8.68915899       6.15259639       0.66019661       0.61815283       0.23025356
Pb       0.23646847       8.64077840      12.68065925      -0.90429767       0.46997551      -0.65418505
Pb       4.42381787       4.33982489       6.26854890      -0.56564329       0.33722195      -0.16810845
I        7.20261544       6.31540664       6.58288045      -0.57727192      -0.49911102      -0.09322479
I        8.90554923       0.17849828       2.88810064      -0.64750338      -0.37752765       0.50641232
I        6.42121328       1.45445384      12.49752752      -0.44870805       0.78420246      -0.09512536
I        1.86135045       2.48160268       0.23531279       0.22551432       0.52830135      -0.27149680
I        1.64009417       2.81204070       5.72218589       0.31610250      -0.35697492      -0.03264510
I        2.56842923       6.96639917       6.01469342      -0.24639660       0.29780782      -0.04854365
I        7.25138346       6.21052592      12.31122502      -0.25133281      -0.47677907       0.17494341
I        6.35069689       2.11743917       6.69543354       0.36856493      -0.70206166      -0.06176557
I        3.90854399       4.26549984       9.34832862       0.18175206       0.09157424       0.22028320
I        0.22829970       0.03555022       9.34794691       0.14924433       0.00132127      -0.10285203
I        2.60711547       7.03323880      12.79117339       1.12575994      -0.91795243       0.02482387
I        5.04927513       4.45097267       2.94036411      -0.10185608       0.08653722       0.22550764
48
Lattice="9.01938999 0.0 0.0 0.0 8.77776784 0.0 0.0 0.0 12.79618681" Properties=species:S:1:pos:R:3:forces:R:3 config_id=O-FAPI3_al_global_rattle_16__global_rattle__sev-0.931__seed-parity phase=O-FAPI3 mode=active_learning seed=3963824007 source=O-FAPI3/CONTCAR energy=-198.14566027 stress="-0.031538686886324094 -0.01128641704369077 -0.01643088828549707 -0.01128641704369077 -0.02858924902245085 0.009129982905814725 -0.01643088828549707 0.009129982905814725 -0.030838161279203708" pbc="T T T"
C        4.36803754       0.35774460       3.21431371      12.84599929       2.56560362       7.98446998
C        0.28836009       4.03885270       9.68420178     -21.38240204       3.51040725     -21.70589795
C        0.16736542       4.71421828       3.05939693     -31.23741020      -2.75730845       1.15688444
C        4.41337900       8.38117705       9.74734712       8.24032356       5.59787810      -5.91711095
N        5.10597156       8.28052766       2.64971651      -6.02504361      -2.02622730      -3.50859921
N        0.55207830       5.04352475       9.05787642       4.53350580       3.32338418      -2.92007377
N        1.13772642       5.06874267       3.32218390      25.45782548      -4.41503008      -2.56554064
N        6.04395005       8.21386481      10.06301331      -5.36276798       3.18971062      -6.60931556
N        3.25677428       0.79593735       3.24047001      -6.61295408      -0.17141802      -4.37904208
N        7.53182254       3.52088706       9.47176870       7.82835088      26.11237707     -35.06090971
N        8.30405550       4.10855230       2.45063062       1.52094792      -8.56895698      -8.45016435
N        4.07142435       0.60438759       8.76799186      -3.71942245      -3.20727886       5.81545106
H        5.28232102       0.79422297       3.98405873      -2.85547899       0.01913451      -0.79060449
H        0.65983620       3.84962746      10.33616724      14.31616313      -8.61032153      24.36963199
H        8.27458103       5.34153462       3.56550275       1.48202136       0.56930307       1.48284868
H        3.67406141       7.93543858      10.23692987      -3.20516650      -1.78771290       2.58732365
H        6.01134767       8.12988720       2.69706432       5.75604139      -0.33488607       0.84135451
H        1.58771758       5.21547157       8.93824461       0.25268759       0.34177381       0.94556531
H        1.36416253       5.87465086       3.46995490       3.63493920      12.10006538       3.38173161
H        6.22631869       7.25582737      10.22976887       0.17438022      -1.91044804       0.26845900
H        4.61977602       7.79812892       1.93832057      -0.21818289      -1.58648838      -1.69896886
H        0.19280795       5.46319124       8.23740796      -1.94212863       0.42544194      -1.33043157
H        1.77291867       4.74436956       2.30664626       0.14393595       0.51912178       2.71298442
H        6.31435290       8.44413954       8.85214317      -0.17977404      -0.88941971       4.24805854
H        3.01903507       0.26182247       2.21229486      -2.41608768       2.20473514       2.46570600
H        7.47921298       4.34088480       8.69499550      -1.58376227      -2.99293888       2.85883509
H        0.01599932       3.41456688       1.61191479      -2.52928990       1.05823408       1.57261913
H        4.31853191       1.14329873       7.93723219       1.68550682      -0.20386640      -0.15488194
H        2.88626911       1.48955973       3.96249306      -0.26887453      -0.56489146      -1.05090119
H        7.52971309       3.11697992      10.06403637      -2.03711771     -21.98709341      32.71079018
H        7.31888232       3.66274369       2.54810954       1.61867724       1.55633855       0.57153082
H        3.01380283       0.88137409       9.02215702       2.02618713      -0.84811094      -0.96338788
Pb       4.58531140       4.48430124      12.59380731      -0.00839505      -0.30341505      -0.12481701
Pb       8.97961078       0.01413229       6.06142202       0.17429737       0.72578861      -0.29628412
Pb       8.97028022       8.72648944      12.27294920      -0.02504584       0.36513363       0.54668846
Pb       4.68625920       4.57058696       6.05617264      -0.64622831       0.02270004       0.33658556
I        7.15956634       6.38857960       6.59483414      -0.07182621      -0.35844332       0.25397511
I        8.82764579       0.09273352       2.95072608      -0.36516591      -0.17979145       0.10154830
I        6.44627988       1.66628806      12.38925809      -0.45365115       0.73853092       0.31338248
I        1.84957582       2.39766826       0.28990324       0.30540515       0.49814195      -0.21302271
I        1.83006661       2.70691394       5.97926385       0.16827919       0.04789708      -0.03599394
I        2.53420867       7.30994064       5.76432988       0.38949802      -0.50346772       0.27791492
I        7.17424458       6.26593048      12.41155544      -0.14513731      -0.77905551       0.33029121
I        6.27495458       2.02999750       6.32992031       0.14400651      -0.21849342       0.06082646
I        3.98436847       4.49799614       9.21073839       0.04426056       0.12628536       0.49034265
I        0.52053317       0.07068807       9.34033126       0.22211395       0.03080232      -0.32503508
I        2.57349912       7.08745442       0.15993570       0.43591457      -0.45225735       0.15927217
I        4.95951055       4.33617334       3.06247313      -0.10995499       0.00853223      -0.74408873
48
Lattice="9.01938999 0.0 0.0 0.0 8.77776784 0.0 0.0 0.0 12.79618681" Properties=species:S:1:pos:R:3:forces:R:3 config_id=O-FAPI3_al_global_rattle_17__global_rattle__sev-0.958__seed-new phase=O-FAPI3 mode=active_learning seed=2741170266 source=O-FAPI3/CONTCAR energy=-206.81778009 stress="-0.017736339446652847 -0.012910850895871469 0.0037725977345630735 -0.012910850895871469 -0.004430617528581528 0.005025841649080691 0.0037725977345630735 0.005025841649080691 -0.009331152424715246" pbc="T T T"
C        4.77780908       0.63311353       2.99336911      -7.36254122      -2.00842687       5.04144731
C        0.08965021       4.08214561       9.83777739      -5.50159811       0.74965042      -8.61912784
C        8.78879080       4.77985053       3.18269637       4.50012658      -1.51522088      -2.68996178
C        4.30234905       8.51775570       9.60434833       4.23889014      -3.08592106      -1.78783685
N        5.17229456       8.18550990       2.53329988     -13.29237641       1.41684544      -2.89811485
N        0.45848238       5.01573223       8.71756670      13.63326843     -11.28251721      22.77395289
N        0.99438910       4.88596751       3.17400073      12.02502697       6.35819627       2.32858612
N        5.75689823       8.09150896       9.25868186     -21.87839000      -9.25179561      19.36721475
N        3.25744072       0.72518275       3.07608008       4.71019001      -3.01402072      -3.02240884
N        7.75165033       3.60805205       9.49497497       5.70841313       3.33910392       0.00442930
N        8.28328150       3.96121808       2.46891612      14.63461476      -3.94377807      -9.56531051
N        3.82284933       0.64628747       8.76978346      -5.93289740      -3.12953588       4.24364535
H        5.12082343       0.87015935       4.19334382       0.34817816       0.36811594      -3.10852051
H        0.65241893       3.25230264      10.38272706       0.26097350       1.87627460      -0.09918187
H        8.34013684       5.31476989       3.76751065      -5.63997845       5.84093365       6.64136278
H        3.65700737       7.75954010      10.40155013       1.77733600       2.31807575      -2.07258740
H        6.00459954       8.30147044       2.65504459      13.74239206      -0.48827259       0.55513845
H        1.78181080       5.00277800       9.03505877      -3.05774025       0.56110370      -1.81341936
H        1.33682990       5.78567818       3.94038380      -0.75922864      -2.89597483      -2.28261749
H        6.21469315       7.33603633       9.75246969      -0.73881793      -0.27461322       0.98884414
H        4.63400230       7.82393337       1.65152232       1.61222026       0.26645449       1.54406223
H        0.12726242       5.34282373       8.05175371      -8.27447699       7.10707943     -14.67935441
H        1.95001376       4.85512164       2.47874628      -3.70479227      -0.78045386       1.65136133
H        6.27731063       8.36090120       8.76366150      16.77495915      10.82207976     -17.87757650
H        2.78846347       8.68660993       2.42293315       0.61240977       2.98356014       2.11705879
H        7.29183326       4.09857847       8.71590306      -0.25362709      -0.45151457       0.70635470
H        0.05216743       3.14022634       1.90186282      -2.75672202       2.73485156       1.49190799
H        4.45789691       1.09571340       8.23556543       2.31306975       2.22930580      -2.89914222
H        2.81250420       1.45989394       3.61506084      -0.38613902       0.17816983      -0.22013624
H        7.38807755       3.02649974      10.16544973      -2.02777542      -1.93901693       1.75511311
H        7.52298976       3.71851280       2.59485414     -17.87847709      -5.87785474       2.15637604
H        2.62751679       0.69844154       8.71239729       3.16256217       0.29444581       0.22548100
Pb       4.75260557       4.34400960      12.58385213      -0.18251253      -0.00673828      -1.28898891
Pb       0.25981507       0.16210273       5.99113359      -0.46509270      -0.50674709      -0.00550221
Pb       0.13234999       8.75947488      12.49251359      -0.08679688      -0.02989539      -0.13277387
Pb       4.64674264       4.47925885       5.92668137       0.13368676       0.03099466       0.33042100
I        7.26251609       6.33988520       6.43199063      -0.50583145      -0.37889107      -0.20074377
I        8.75193306       8.73582442       2.74430183      -0.07832234      -0.03994765       0.54693292
I        6.50563080       1.79453230      12.37948206       0.00354938      -0.15660614      -0.05405025
I        2.02165397       2.34434798       0.26841333      -0.24199147       0.25290328      -0.19246103
I        1.70513354       2.67485902       5.94946191       0.59263412       0.68442378      -0.05383949
I        2.70085209       6.93622111       5.71561019       0.13806484      -0.03650568      -0.04537379
I        7.05666213       6.28370090      12.42039595       0.15910453       0.02327367      -0.07259786
I        6.47682359       1.69422690       6.26802068      -0.34555321       0.25829353      -0.02531798
I        3.96223047       4.36090075       9.27740217      -0.19463481       0.14404430      -0.34379312
I        0.28397522       0.23425598       9.27145937       0.39158769      -0.02140443      -0.22182237
I        2.60387336       6.76939472       0.00179838       0.10408782       0.09537581       0.12144048
I        4.69869992       4.00337498       2.61438035      -0.03103230       0.18209724       1.68143065
48
Lattice="9.01938999 0.0 0.0 0.0 8.77776784 0.0 0.0 0.0 12.79618681" Properties=species:S:1:pos:R:3:forces:R:3 config_id=O-FAPI3_al_global_rattle_18__global_rattle__sev-0.986__seed-new phase=O-FAPI3 mode=active_learning seed=1402501175 source=O-FAPI3/CONTCAR energy=-198.33921987 stress="-0.06735835645018545 0.007512016567805356 0.0011446304959089315 0.007512016567805356 -0.006440635174695967 -0.0012030746766467859 0.0011446304959089315 -0.0012030746766467859 -0.030241125080084554" pbc="T T T"
C        4.47363484       0.19580075       3.19801674      21.37949517      -0.03928362       5.52331149
C        0.06669036       4.06720910       9.71575193      -8.35623516       4.96139549      -7.09875852
C        0.03796902       4.52547319       2.99167055      11.21110515      19.62846959      15.58674837
C        4.34182358       8.57681761       9.62038758      -3.02743276      -2.83030733      -0.81981325
N        5.26237003       8.53787724       2.28663853       3.52413170      -7.16459604      -3.55164435
N        0.35326272       5.08899403       8.81653138       8.03177241      -7.06448318       9.02453350
N        1.33312618       5.11705234       3.04568466     -12.21292124       0.52776642      15.42585252
N        5.66857946       8.30784451       9.34803597      -6.86704506      -2.33552136      11.97852009
N        3.39198396       0.39964229       3.14701088     -19.29383167       8.40601554       6.62953978
N        7.92336436       3.38463934       9.56415051      14.75929706       6.44431649     -14.30394942
N        8.38909247       3.83907605       2.46405932      -0.48294574     -13.82658854     -14.36095291
N        3.47616048       0.58942553       8.94779172      48.82434131     -21.83087297       9.89929628
H        5.05976306       0.66549130       4.10295897      -0.78556181      -0.74485385      -1.04354443
H        0.72029029       3.46695128      10.01071683       6.76747071      -4.02478249       3.73088066
H        8.31094144       5.40180366       3.87479093       1.63576624      -2.55056337      -1.70188085
H        3.64539490       7.59595797      10.34902165       2.25352535       2.91982815      -1.13871881
H        6.42349997       8.23694727       2.57368912      -3.89091195       1.06431353      -0.71152797
H        1.45644740       5.08827899       9.23716072      -2.44135815       1.82694205      -2.81635833
H        1.38686407       5.75202299       3.87788185       0.91788861      -0.30374924      -1.48121937
H        6.24753600       7.40426460      10.03584522      -2.62616131       2.88230686      -1.33472986
H        4.66322621       7.57066211       1.76496256       2.39708104       3.26095306       0.86707489
H        8.84728361       5.63033328       8.27539126      -2.94080241       3.16785860      -2.80670167
H        1.66201517       4.95040923       2.32417730       9.62057857      -2.64208173     -15.81853569
H        6.22461691       8.21510379       8.69285675       6.10615794       0.48558261      -9.51110160
H        2.83598528       0.30853828       2.44698000      -4.75612723      -1.35254902      -6.14712482
H        7.26812191       3.88604010       9.01821822      -0.57416706       1.35980989      -2.42737369
H        8.81500574       3.24568078       1.59814328      -0.41700977       0.73669097       1.35925412
H        4.30375698       1.27183773       8.02824737      -1.62298223      -1.46206228       1.80390201
H        2.83749666       1.34718030       3.84469405       1.65315104      -3.16411707      -1.37449964
H        7.34873713       3.21124603      10.07464453     -14.58345628      -6.84739229      16.61189994
H        7.53884495       3.63239473       2.44348881     -10.15688822      -1.65081943       0.81116761
H        2.89806782       0.91357612       8.76897589     -42.34647441      22.14879026     -11.08411574
Pb       4.28375666       4.22808829      12.53276758       0.72034682       0.11061744      -0.05097128
Pb       8.86274402       0.00492152       6.32478098       0.15162887       0.62898878      -0.11535102
Pb       8.61814015       8.68901899      12.50335094       0.27117528      -0.44680805       0.48068450
Pb       4.55432916       4.79053614       6.08183027      -0.83301356      -0.68991876       0.07634371
I        7.20218260       5.99458308       6.43722478       0.45905304       0.50830019      -0.14584976
I        9.01269896       0.06674097       2.94541220      -0.57293171      -0.08657283       0.42363962
I        6.39126836       1.78117113      12.17867969      -0.32076824       0.01808147       0.26449941
I        2.01432499       2.35728377      12.75353802      -0.62790986      -0.31867100       0.19767134
I        1.83626762       2.59039144       6.21208496      -0.11380188      -0.25210574      -0.37325518
I        2.41369880       7.12556713       5.90249594       0.10740510      -0.15340364       0.11839962
I        7.33811869       5.82210925      12.10475036      -0.12995556       0.32766813       0.06386214
I        6.08927465       1.90004660       6.55636061      -0.13846894      -0.18371063       0.08756290
I        4.20065579       4.35407401       9.33145199      -0.24023552       0.12996555       0.01982393
I        0.35683088       8.65551802       9.66282831      -0.08960405      -0.05731807      -1.04070368
I        2.73738288       6.74067702      12.47619487      -0.34769843       0.43474454       0.39288826
I        4.92208496       4.23175810       3.01809250       0.00532879       0.04372692      -0.11867486
48
Lattice="9.40517752 -0.06271446 0.1217932 -0.06103439 9.01827952 0.15158799 0.17279312 0.22098422 12.92005007" Properties=species:S:1:pos:R:3:forces:R:3 config_id=O-FAPI3_al_strong_strain_01__strong_strain__sev-0.825__seed-new phase=O-FAPI3 mode=active_learning seed=756902133 source=O-FAPI3/CONTCAR energy=-225.79474566 stress="0.03336407830823841 -0.003060526284269196 0.004328066094571739 -0.003060526284269196 0.01502839351005964 0.00566873591343819 0.004328066094571739 0.00566873591343819 0.012351155604878991" pbc="T T T"
C        4.81770160       0.38986622       3.26696932      -0.80329826      -0.36744300      -0.64791084
C        0.17595992       4.30683979       9.72955371      -1.45194956      -0.61581724       0.10072845
C        9.34014498       4.86864649       3.40172242       0.35924267      -0.66879132      -0.84080080
C        4.69840348       8.78561996       9.86430681       1.32490757       0.19896637      -0.72921031
N        5.34223369       8.44216714       2.66255466      -0.32454813       0.77385414       0.56750606
N        0.74867737       5.23938497       9.00546341       0.63142387       0.33860844      -0.27284219
N        1.23822013       5.31057814       3.20475190      -0.88725270      -0.27122628       0.15875621
N        6.00692976       8.38559486       9.77603135      -1.98107623       0.58751487       0.21357910
N        3.50653642       0.78651665       3.15793649       1.24638785      -0.62988373      -0.11479494
N        8.27524605       3.86153328       9.72921594       1.40502151       0.89045488      -0.42806980
N        8.74742865       3.91052467       2.63046149       0.58385982       1.12854120       0.82783280
N        4.15387252       0.70774259       8.97337012       0.04919957      -0.81091219       0.77942362
H        5.46752694       0.90108093       4.05171227      -0.83389325      -0.54465560      -0.87208361
H        0.83258505       3.81332131      10.49740825      -0.81829912       0.20212632      -0.54052177
H        8.70406162       5.38843565       4.16981338       0.50541842      -0.43972985      -0.60996825
H        4.06911992       8.30067620      10.61550936       0.18762796      -0.13134794       0.05457141
H        6.38913154       8.25578570       2.78177599      -1.64165372       0.36931627      -0.18203606
H        1.79312158       5.41556055       9.13077882      -1.40630214      -0.20266196      -0.25906085
H        1.63467685       6.02228222       3.88864100      -0.65842718      -0.99671919      -0.85884428
H        6.41290098       7.69147559      10.43628988      -0.56182199       0.39653631      -0.20674341
H        4.80065431       7.93287232       1.89881812       0.73252255       0.67679425       0.95401332
H        0.20032940       5.73021275       8.25853777       0.58898314      -0.25280743       0.49229716
H        1.90671677       4.87024621       2.52970675      -0.74629289       0.47941622       0.74249509
H        6.66968384       8.79378239       9.11524869      -0.25223798       0.09699972      -0.02181689
H        2.82568325       0.35518211       2.46541781       1.10780922       0.57123247       1.02309965
H        7.58865022       4.27871847       9.05095988       1.03495213      -0.28965375       0.71936681
H        9.27575828       3.39409562       1.88057983      -0.46874262       0.52940660       0.74133243
H        4.67543346       1.19143605       8.24029935      -0.02873041       0.09595306      -0.10384018
H        3.11840608       1.50345232       3.83166551       0.55210868      -0.85858797      -0.69432463
H        7.89663012       3.17264570      10.37931439       0.03201922      -0.05214303       0.15842122
H        7.70589329       3.73806907       2.72263846       1.30979821       0.34317430      -0.03897150
H        3.10988342       0.89784401       9.07164117       1.36439462      -0.44555624      -0.02942035
Pb       4.63741780       4.56213635      12.89033383       0.40155198       0.12146151      -0.39160238
Pb       9.37980692       0.20128518       6.28214397      -0.02606966      -0.13944649       0.05345694
Pb       9.49907334       9.15149338      12.88167849      -0.49732109      -0.35596450      -0.08874892
Pb       4.63735279       4.68820171       6.21565125      -0.07548862       0.19783017       0.32811567
I        7.65413152       6.41834979       6.72766539      -0.02054523       0.10772067      -0.04969783
I        9.09198034       0.04615987       3.12183234      -0.05400403      -0.11306394      -0.21048840
I        6.77909704       1.94460775      12.54525749       0.17420060      -0.02813347       0.02392733
I        1.75247853       2.45768326       0.11109062       0.26397059       0.35279200       0.02068392
I        2.10929714       2.82430305       6.04688616       0.02290390      -0.06020579      -0.05305608
I        2.85986557       7.32109723       6.23383335      -0.02654145      -0.19588425      -0.16520328
I        7.50849803       6.42874287      12.64033168      -0.11703002       0.04753203       0.00273653
I        6.69995241       1.89946855       6.52316416       0.07996065       0.01553227       0.02542300
I        4.36017730       4.71483612       9.62872059      -0.00521194      -0.03362853       0.08763269
I        0.60853280       0.22415601       9.31058016      -0.09730099       0.01484417       0.33016446
I        2.89162905       7.14756521       0.16541529      -0.15808484      -0.06103834       0.12509688
I        5.13154622       4.39365974       3.15341809      -0.01614071       0.02869383      -0.12060317
48
Lattice="8.96367329 -0.11110538 -0.01616791 -0.10812896 9.06199355 0.1108476 -0.02293809 0.16159309 13.48078493" Properties=species:S:1:pos:R:3:forces:R:3 config_id=O-FAPI3_al_strong_strain_02__strong_strain__sev-0.875__seed-new phase=O-FAPI3 mode=active_learning seed=975945906 source=O-FAPI3/CONTCAR energy=-225.94321504 stress="0.0047771552902689815 -0.005733228640805792 -0.00041941527624118484 -0.005733228640805792 0.015110417787716605 0.0043616857026103975 -0.00041941527624118484 0.0043616857026103975 0.023055958862734642" pbc="T T T"
C        4.54305896       0.35235989       3.33406831       0.94578218      -1.11363528      -0.83507131
C        0.00448962       4.28213240      10.12894643       1.02855550       0.57397881      -0.17522362
C        8.82822688       4.82957157       3.38166551      -1.46994571      -1.00941850      -0.45919179
C        4.28965772       8.75934398      10.17654362      -0.52234045       0.70945064      -0.50548694
N        5.00912461       8.44417923       2.65211029      -1.41324429       1.31987486       0.73781638
N        0.55592089       5.21968462       9.35947652      -0.76188600      -0.32135203      -0.02713614
N        1.10590228       5.31551047       3.29743937       1.60372602       0.54766170       0.12147114
N        5.54034932       8.35115801      10.06657170       0.17579468      -0.24084839       0.31413818
N        3.29271756       0.75807819       3.23816870      -0.33036395       0.31302164       0.24647533
N        7.72716461       3.79372564      10.00730103      -1.24929099      -0.34758507      -0.04585924
N        8.27945044       3.87331657       2.59088540       1.44639887       0.64198719       0.14004405
N        3.82624689       0.64882205       9.29825150       0.92422115      -0.82745635       0.44404796
H        5.14844454       0.85917139       4.14044083      -0.23387612      -0.69837425      -0.84022472
H        0.62192184       3.77934049      10.92296947      -0.33175865       0.50735459      -0.67576237
H        8.20806777       5.35157370       4.19024856       0.50149533      -0.86686028      -1.14700170
H        3.68154524       8.27174297      10.97277720       0.16302626       0.40832414      -0.49788190
H        6.00630335       8.25104656       2.76155294      -0.01300409       0.12591950       0.11610633
H        1.54875266       5.39086639       9.47337539       0.35824833       0.12604219      -0.02804927
H        1.47016843       6.02553730       4.00134641      -0.21057709      -1.00382593      -1.12148744
H        5.92147135       7.64854709      10.75319902      -0.38686895       0.83018335      -0.84010456
H        4.50660669       7.93865317       1.86599885       0.35923386       0.80884979       1.08027419
H        0.04141160       5.71912903       8.58565789       0.38490354      -0.59555675       0.84012673
H        1.75519427       4.87276119       2.58504739      -0.66528724       0.80668153       1.13472118
H        6.17946768       8.76104119       9.36460898      -0.22505369      -0.32162818       0.47282129
H        2.65600184       0.33126888       2.52809631       0.31195378       0.55229169       0.76296267
H        7.08027516       4.21954906       9.30765803       0.48287514      -0.47086371       0.71777194
H        8.79661713       3.35515145       1.80293475      -0.69152275       1.01931986       1.42556735
H        4.33142214       1.13562731       8.52259365      -0.22288513      -0.49679493       0.63128668
H        2.90922728       1.47737341       3.94342447       0.50055080      -1.22095725      -1.19604449
H        7.36053011       3.10038321      10.69527708       0.02753840       0.45376560      -0.49567950
H        7.28623262       3.70485501       2.70391817      -0.38665282      -0.10606761      -0.05730936
H        2.82868202       0.84467493       9.41574048       0.06291153      -0.10935957       0.10852689
Pb       4.23912247       4.51619073      13.22882809       0.25525468       0.09385011       0.16939649
Pb       8.93910511       0.12101491       6.53685494       0.15862174       0.04074836      -0.26300937
Pb       8.69424992       8.81047298      13.25641149       0.04800322       0.26010218       0.14985130
Pb       4.46933860       4.72518936       6.63411802      -0.21040146       0.06972796      -0.12936933
I        7.12668028       6.54098990       7.01915354      -0.26847910      -0.30638377      -0.09296871
I        8.79501364      -0.05631988       3.14909285      -0.21260128      -0.08757489       0.24048847
I        6.40574464       1.82432371      12.91461017      -0.17267321       0.21758572      -0.00536649
I        1.88963418       2.65233288      13.46944554      -0.24571843      -0.04053456       0.09031782
I        1.75753995       2.73766047       6.07819310       0.29415101       0.19605749       0.06977769
I        2.58781681       7.31322720       6.38231824      -0.00741719      -0.14056612      -0.04321563
I        7.09236958       6.25919456      13.15968915      -0.14294826      -0.05333490      -0.15726111
I        6.30615580       1.92735540       6.83990241      -0.03978229       0.03041853      -0.00683696
I        4.03067073       4.72525719       9.88731488       0.14291825      -0.05450003      -0.06169911
I        0.18185688       9.14282457      10.17626206       0.05997232       0.04339092      -0.29737747
I        2.48034419       7.09550785       0.20948070       0.30205317      -0.21146048      -0.06954296
I        4.79183905       4.54850244       3.10637520      -0.12361060      -0.05164953       0.06017145
48
Lattice="8.75370164 -0.03088648 0.0322717 -0.03005905 9.27427208 -0.11378625 0.04578521 -0.16587703 12.30474335" Properties=species:S:1:pos:R:3:forces:R:3 config_id=O-FAPI3_al_strong_strain_03__strong_strain__sev-0.925__seed-new phase=O-FAPI3 mode=active_learning seed=3762402472 source=O-FAPI3/CONTCAR energy=-226.13159986 stress="-0.02143776728738545 -0.0017945174662231597 0.0019868380730774424 -0.0017945174662231597 0.0036979845561855803 -0.005214707543184742 0.0019868380730774424 -0.005214707543184742 -0.014803829098540297" pbc="T T T"
C        4.45659555       0.32066650       3.05835017       0.84311529      -0.56300452      -0.22744115
C        0.09005438       4.13545599       9.14695415       1.75046000       1.08733642      -0.37686237
C        8.67915307       4.94285067       3.01707960      -1.06737782      -0.66809055      -0.26939282
C        4.31261207       8.75764007       9.10568359      -1.73489307       1.40326806      -0.68288080
N        4.97538387       8.62639539       2.24649430      -0.45745737       0.56256224       0.51790539
N        0.63257364       5.11932802       8.42493043      -1.19307868      -0.86033890       0.61600534
N        1.14046467       5.37139181       2.89042138       0.77442835       0.60414058       0.20876252
N        5.53022245       8.35393288       9.02112912       1.14996662      -0.82185132       0.34322916
N        3.23828588       0.72690696       2.95499300      -0.45898156       0.52849024       0.22916777
N        7.62804366       3.70944794       9.08570073      -1.35855130      -0.77453073       0.15036610
N        8.13133468       3.97817686       2.31496697       0.49594319       0.54906743       0.46517071
N        3.78852463       0.47110958       8.49340298       1.28430562      -1.44534868       1.02074778
H        5.05606096       0.82532201       3.78561643       0.67391714       0.29688004       0.57313354
H        0.69286860       3.60685798       9.88689755       0.41098199       0.17092574      -0.00194034
H        8.08178184       5.45172900       3.73993357      -0.73461600       0.31740581       0.58370548
H        3.71858965       8.23326515       9.84121469      -0.61840283       0.02764122       0.21430466
H        5.94825949       8.43514576       2.35593183       0.98018948      -0.13730908       0.16260350
H        1.60424090       5.30092694       8.52979335       1.17526160       0.16412794       0.16317145
H        1.50560565       6.08440467       3.51812741       0.11381557       0.17840978       0.17971846
H        5.90004930       7.62121675       9.66657271      -0.25449421       0.49306620      -0.45322810
H        4.47649906       8.12350475       1.53820665      -0.55798534      -0.43046097      -0.66362760
H        0.13035539       5.64494942       7.70402383      -0.16408351      -0.15852205       0.04930040
H        1.76742253       4.94156077       2.25366376       0.92140081      -0.42656587      -0.75390250
H        6.15435218       8.79670735       8.37366524       0.71391232       0.14630595      -0.37928360
H        2.60936042       0.30150698       2.31360540      -0.86980360      -0.39923259      -0.71737718
H        6.99628997       4.15665374       8.43360699      -0.48852394      -0.06800594      -0.06588148
H        8.62824865       3.47177266       1.61035048       0.62143976      -0.49070914      -0.72308247
H        4.28210506       0.99321732       7.77616753       0.43096944       0.05989421      -0.20284750
H        2.87318642       1.44249630       3.58000690      -0.08222935       0.17998717       0.17073597
H        7.26762998       2.97930838       9.72845219       0.02498638       0.41382828      -0.39024186
H        7.16043825       3.79378562       2.41723853      -1.11922813      -0.18335624       0.17986726
H        2.81641975       0.65956689       8.59109993      -1.07313431       0.09681963       0.28698980
Pb       4.41805613       4.33352597      12.09045321      -0.19633549       0.08548317      -0.34099491
Pb       0.08827816      -0.04840289       5.91819910       0.10924550       0.23072740      -0.04679030
Pb       8.75679622       8.91707255      11.98055515      -0.07768571      -0.08073565       0.06824432
Pb       4.54256980       4.61795712       5.78010069      -0.43275415      -0.17421715       1.10959864
I        7.04112423       6.45994716       6.04771326       0.14782746       0.32595885       0.12309963
I        8.49931242      -0.00616900       2.75355734      -0.16380646       0.04595371       0.91578964
I        5.99737805       1.77359626      11.87667563       0.42959613      -0.33312385      -0.01210322
I        1.89461516       2.46556608      12.25302102      -0.31675365      -0.18515583       0.05862319
I        1.84366781       2.82329445       5.74375581      -0.14685824      -0.33192570      -0.09450695
I        2.56193045       7.33744427       5.63744789       0.09474326      -0.04904787      -0.00763789
I        6.85095161       6.26040781      11.79973252       0.34962010       0.36327055      -0.00180723
I        6.14825832       1.82276777       6.25118419       0.19604674       0.04847274      -0.16860944
I        4.17414506       4.50717326       8.97550237      -0.17494079       0.09279264       0.13521154
I        0.34980099      -0.09070677       9.12332115       0.01885082       0.07055086      -0.87716512
I        2.47937316       7.27368924       0.00826651      -0.08904684       0.05021706      -0.09238525
I        4.68151208       4.67008948       2.92872924       0.11999878      -0.01205130      -0.97546217
48
Lattice="8.85969348 -0.07103605 0.08488808 -0.06913305 8.89993186 0.13722753 0.12043428 0.20004962 13.47402876" Properties=species:S:1:pos:R:3:forces:R:3 config_id=O-FAPI3_al_strong_strain_04__strong_strain__sev-0.975__seed-parity phase=O-FAPI3 mode=active_learning seed=3188385541 source=O-FAPI3/CONTCAR energy=-226.10203544 stress="-0.007769849883207084 -0.003998562297583116 0.0034627463276987545 -0.003998562297583116 0.008067196663715043 0.005308391365586952 0.0034627463276987545 0.005308391365586952 0.020254333959633324" pbc="T T T"
C        4.52732715       0.37563966       3.38480093       1.43882707      -0.96502728      -0.42261365
C        0.12875790       4.23676544      10.13681581       1.13604200       0.13058245       0.34974132
C        8.78165735       4.79121769       3.49450837      -2.16282444      -1.29680839      -0.51951505
C        4.38308827       8.65234338      10.24652326      -1.11225883       0.76184387      -0.38232616
N        5.01347383       8.32274037       2.73316723      -1.32886681       0.74200937       0.26353160
N        0.66948368       5.15754359       9.37684379      -0.47807576       0.33153114      -0.64476561
N        1.14945059       5.23536115       3.32446313       2.24190602       0.91144799       0.32820254
N        5.61654840       8.25643456      10.14950881       0.82581315      -0.59900084       0.43134518
N        3.29202772       0.76849352       3.27604701      -1.33456049       0.50984573       0.25332263
N        7.75912553       3.78956683      10.10109270      -1.62272053      -0.48515414      -0.12445332
N        8.22699264       3.84728586       2.69501234       1.87765911       0.87550326       0.29026671
N        3.88300267       0.68208916       9.33868877       1.06087863      -0.71325493       0.34755839
H        5.13629887       0.87844854       4.19914973      -0.32421425      -0.70314362      -0.90533891
H        0.74543170       3.74802632      10.93587613      -0.31786923       0.44749237      -0.62868381
H        8.17930086       5.30373877       4.29725097       0.11601508      -0.71153515      -0.81533375
H        3.78843386       8.17331674      11.03397738      -0.20109733       0.19449283      -0.11819181
H        5.99953101       8.13763775       2.85324256       0.39060583      -0.08329199       0.06044680
H        1.65276164       5.33024012       9.50243587       0.67361907       0.28483306      -0.06026005
H        1.51982072       5.93641302       4.03429259      -0.27958299      -1.02707013      -1.13531044
H        5.99769549       7.57011182      10.83794630      -0.23376213       0.59609830      -0.65874581
H        4.50640288       7.82169388       1.94023645       0.41762397       0.82735070       1.11205989
H        0.15474600       5.64349500       8.59913134       0.45638912      -0.50836669       0.82284592
H        1.78194040       4.80109627       2.61843315      -0.21302172       0.58277164       0.67694127
H        6.24253364       8.65955393       9.45639014       0.29039820      -0.10530533       0.03044522
H        2.65342768       0.34441991       2.55783824       0.45419095       0.64538397       0.84080427
H        7.11402084       4.20287776       9.39579537       0.37513532      -0.42343015       0.65009005
H        8.72777783       3.33815849       1.91173821      -0.28239880       0.83423095       1.08446716
H        4.37612104       1.15995961       8.57063297       0.06388613      -0.21276151       0.23242071
H        2.92331549       1.47547117       3.97879505       0.30953887      -0.98622673      -1.12635233
H        7.40119017       3.10916998      10.78244875      -0.21322674       0.14828633      -0.33416242
H        7.24574213       3.67795690       2.79623815      -0.97166631      -0.15107323       0.13540426
H        2.89897284       0.87055936       9.44543133      -0.67026161       0.02276450       0.17262313
Pb       4.65027816       4.36697544      13.37579577      -0.30799028       0.31981105       0.01890184
Pb       0.12995040       0.23622752       6.37074871      -0.40137598      -0.10033542       0.25591872
Pb       8.77893966       8.86815658      13.60541869       0.39839316      -0.03453972      -0.32456008
Pb       4.41167222       4.70849501       6.59528946       0.19211692      -0.27980716       0.10689087
I        6.96612608       6.50435774       7.02947663      -0.05669480      -0.22176159      -0.04722602
I        8.65823723       0.06723151       3.14337778      -0.15163507      -0.11522003       0.19431110
I        6.24141161       1.79796812      13.04840835       0.16956655      -0.13724185      -0.08219462
I        1.98504161       2.46694476       0.20888388      -0.50102281      -0.10618673      -0.01791812
I        1.71980538       2.75451481       6.35807954       0.36801685       0.40440339      -0.09428149
I        2.51547249       7.19827861       6.48795631       0.06292081      -0.04507540      -0.14927421
I        7.14149462       6.22947653      13.17613144       0.22702186       0.23175526      -0.07968405
I        6.25290151       1.98411670       6.73714703      -0.04724418       0.01110600       0.03161808
I        4.19097004       4.50641460       9.98247618      -0.01423369       0.05123198      -0.13860494
I        0.33644881       8.96707431      10.02244299      -0.07571839       0.08992980      -0.05068080
I        2.52747738       7.01556894       0.21745006       0.06709784      -0.04073064       0.04229396
I        4.85546272       4.30735771       3.19415927      -0.31133933       0.09764272       0.12802583
48
Lattice="8.44543546 -0.25550095 -0.12395153 -0.24865628 8.61330211 -0.18528943 -0.17585524 -0.27011403 12.8474225" Properties=species:S:1:pos:R:3:forces:R:3 config_id=O-FAPI3_al_strong_strain_05__strong_strain__sev-1.025__seed-new phase=O-FAPI3 mode=active_learning seed=692734369 source=O-FAPI3/CONTCAR energy=-223.45298548 stress="-0.07858910483110702 -0.020351433628908438 -0.005294804317993454 -0.020351433628908438 -0.029239264018600265 -0.010019691338389551 -0.005294804317993454 -0.010019691338389551 -0.013837182438057458" pbc="T T T"
C        4.23623733       0.15386520       3.11045041       1.88730523      -0.99320055      -0.30054010
C       -0.17849754       3.75215609       9.51857378       5.76106564       1.33885818       0.65084558
C        8.20026739       4.33683058       2.95780202      -3.20806604       1.43236290       2.85604404
C        3.78553269       7.93512138       9.36592539      -2.96682433       1.44914209      -0.17207834
N        4.55295428       7.86015993       2.19342740      -0.82497257       0.73504549       0.76954690
N        0.33452861       4.65841685       8.74783329      -2.09253243       0.43760790      -0.78967858
N        0.91924802       4.93100714       2.95842089       5.49743027       1.27237634      -1.07777633
N        4.97143425       7.52954756       9.25860316       2.87348963      -1.42466386       0.30425119
N        3.05302125       0.56356414       3.02157348      -1.30666532       1.61991631       1.08057209
N        7.10520749       3.16210448       9.32175576      -6.74096337      -2.40135231       0.13572679
N        7.70759452       3.46183233       2.24159712      -0.63811146      -3.42083635      -3.12768215
N        3.48916902       0.26008933       8.79600288       2.02371372      -0.84644108       0.35517917
H        4.78927768       0.60015021       3.85531093       1.70068086       0.89023679       1.75552709
H        0.40224571       3.23882674      10.28407766       0.69435341       0.23917253      -0.00269151
H        7.59861833       4.81804848       3.71960962      -0.35183079       0.11645426       0.25301272
H        3.21158653       7.45672518      10.14837635      -0.64673913       0.07589539       0.19527804
H        5.49413298       7.65638127       2.29152510       2.58481403      -0.37615121       0.54568865
H        1.26571080       4.80091413       8.83848177       3.84098861       0.82117630       0.21574381
H        1.24305085       5.57775206       3.60205327       1.51618050       1.82110643       1.45358342
H        5.33399920       6.83359944       9.93111944       0.02437266       0.28560721      -0.45894987
H        4.09656311       7.41273369       1.46655527      -1.46094482      -1.11881920      -1.93986647
H       -0.14943833       5.16620142       8.00041253      -0.27286215      -0.22993042       0.14842589
H        1.54598415       4.52161757       2.28539925       0.51182250      -0.11002232      -0.30230696
H        5.57477469       7.93057361       8.56814760       0.80604465       0.07582404      -0.45555301
H        2.46810064       0.19083083       2.36633503      -2.37003620      -1.10951317      -2.21358209
H        6.49689109       3.59978703       8.64908350      -0.82675345      -0.08684799      -0.20820114
H        8.21193455       2.98534095       1.50062458       0.12733877      -0.19455457      -0.25034376
H        3.96593320       0.73880868       8.03448171       0.45324693      -0.04062419      -0.15013461
H        2.67229944       1.23162306       3.67554600      -0.16005970       0.34048769       0.30330157
H        6.76324770       2.48747045      10.00461217      -0.64688459      -0.10960143      -0.11033449
H        6.77345212       3.31478802       2.36721843      -3.42980258      -1.07564172       0.02080299
H        2.54503002       0.45932096       8.91417497      -2.13617487       0.50243889       0.42832958
Pb       4.05365400       3.89549951      12.44374440      -0.61032426      -0.27512143       0.12501499
Pb       0.04179829      -0.06689529       6.32523323      -0.73077266      -0.03784517      -0.24683418
Pb      -0.40427017       8.14023111      12.34320046       0.73462078       1.39036355       0.43096082
Pb       4.00924209       4.07395407       6.07015991      -0.01094608       0.10458550      -0.03718085
I        6.37783481       5.76250759       6.30307108       0.68402558       0.37879312       0.07920700
I        7.89572058       8.21002878       2.76844645      -0.01329989       0.01333828      -0.13739367
I        5.58350538       1.35652885      12.24477150       0.54288426      -0.61519009      -0.05829579
I        1.57789688       2.21866310      12.74466623      -0.51738647      -0.18588082       0.14432008
I        1.61473256       2.39208072       5.89054930      -0.66283809       0.05786229      -0.18171620
I        2.08101336       6.72332725       5.76354499       0.62513203      -0.30481951       0.05647882
I        6.40148690       5.62510989      12.03547587      -0.07755753      -0.74022758      -0.19825273
I        5.65285546       1.43817511       6.41964789       0.33086998       0.03368679      -0.15594178
I        3.57451960       4.04995614       9.25022751       0.32624140      -0.07641527       0.18073198
I        0.36667019      -0.17121326       9.44900155      -0.66126922      -0.06758579       0.24534286
I        2.25842947       6.59664925      -0.12769371      -0.21804055       0.29746005      -0.11194052
I        4.34492523       4.02093191       2.88330083       0.03603713       0.11148769      -0.04664095
48
Lattice="8.90454336 0.20649061 -0.12195157 0.2009589 9.06634133 0.00492918 -0.17301781 0.00718574 13.00889588" Properties=species:S:1:pos:R:3:forces:R:3 config_id=O-FAPI3_al_strong_strain_06__strong_strain__sev-1.075__seed-new phase=O-FAPI3 mode=active_learning seed=2656997180 source=O-FAPI3/CONTCAR energy=-226.15631502 stress="-0.005534022001627251 0.011300542446412409 -0.0048708086416236395 0.011300542446412409 0.00818932969665263 0.0004347344299982436 -0.0048708086416236395 0.0004347344299982436 0.009709055754560167" pbc="T T T"
C        4.48844335       0.47563073       3.15918737       1.66939884      -0.70287315      -0.11777587
C        0.03378577       4.17122158       9.72667449       0.69553947       1.33975046      -1.10902475
C        8.89953094       5.10876162       3.10261645      -0.25863140      -0.65729382      -0.63019274
C        4.44487354       8.80435238       9.67010357      -1.15596516       0.13920872       0.32276337
N        5.23604346       8.60016991       2.40314152      -0.76037881       0.34011048       0.07185189
N        0.62273267       5.13806116       8.96673728      -1.22725367      -1.72102826       1.40316486
N        1.24261754       5.32261349       3.10849847      -0.27019492       0.12195170       0.11797031
N        5.67513907       8.44129968       9.55360823       1.91326008      -0.29542895      -0.43442705
N        3.26081996       0.83857378       3.07701762      -1.76849204       0.69537787       0.09516204
N        7.69334149       3.95725988       9.52212738       0.22381936      -0.57451623       0.68189632
N        8.33060891       4.14109019       2.35691954       0.92509852       0.89049847       0.58268720
N        3.71729830       0.67898153       8.92051517       0.57073589       0.59778366      -0.78787049
H        5.09808376       0.99521781       3.92437885       0.02530921      -0.37218836      -0.37857550
H        0.62103711       3.68072086      10.49131693       0.49497826       0.02075301       0.18830209
H        8.29171110       5.60011649       3.88448157       0.06147546      -0.29115331      -0.31365573
H        3.81466464       8.28561973      10.45141965       0.44217137       0.55281877      -0.74662663
H        6.21918101       8.44091155       2.49899673       0.83845440      -0.20625728       0.00873478
H        1.61394935       5.34329203       9.06279052       0.20810453      -0.23117891       0.30050579
H        1.62076077       6.03825501       3.77537650      -0.33372559      -0.67266541      -0.58735073
H        6.02195572       7.74362570      10.21971774       0.42215695      -0.04782105      -0.05563427
H        4.72844341       8.08528248       1.65625460       0.14055174       0.36648085       0.46365844
H        0.13741895       5.62862636       8.22039687      -0.37659285      -0.02704658      -0.17365074
H        1.88098702       4.91052887       2.41821487      -0.04857924       0.20563451       0.27279685
H        6.33241664       8.88225661       8.86378815      -0.64115967      -0.56790821       0.84394158
H        2.62166502       0.39686401       2.40423027      -0.00641922       0.27212446       0.35687231
H        7.07309455       4.36859193       8.84980368      -0.61682398       0.17086235      -0.34625747
H        8.83596701       3.64969260       1.59615972      -0.13993672       0.37644517       0.41562645
H        4.24494263       1.19303648       8.16030186      -0.61662968      -0.69746333       0.96798548
H        2.89613942       1.53698960       3.75406894      -0.00923822      -0.35248560      -0.45644540
H        7.29733427       3.24236029      10.19841018       0.65571743       0.98559093      -0.84371225
H        7.33647979       3.93598029       2.47985427      -0.01917462       0.11929362       0.08680244
H        2.73124822       0.83836086       9.04364793      -0.71817262       0.35191226      -0.11544563
Pb       4.39573641       4.34639062      12.58655761      -0.08860590       0.82077119       0.36122915
Pb      -0.00643743       0.17618736       6.29964921       0.43272679       0.03942000      -0.04746589
Pb       0.21217725       9.06691793      12.83382939      -0.25368451      -0.37500900      -0.11587766
Pb       4.69957744       4.76407122       6.24097366      -0.57116397      -0.04613804      -0.27854157
I        7.22358279       6.49386929       6.42774332       0.24558699       0.51094781      -0.06054656
I        8.93254265       9.20501841       2.92672213      -0.22538188       0.03152569       0.09810488
I        6.09483508       2.01281241      12.49042658       0.51593129      -0.72490250      -0.11068326
I        1.62949784       2.73530734      12.94932093       0.04189567      -0.07389038       0.09136796
I        1.93334713       3.10739066       5.92355987      -0.21364982      -0.63540116       0.09611483
I        2.64030792       7.29069269       5.98790591       0.20028424      -0.04889946       0.03187420
I        7.13920385       6.46009704      12.30649519      -0.10808081       0.15431713       0.09871794
I        6.31153857       2.03351011       6.41853983      -0.28375878       0.01032936       0.11481868
I        4.09871614       4.70217717       9.57486052       0.04428771       0.00430942      -0.42339784
I        0.32699306       0.16745228       9.62035922      -0.19789361      -0.04873942      -0.18011267
I        2.59942800       7.11035311      12.96988639       0.00706482       0.24750253       0.07608759
I        4.76372456       4.54529304       2.97457425       0.13503868       0.00456801       0.16423327
24
Lattice="8.5608595 -0.11535963 -0.09248316 -0.11535963 8.84275738 0.07731102 -0.06538769 0.05466064 6.50519828" Properties=species:S:1:pos:R:3:forces:R:3 config_id=t-FAPI3_al_combined_01__combined_strain_rattle_fa_rotation__sev-0.815__seed-new phase=t-FAPI3 mode=active_learning seed=3758960366 source=t-FAPI3/CONTCAR energy=-105.82370239 stress="-0.02684048306018073 0.00693207827764603 0.015762338510088937 0.00693207827764603 -0.03321232442739686 0.013801862112404632 0.015762338510088937 0.013801862112404632 -0.0016878605609971463" pbc="T T T"
C        4.45944208       4.49563854       3.44233936       0.65565174     -13.12455859      17.89745941
C        0.10791271       0.17346368       3.59850927      -1.97918847       1.31734528       9.67561706
N        4.60359388       5.19086499       2.56453999       3.38118488      13.42742767     -11.53998082
N        3.67535725       3.42545071       3.63459982      -2.38558293       4.18878251      -8.77975324
N        0.69744270       8.16288996       3.19115913       6.34931101      -5.28635382      -2.29961527
N        7.61717984       0.57834375       3.16959811      -5.57083114       3.42039387      -9.25346234
H        5.33894080       4.28432092       4.72327672      -1.54965536       1.19175149      -3.06427790
H        5.41012039       6.18866349       2.76603268      -2.86751637      -2.99223651      -1.22773521
H        3.83793081       5.30566618       1.82104240       1.14174259       0.26606421       0.23097860
H        2.94935305       3.41507214       2.69609588       1.74260950      -0.78793629       3.17538170
H        3.45446175       2.77477916       4.28433897      -0.28406002      -2.03341964       3.23754334
H        0.04987812       0.18088341       4.77500688       1.20494354       0.17894675      -1.52559569
H        1.40862138       7.75043394       3.88371510      -0.86700002       0.33606663      -1.81659802
H        0.71038602       7.93019095       2.19279430       0.29386490      -0.25370352       0.13791931
H        7.36090437       0.64935904       1.97695627       0.69581484      -0.32247274       3.89909628
H        6.89120483       1.05761471       3.65474645      -0.10648700       0.54573314       1.08903850
Pb       8.45630373       4.22306069       0.08532468       1.52303781       0.99368438      -0.19308802
Pb       4.15702715       8.75718694       6.49932130       0.00867013       0.28034573       0.01619364
I        8.46815721       4.40591686       3.04714434       0.04824803       0.00519472       0.40659633
I        4.17028353       8.78359577       3.20346454       0.09641847      -0.16336729       0.03432920
I        1.94367509       1.92302045       6.40723565      -0.37824883       0.26925502       0.22198427
I        2.21632050       6.47261968       6.48391940       0.08338015       0.04366988      -0.09080095
I        6.21288891       2.63224916       6.38768605      -1.81687597      -1.48679417      -0.14385036
I        6.42668122       6.77996587       6.45445266       0.58056852      -0.01381871      -0.08737984
24
Lattice="8.63688192 -0.16019706 -0.03024462 -0.16019706 9.2159184 -0.00844843 -0.02138363 -0.00597323 6.57234599" Properties=species:S:1:pos:R:3:forces:R:3 config_id=t-FAPI3_al_combined_02__combined_strain_rattle_fa_rotation__sev-0.845__seed-new phase=t-FAPI3 mode=active_learning seed=1063162970 source=t-FAPI3/CONTCAR energy=-104.46439741 stress="-0.002326031388561378 -0.0007209476502180153 -0.0012826776794270397 -0.0007209476502180153 0.003942215357534195 -0.029459376436558226 -0.0012826776794270397 -0.029459376436558226 -0.003260914122808301" pbc="T T T"
C        4.18606538       4.27012464       3.78806121       1.75941051       6.55151144      -7.88594451
C       -0.02834967       9.19419924       3.69651091      -2.81504476       6.82666844      -2.80923014
N        4.88496034       5.47306799       3.20215352      -1.12436795      -3.68177930       1.97613751
N        3.42239619       3.84252813       2.70377753      -1.61659316       1.16214314      39.51194663
N        0.39521342       8.13544921       3.18986135       3.00510978      -2.89231023      11.11635708
N        8.20335790       0.74307276       2.84538379      -2.24726095       2.14957248      -0.60350743
H        4.20439622       4.15422019       4.93374367      -0.54673451      -0.35057149      -1.78429770
H        5.28986434       6.05204035       3.88375876       1.19477649       1.14760000       0.97225452
H        5.16801950       5.65762911       2.19545769      -0.77193959      -0.66145359       1.34252617
H        3.41153666       3.69221205       1.96838454       0.25774577      -5.84235282     -29.87113634
H        2.84760524       3.04449856       3.54286236       0.77946634       1.56568256      -4.11701536
H        0.31005410       0.44431703       4.66209374       0.31960545      -0.88029691       0.93391490
H        0.80487017       7.56881258       4.09971643      -0.64288123       0.50480258      -3.39680084
H        0.41063376       7.80576293       2.35210556      -0.00184417      -2.64265118      -6.88303446
H        7.85841937       0.45792669       1.81846114       1.00118679       0.85733079       2.78899109
H        7.79622446       1.84358777       3.20868184       1.59040320      -3.80821057      -1.12652104
Pb       8.48715574       4.51145223       6.37494672       0.21183644      -0.18448636      -0.00449664
Pb       4.26366808       9.09481505       6.53318819      -0.31112716       0.16093326       0.04331354
I        8.46159312       4.41821894       3.16320169      -0.02835817      -0.15842537       0.05469494
I        4.49690667      -0.07039373       3.17136345      -0.06473607       0.01831636      -0.03177082
I        2.03108066       1.93932238       6.40870380      -0.21187947       0.31514331      -0.20893980
I        2.30171812       6.64560498       0.11971347      -0.07350181      -0.04243524      -0.14025223
I        6.20471736       2.43494745       6.43116249       0.00976466       0.05845882       0.01468169
I        6.51475916       6.94632190       6.36650020       0.32696356      -0.17319012       0.10812924
24
Lattice="9.28314995 0.09920949 -0.07567755 0.09920949 8.68055433 -0.04495187 -0.05350574 -0.03178199 6.16840034" Properties=species:S:1:pos:R:3:forces:R:3 config_id=t-FAPI3_al_combined_03__combined_strain_rattle_fa_rotation__sev-0.875__seed-parity phase=t-FAPI3 mode=active_learning seed=746978458 source=t-FAPI3/CONTCAR energy=-97.07338954 stress="-0.050994080502313625 0.05666671853860071 -0.015378176981322733 0.05666671853860071 -0.06055611689774571 0.02743549041306795 -0.015378176981322733 0.02743549041306795 -0.037107604279179855" pbc="T T T"
C        4.67062501       4.42586316       3.68934515      -3.31381269      -3.55464356      -7.77353037
C        9.31212712       8.74979910       3.35319552     -11.23257020      17.63028153       1.03718748
N        5.48992279       5.06240458       2.90500149       5.44425969       5.43574072       0.97369391
N        3.76609918       3.57119607       3.02657556       6.68027255       7.39887819      -3.79783371
N        0.82411560       7.89242098       3.79803812      -5.12229129      -0.85211320     -27.39483972
N        8.67145871       0.81856580       2.28368814      37.49380032     -48.15559347       8.59028931
H        4.63514050       4.52975645       4.68091263       0.18695967       0.19853405       3.97666856
H        6.26625569       5.76569788       3.53443451      -2.75247955      -2.44286230      -1.82560652
H        5.73275501       5.46513506       1.86504748      -1.62925712      -2.02037987       2.40976934
H        3.58363788       3.58537356       1.93019853       1.77377128       1.05947079       1.95265297
H        3.13106807       2.96055572       3.10403159      -6.27422453      -6.15452571       3.90670488
H        8.99862814       0.84016912       4.39708631      -0.12973668      -1.78177029      -2.25901075
H        1.13676488       7.67025670       4.44016547      12.26259906      -8.09408399      27.39615839
H        1.08488708       7.26276516       3.04998860       1.21356643      -1.24467848      -0.57118211
H        8.82071977       0.13570442       1.48322501      -0.53374490       1.83593596       0.18143357
H        8.24758910       1.33101452       2.16886880     -34.02552920      40.79325211      -7.15105597
Pb       9.28272210       4.72316093       0.01657407       1.41653051      -1.98875126      -1.66321775
Pb       4.65663649       0.02519953       6.08054883      -0.44431440       0.28082532      -0.07770428
I        0.07869459       4.46775474       2.83176275       0.04695691      -0.14028335       1.80032562
I        4.46455452       8.65604100       2.91353720       0.09339869      -0.11262720       0.11874212
I        1.92343921       1.66669523       6.04816932       0.26708241       0.22866154       0.14906069
I        2.67327271       6.21690438       6.05245176       0.01814663      -0.34228804       0.28807072
I        6.65481960       2.33583701       6.09985211       0.14263387       0.45646611      -0.14057707
I        7.48004854       6.78993727      -0.00956502      -1.58201746       1.56655441      -0.12619929
24
Lattice="8.98246223 -0.05056109 0.08231005 -0.05056109 8.88989455 0.01696313 0.05819507 0.01199331 6.29204059" Properties=species:S:1:pos:R:3:forces:R:3 config_id=t-FAPI3_al_combined_04__combined_strain_rattle_fa_rotation__sev-0.905__seed-new phase=t-FAPI3 mode=active_learning seed=1740695099 source=t-FAPI3/CONTCAR energy=-101.04794589 stress="-0.03275191071243973 -0.006798165588361581 0.006914134007565716 -0.006798165588361581 -0.00957010144258872 -0.0008124691392326176 0.006914134007565716 -0.0008124691392326176 -0.02712291330796081" pbc="T T T"
C        4.47110252       4.47380003       3.73313332       7.06804522       3.74636346     -24.96427513
C        8.96272330       8.79346641       3.77298920     -14.89593079      12.93335971       2.72912058
N        5.41832240       5.04974642       2.91474463       0.63567227       2.51649033      20.84632485
N        3.69796475       3.76320348       3.21930195     -10.06846001      -9.19258495      -9.45443594
N        0.88082035       8.35038691       3.19128963      15.14523046     -11.90698991      -2.70515367
N        8.24491684       0.66696867       2.83564747      -4.91512646       0.58025589      -0.90676448
H        4.51815644       4.53916159       4.51778786       1.81964685       2.76318603      26.19739238
H        6.20184014       5.55673984       3.74002423      -2.28120691      -1.40033995      -3.93092926
H        5.52320989       5.04251104       2.08204133       1.68000262      -0.24025836     -13.98974429
H        3.44047871       3.37738323       2.03905261       1.79924967       1.93016409       3.16760931
H        2.98350887       3.16413564       3.56288681      -0.69022596      -0.20076774       2.04045300
H        8.68079291       0.63259484       4.68724467       1.76331541      -2.85641115      -0.64683786
H        1.50201289       7.84396326       4.04516042      -0.82312381       0.97609891      -2.88832802
H        1.06169147       7.87132579       2.17951593      -0.65739367       1.53017660       2.48791570
H        8.04653608       0.32857326       1.65693147       0.57142811       0.99584500       4.14893423
H        7.19600811       1.30014559       3.38901331       3.49767484      -2.50515339      -2.12989301
Pb       0.24938034       4.55515686       0.09123079      -0.65798231      -0.19887008       0.08963179
Pb       4.54279097       0.11123808       6.15943142       0.37584486      -0.37482751       0.04423891
I        0.05582339       4.40312590       3.33567800       0.06528546       0.08101427      -0.22836347
I        4.21714247       0.14166135       3.04859270       0.30069544       0.01845240      -0.02071783
I        2.12039987       1.92683285       6.20229652      -0.35782824       0.53664496       0.29966982
I        2.53705337       6.46002852       0.05678509      -0.07125805      -0.02436361       0.04466358
I        6.53108441       2.29111815       6.24865710       0.49122620       0.60683210      -0.14137098
I        7.02940052       6.98463141       6.32659201       0.20521878      -0.31431714      -0.08914021
24
Lattice="9.11202386 -0.13329227 -0.15827561 -0.13329227 8.8748669 -0.04120256 -0.11190444 -0.02913114 6.23039388" Properties=species:S:1:pos:R:3:forces:R:3 config_id=t-FAPI3_al_combined_05__combined_strain_rattle_fa_rotation__sev-0.935__seed-new phase=t-FAPI3 mode=active_learning seed=1792573868 source=t-FAPI3/CONTCAR energy=-106.45595373 stress="-0.046127720908259055 -0.01659820860244574 0.01594555158796635 -0.01659820860244574 -0.03436988988299186 0.009230998928579549 0.01594555158796635 0.009230998928579549 -0.025254819253195785" pbc="T T T"
C        4.59308041       4.42671520       3.41648931     -13.06869437      -9.56928284      10.62595317
C        8.87541216       8.68927820       3.21905973      -3.51917065       2.77981906      11.57422637
N        5.25905497       5.04052707       2.75187610       8.83417467       7.09973023     -14.05603510
N        3.64666043       3.59167578       2.90147846       3.19336495       2.15823394       9.20260021
N        0.62332428       8.13766724       3.01007050      12.63587968     -11.87837193      -7.98054941
N        8.32508667       0.71618925       2.79166276      -8.13049393       5.68339579      -4.27935243
H        4.48461133       4.65589952       4.55522054       0.53591227      -0.63541933      -1.79094387
H        5.92389323       5.56377435       3.08579471       4.84193590       4.20942811       2.85924528
H        5.44735356       5.02385507       1.69814297      -0.88660156      -0.53612339       1.09406773
H        3.62577268       3.54773550       2.01306075      -1.31813955      -1.18044579      -8.17744995
H        3.05567461       3.37773810       3.65097065      -2.08076060      -1.38866123       0.19563077
H        8.88790406       8.65411864       4.38522775      -0.55854603       0.44098455      -1.18236131
H        1.57238075       7.35093864       3.47315025      -3.64383522       2.78769537      -0.20452802
H        0.71774730       7.85515046       1.96150457      -0.11365608       1.07419297       1.58727947
H        7.98221534       0.73371834       1.75903301       1.18098179       0.04875653       1.68523463
H        7.48757500       1.12847795       3.38135572       2.18302265      -1.00151096      -1.09720084
Pb       8.92917195       4.30609653       5.88554313      -1.10975551      -1.00077721       0.56151351
Pb       4.53163617       0.00493519       6.12901144      -0.27685460       0.39753650      -0.21400372
I       -0.01572379       4.38009867       3.11616556      -0.23079789       0.01315653      -0.66793657
I        4.54382088      -0.01853790       2.91155829      -0.01393352      -0.17938620       0.26248342
I        1.99727836       1.89595860       0.13579189      -0.22952567      -0.06357307      -0.20271559
I        2.10484836       5.94945332       5.89829394       2.27980077       1.89601125       0.02176960
I        6.29766451       2.74353251       6.05552764      -0.79377241      -0.92853807       0.12576492
I        6.78268124       6.92858544       6.00146629       0.28946492      -0.22685081       0.05730773
24
Lattice="8.54624514 -0.11226199 0.14028117 -0.11226199 9.32972645 0.08193338 0.09918196 0.05792875 6.01645333" Properties=species:S:1:pos:R:3:forces:R:3 config_id=t-FAPI3_al_combined_06__combined_strain_rattle_fa_rotation__sev-0.965__seed-new phase=t-FAPI3 mode=active_learning seed=1395046253 source=t-FAPI3/CONTCAR energy=-109.99346452 stress="-0.002920143034956961 0.002586558614199946 0.0017220902703113518 0.002586558614199946 -0.004050248914979049 0.010184558423934781 0.0017220902703113518 0.010184558423934781 -0.03224919058811422" pbc="T T T"
C        4.15591044       4.70774032       3.39823852       2.12748759       0.44776275       5.81173970
C        8.46614623       9.18324092       3.59932283       0.93059582       1.76755659       2.24224261
N        5.02878048       5.63244283       3.13183335       1.26774840       1.46444754       0.23542831
N        3.64632685       3.66178011       2.86022368      -4.00892985      -1.98353108      -2.44749015
N        0.72685722       8.41416269       2.95786659      -2.24140118       2.44502740      -3.70358368
N        7.91494340       0.90191809       3.01592067      -0.71614060      -1.98940704       0.81294350
H        4.28143749       4.71695145       4.46647209      -1.63757304      -0.87953617       1.25206552
H        5.68218275       6.20259649       3.92013771      -2.24813137      -1.78541306      -2.34077863
H        5.23941791       5.63346896       2.17576478       1.37846073       1.19679825      -1.97712823
H        3.51117601       3.77421790       1.82719242       0.08315507      -0.85729138       0.54142944
H        2.74928285       3.04265329       3.32659781       3.02785351       2.19166189      -0.92657049
H        0.05906066       9.36761793       4.51862317      -0.38754255      -0.22582582       0.96838987
H        1.16733433       7.76673151       3.46566228       2.14935710      -2.97636557       3.22538613
H        0.82916945       8.22033425       1.98133170      -0.04543436       0.10919094      -1.13223381
H        7.78190850       0.65557744       2.03148681      -1.05539208       1.39500863      -0.34941895
H        7.13695606       1.25062326       3.73971907       1.55202003      -0.34775096      -2.18715544
Pb       8.47494365       4.69180276       6.17496569       0.60466223      -0.17383023      -0.24621490
Pb       4.28206467       9.09694224       0.18507073      -0.31132720       1.15055836      -0.36398836
I        0.01630297       4.61372455       2.95192892       0.14394744       0.12003146       0.18818100
I        4.34925811       9.13741614       3.09483652      -0.03358562       0.19998307       0.37526117
I        1.88464443       1.93277852       5.94226587       0.04633319       0.18013064      -0.01317477
I        2.65324326       6.80992279       6.05251933      -0.61143738      -0.66298395       0.05819194
I        6.25872573       2.75891230       5.83188214      -0.51286706      -0.40707655       0.10646621
I        6.76404627       7.32880448       6.13957435       0.49814119      -0.37914570      -0.12998798
24
Lattice="9.08044495 -0.19575764 0.03089425 -0.19575764 8.6651762 0.05053346 0.02184293 0.0357283 6.04526887" Properties=species:S:1:pos:R:3:forces:R:3 config_id=t-FAPI3_al_combined_07__combined_strain_rattle_fa_rotation__sev-0.995__seed-new phase=t-FAPI3 mode=active_learning seed=2113282686 source=t-FAPI3/CONTCAR energy=-100.43388542 stress="0.0008190136424190169 -0.009886487659575765 -0.022695301066023396 -0.009886487659575765 -0.09824896134821944 -0.025329655159826436 -0.022695301066023396 -0.025329655159826436 -0.050757685859498976" pbc="T T T"
C        4.31871252       4.28366115       3.35067344       3.14498490      32.29918568      14.18570791
C        8.67981303       8.43932294       3.54671621      11.54920736      -9.79085423      -0.43318957
N        5.00196100       5.43046900       3.04537675      -4.13572589     -26.88174681     -18.55804994
N        4.18165829       3.25597118       3.10814604      -6.50027478     -28.35144615      -7.99731602
N        0.82262972       8.04204877       2.99121736      -2.64359349      -0.68332677       2.99591465
N        8.28915151       0.59850289       2.96780853     -10.94574131      13.53647857      -9.99053387
H        3.73810036       4.68308705       4.55626733       1.17283081      -1.12473590      -2.67438777
H        5.18088666       6.07654649       3.42891046       5.52243926      20.84794814      13.09219830
H        5.80501127       5.05058432       1.95229278      -2.01502449       2.17095266       3.08541770
H        4.26703485       2.97905816       2.11561332       0.76382450      -1.00820945      -0.20396732
H        3.44715089       2.51772666       3.64180283       2.06291175       1.88927596      -1.21109887
H        8.92468605      -0.10296255       4.41474043       0.32922206      -0.05593284       9.17478192
H        1.27171580       7.18986401       3.52658123      -1.32083143       1.79542663      -1.39411967
H        0.72435130       8.04938070       2.01014575       0.71748555      -0.69820843      -1.80714537
H        8.04282930       0.77178635       1.97543773       1.22342377      -1.42630000      -0.82615518
H        7.76845136       1.57154063       3.14400590       1.02439127      -2.29058094       2.12875265
Pb       0.13461471       4.25932570       0.14569363      -1.10726469      -0.08979219       0.08385179
Pb       4.31822740       8.48936417       6.07033789       0.58993507       0.18796882       0.94516898
I       -0.03640221       4.52756926       3.16251905      -0.19948329      -0.31709131      -0.21538178
I        4.57251883       0.02537392       3.18367802      -0.00183005       0.09613950      -0.94655901
I        1.96089880       1.93269385       0.07722091       0.44983608      -0.50655446      -0.09781450
I        2.30454920       6.25332088       5.85605079       0.20076503       0.24233970       0.21327859
I        6.35986971       2.34158757       0.06590247       0.21095379       0.09322157       0.19095475
I        6.92433208       6.60285737       5.99434917      -0.09244180       0.06584224       0.25969166
24
Lattice="8.99779333 -0.04361302 0.0309648 -0.04361302 9.05362217 -0.16574319 0.02189281 -0.11718419 5.99316641" Properties=species:S:1:pos:R:3:forces:R:3 config_id=t-FAPI3_al_combined_08__combined_strain_rattle_fa_rotation__sev-1.025__seed-parity phase=t-FAPI3 mode=active_learning seed=1496963730 source=t-FAPI3/CONTCAR energy=-91.24305212 stress="-0.00496183460474572 0.004056676839257996 -0.010845009004889855 0.004056676839257996 -0.014280143245740213 0.017940127072661877 -0.010845009004889855 0.017940127072661877 -0.2477168860395844" pbc="T T T"
C        3.97440323       4.21792556       3.19659638      13.57830607      15.44846031      64.90575096
C        9.00397122       0.00685448       3.58512291       8.56559926      -0.20017163     -19.25553962
N        5.28026225       5.03788485       3.68531828       0.87455449       0.83655174       1.69914941
N        3.95505821       4.13925442       2.27902056      -6.13851732      -8.48691539     -81.65433363
N        0.99051103       8.15527074       2.62089283      -8.97799030       9.76949197      21.15188356
N        8.19071434       0.62314693       2.95050175      -4.08753919       4.71370180      -3.38793156
H        3.74523271       3.80960595       3.92763704      -5.27243375      -6.29535574      12.09051061
H        5.58943094       5.36683219       4.73320101      -1.47748170      -1.26414674      -2.80850744
H        6.10398909       5.36080033       3.03348771      -2.35239772      -1.02078565       0.85209308
H        4.28237267       4.32560106       1.15087490       0.93864562       1.00869218       3.31762553
H        3.17884088       3.61655165       1.74736454      -0.51711868      -0.75858469       0.89198692
H        8.92915224       8.68255771       4.14986036      -0.97781182      -7.75774664      19.23842597
H        1.48954414       7.84986576       3.29945823       4.77777814      -3.27457419       4.79753804
H        1.03029773       8.03523946       1.84808002       1.32931411      -3.23867569     -22.80679027
H        8.25033966       0.91061102       1.98732501       0.52707467      -0.42968017      -1.12717662
H        7.59103525       1.30503255       3.35395595      -1.36380396       0.53762949       1.42539936
Pb      -0.01250185       4.58164686      -0.06878747      -0.14066552       0.01553504      -1.38625564
Pb       4.46527113       8.80036397       5.65710532       0.28647898       0.23998827      -0.96431324
I        0.01230359       4.47327100       2.68679079       0.11176356      -0.13892193       1.43779903
I        4.48179139       8.87619526       2.47653842       0.20858644       0.20014299       1.26815162
I        2.06220021       1.60857186       5.94241524      -0.49364064       0.61558651       0.00688414
I        2.67538328       6.44409209      -0.04910385      -0.40681025      -0.63195891      -0.17678401
I        6.52820153       2.31928087       5.91564996       0.07723866       0.11212637       0.06571221
I        6.94672583       6.90313487       5.75579129       0.93087084      -0.00038927       0.41872158
24
Lattice="8.78738552 -0.16934273 -0.04746205 -0.16934273 9.03740442 0.20413114 -0.03355674 0.14432534 6.05009332" Properties=species:S:1:pos:R:3:forces:R:3 config_id=t-FAPI3_al_combined_09__combined_strain_rattle_fa_rotation__sev-1.055__seed-new phase=t-FAPI3 mode=active_learning seed=754865198 source=t-FAPI3/CONTCAR energy=-106.92345547 stress="-0.04961293241834328 -0.021029800624088598 0.010909084262678065 -0.021029800624088598 -0.025571417793840274 0.005368888784374403 0.010909084262678065 0.005368888784374403 -0.018193756981327688" pbc="T T T"
C        4.30908278       4.43381982       3.28504716       6.84698906       8.72216396      14.87143373
C       -0.18200538       8.89429663       3.64904409      -2.31546904       8.21147590       1.86910376
N        5.14465823       5.25579147       2.94714212       4.37483075       5.57882561      -5.49394609
N        3.50998180       3.65949046       3.04834163      -8.52816668      -9.31747707      -7.56754172
N        0.74208699       8.35679159       2.99490042      -0.57427620      -0.90641464      -0.81647738
N        8.33615923       1.11173367       3.11187700       3.51912016      -6.93997693      -6.09208409
H        4.32810228       4.65606918       4.58090523      -0.37343580      -1.01079055      -2.53599755
H        5.54353520       6.06611929       3.63011358      -0.95627078      -2.22222601      -1.77387379
H        5.12665274       5.40880029       1.86621618       1.07231938       0.47213699       1.77859189
H        3.40752136       3.48219702       2.05658032      -0.95555870      -1.06148687      -0.82445727
H        2.82844871       3.33914575       3.65791961      -1.65316217      -1.21888431       1.64653827
H        8.58183730       8.58826428       4.64575084      -0.26290380      -0.82207205       1.39001233
H        1.16341767       7.80839108       3.70023590       2.11646204      -2.37789420      -0.30839394
H        0.70466401       8.37809179       1.99607269       1.25824902      -0.31650163      -1.05347978
H        8.13995877       0.94174855       1.99923608       0.07020846       1.88873467       2.84434305
H        7.58439400       1.39783310       3.60372137      -3.78190362       1.11940624       2.06019110
Pb      -0.02671315       4.56453792       0.17791820      -0.41758693      -0.62674012      -0.26331243
Pb       4.40369146       9.08946840       6.10039529      -0.40469310       0.01986679       0.58133152
I        8.63410735       4.39118639       3.08065500       0.07314316       0.12015619       0.23132550
I        4.23402111       8.98513235       3.20395486       0.02268954      -0.09879054      -0.59685752
I        2.02031500       1.77734631       5.89579331      -0.69157488       0.44097017       0.18260996
I        2.19600776       6.57154965       6.05342715       0.40496946       0.35830904      -0.01320936
I        5.94339900       2.53489219       0.19529880       0.56860550       0.37060537      -0.00368027
I        6.46631864       6.82397598       5.96844098       0.58741519      -0.38339600      -0.11216993
24
Lattice="8.76191738 0.20916987 -0.20658533 0.20916987 9.09970505 -0.09255997 -0.1460605 -0.06544199 6.08172016" Properties=species:S:1:pos:R:3:forces:R:3 config_id=t-FAPI3_al_combined_10__combined_strain_rattle_fa_rotation__sev-1.085__seed-new phase=t-FAPI3 mode=active_learning seed=2862842679 source=t-FAPI3/CONTCAR energy=-97.68824528 stress="-0.06035096123904194 0.008730176004575489 -0.009222682167601382 0.008730176004575489 -0.029467220022488052 -0.016775783475469375 -0.009222682167601382 -0.016775783475469375 -0.06309953187902616" pbc="T T T"
C        4.28933264       4.82068862       3.33655627      18.75608730       8.28321219      12.17721401
C       -0.02880629       0.17411473       3.55243721       0.25362562      -3.30651845      -5.25799003
N        5.42562441       5.14765199       2.73858561      -2.25206246       0.68148493      -3.81367105
N        3.40247983       4.31424363       2.92736425     -15.64033046      -8.79634393       3.40339601
N        0.93210472       8.11499612       2.92370385     -16.84292623      20.32260991     -19.22989885
N        7.85067636       1.25477304       2.76009489      26.75864276     -29.19853460     -32.47860589
H        4.48264109       4.97636682       4.56984457      -0.86904057      -0.65112297      -2.78030364
H        6.33656463       5.24748194       3.09437332       1.11496541       0.55777584       1.05106336
H        5.29830039       5.19592055       1.70288552       0.96483748      -0.11935375       0.73065938
H        3.01484742       4.00261466       2.22959691      -3.77762071      -3.15328344     -11.15378457
H        2.58093493       3.45300864       3.51513286       2.00102091       2.83993374       0.17524395
H        8.35588395       0.25666603       4.25965896      -0.00310775      -0.48938208       4.72017908
H        1.32407145       7.64547922       3.39801733      12.79283128     -15.42183738      15.42853532
H        0.77223921       7.91692905       1.62609224       1.09835064       0.43504367       4.82538728
H        7.84906905       1.23674627       1.66138605      -0.62614691       0.99454959       2.53469313
H        7.50433937       1.65096372       3.21580310     -23.50744988      26.60361691      29.31177621
Pb       0.01380539       4.61587475       5.93777602      -0.22915456      -0.16559852       0.13845388
Pb       4.59987043       9.15701665      -0.13138426      -0.43220884       0.55832413       0.25738596
I        0.12678527       4.52533126       2.92302410      -0.17434430      -0.02289451      -0.11195581
I        4.38789867       0.15438161       3.06459508      -0.13256686       0.10330591      -0.43332158
I        1.68042963       1.99212404       6.01818263       0.18043739       0.02972677      -0.10424378
I        2.59243655       6.44932326       5.84260588      -0.27910367       0.19638014       0.39769287
I        6.27709046       2.58276998       5.79839294      -0.01582520       0.15731757       0.07184809
I        6.74811687       7.27605093       5.70785269       0.86108962      -0.43841170       0.14024667
24
Lattice="8.95158397 0.0 0.0 0.0 8.95158397 0.0 0.0 0.0 6.32897243" Properties=species:S:1:pos:R:3:forces:R:3 config_id=t-FAPI3_al_global_rattle_01__global_rattle__sev-0.815__seed-new phase=t-FAPI3 mode=active_learning seed=3539033898 source=t-FAPI3/CONTCAR energy=-97.80112595 stress="-0.04474508866831669 0.026964240102585326 -0.02665047739161218 0.026964240102585326 -0.031199808929330247 0.04393870629247419 -0.02665047739161218 0.04393870629247419 -0.051341344463587874" pbc="T T T"
C        4.41360739       4.61338651       3.74906593      -4.58062590       0.45024736     -16.16711781
C        8.72210752       8.89384464       3.62317128      22.95454249     -18.39114623      15.09151834
N        5.46854037       5.15553535       3.04494452      -9.49825816     -13.78638597      -3.74784322
N        3.49425071       3.67571364       3.05630876       4.61997063       5.86395613       1.84874360
N        0.97809984       8.52001584       3.29267120       4.92121387      -9.08740758      -5.66056620
N        8.07804490       0.48599752       3.03481854     -26.80706134      24.66693328     -18.07447649
H        4.67667824       4.27698491       4.50384387       3.31807522      -4.72180876      14.04997632
H        5.77639994       5.91458616       2.96815522       7.13518794      16.00258742       1.91976721
H        5.18641473       5.43065324       1.94851663      -0.00447177      -2.26263071       1.76500539
H        3.40149610       3.64027495       2.09085984       0.59371280       1.31634858      -3.03337610
H        2.94525025       2.91067887       3.21894398      -1.68086336      -2.59244165       3.20200794
H        8.71876383       0.06773977       4.55021372      -0.56852055      -0.04764533       8.85710371
H        1.31594926       7.37490926       3.63470165      -1.12418606       4.08099095      -0.22929381
H        0.92099437       8.10137067       2.04071039       0.52455673       1.90425884       3.65276341
H        7.96051633       0.93597305       2.15570902       0.30055866      -0.59041604      -1.49665264
H        7.64783804       1.55071700       3.86996354      -0.42186537      -2.21826804      -1.98282407
Pb       8.93914118       4.54675155       0.00466692       0.06261998      -0.01911519      -0.18592263
Pb       4.45257131       0.01703898       6.25692695      -0.35104945      -0.32642762       0.09193943
I        0.03229731       4.39365395       3.03953236      -0.12121739      -0.07159769       0.16031655
I        4.47203957       0.10705871       3.12238405       0.03175006      -0.14886269      -0.20635607
I        2.15272579       1.97153418       6.21835497      -0.96301703       0.62963939       0.09480922
I        2.49004448       6.50719740       6.21675810      -0.32813655      -0.54803443       0.01843443
I        6.11512232       2.45418703       6.02144025       1.28471516       0.67868118      -0.12034085
I        6.91724100       7.22076728       6.32041933       0.70236939      -0.78145519       0.15238436
24
Lattice="8.95158397 0.0 0.0 0.0 8.95158397 0.0 0.0 0.0 6.32897243" Properties=species:S:1:pos:R:3:forces:R:3 config_id=t-FAPI3_al_global_rattle_02__global_rattle__sev-0.845__seed-new phase=t-FAPI3 mode=active_learning seed=3409046655 source=t-FAPI3/CONTCAR energy=-103.84243669 stress="0.013900775308329852 -0.008942825443830118 0.012701203110702637 -0.008942825443830118 0.005482686818644159 0.014697286157029412 0.012701203110702637 0.014697286157029412 -0.005711495356504956" pbc="T T T"
C        4.45390196       4.71255977       3.72686035      -2.87319522      -5.24097131      -4.77275246
C        0.12140084       8.90575195       3.85357923      -2.73193397       2.15183499     -20.76305289
N        5.23514501       5.43722102       3.02481687       2.26486351       0.85058254       0.17416782
N        3.50337318       3.49240973       2.81987525       8.09764345       9.41929864      -4.46876478
N        0.80142940       7.97390101       2.96134398      -4.75430887       5.66603970       7.01098015
N        8.13525018       0.99364372       3.05718273      -0.55246977      -1.88682213      -0.24568509
H        4.58870583       4.50770716       4.77050480      -0.47421141       0.38040777       0.80613646
H        5.87515623       5.94807234       3.64975359       0.24018018       0.49897454      -0.24494396
H        5.68732604       5.33258031       2.06596299      -1.35560795       0.02786170       0.83718573
H        3.86672004       3.62910310       1.84008481      -1.31465579      -1.25798083       1.54478306
H        3.15269739       3.17558211       3.56774771      -4.28526433      -4.66516882       6.23239411
H        0.03314279       8.93138588       4.74024681      -0.68256405      -0.07036839      12.23086463
H        1.09014108       7.45896141       3.69881066       3.11687210      -3.97319883       1.38889684
H        0.91583262       8.16351659       2.04195340       0.78236978       0.11999674      -3.63292855
H        7.85099496       0.90581920       1.90207830       1.73087536      -0.38809227       3.65935864
H        7.16231755       1.51457560       3.38142168       3.19643221      -1.76476280       0.33815961
Pb       0.10743360       4.42424590       6.17426469      -0.35574671       0.93170979      -0.04867190
Pb       4.60865381       0.20674444       6.26903991      -0.38539504      -0.65280298       0.10732776
I        8.90514557       4.36800722       2.97171875      -0.19993710       0.25830845       0.11863006
I        4.64221124       8.84904671       3.22356205      -0.06921363       0.19923475      -0.28864516
I        1.87564070       2.18032299       6.31471566       0.69503267      -1.05882427      -0.15281770
I        2.59259203       6.61765100       6.18469268      -0.29243952      -0.23048179      -0.01980412
I        6.35594455       2.59681772       6.30385628       0.34070346       0.64589969       0.07585757
I        7.04105009       7.09319342       6.15999399      -0.13802936       0.03932513       0.11332416
24
Lattice="8.95158397 0.0 0.0 0.0 8.95158397 0.0 0.0 0.0 6.32897243" Properties=species:S:1:pos:R:3:forces:R:3 config_id=t-FAPI3_al_global_rattle_03__global_rattle__sev-0.875__seed-parity phase=t-FAPI3 mode=active_learning seed=4169345450 source=t-FAPI3/CONTCAR energy=-98.36292934 stress="-0.010963898437881888 -0.01581945888546572 0.026958306749248005 -0.01581945888546572 -0.03131063499413161 0.03384188088010328 0.026958306749248005 0.03384188088010328 -0.055710692124212535" pbc="T T T"
C        4.74171776       4.54531151       3.70993889      -7.77910635     -25.57483699      -0.28034797
C        8.89418498       0.17627647       3.77393360       5.26984844      -5.23975503     -11.59305064
N        5.01381056       5.27797699       2.98002509      14.26583621      21.76590841     -16.20761350
N        3.56645213       3.61522278       3.23736990      13.80492430      10.08672221     -11.42653761
N        0.89136525       8.06717490       2.86279214       0.34822383       2.98974664      15.77579297
N        8.05281970       0.75062764       3.09155367      -4.37646627       5.42860833      -4.59045550
H        4.36074211       4.81151004       4.39091506      -7.00526588       5.56779607      19.35468262
H        5.85072700       6.11452400       3.32637943      -2.60626563      -1.66684703      -0.09915133
H        5.30084587       5.38666319       2.05588980      -0.46708320      -0.79794033      -3.04825436
H        3.62593460       3.51380115       2.11856200      -0.63417713      -0.06248127       3.28922047
H        3.02276703       3.13937081       3.64517097      -9.53238076      -9.05759533       8.35281204
H        8.83663032       0.01149509       4.68726818       0.06728759      -1.14355147       8.66674108
H        1.20421703       7.41873523       3.86062774      -0.64856117       1.27793531      -4.79372979
H        0.68924448       8.01374048       1.97969834      -1.64694964      -1.28046101      -6.49851521
H        8.03508929       0.88033064       1.80619259      -0.07168564      -0.44081937       4.26191960
H        7.36851953       1.46204350       3.58466461       1.24161082      -1.48532913      -1.17633894
Pb       8.90538878       4.28361938       6.25954626       0.33984420       0.78141007       0.24096868
Pb       4.48216614       0.17377611       6.30623300      -0.37996255      -1.04431142      -0.02250766
I        8.63785736       4.53249651       3.27139345      -0.01539198      -0.11988075      -0.32929326
I        4.76347235       0.01295267       3.12615796      -0.11435162      -0.15226421       0.04183114
I        1.99391654       1.97327410       6.28185829      -0.02892107      -0.14744772       0.05648603
I        2.61804380       6.44477917       0.06212216      -0.14472741      -0.12657297      -0.18162911
I        6.52246693       2.34238971       0.01901521       0.36062408       0.35785756       0.09098573
I        7.12508201       6.95303445       6.28540404      -0.24690318       0.08410944       0.11598453
24
Lattice="8.95158397 0.0 0.0 0.0 8.95158397 0.0 0.0 0.0 6.32897243" Properties=species:S:1:pos:R:3:forces:R:3 config_id=t-FAPI3_al_global_rattle_04__global_rattle__sev-0.905__seed-new phase=t-FAPI3 mode=active_learning seed=1587707476 source=t-FAPI3/CONTCAR energy=-102.32684168 stress="-0.04001732459308147 -0.013587695618183373 -0.024479146625180862 -0.013587695618183373 -0.011332651153612441 -0.006976474906005569 -0.024479146625180862 -0.006976474906005569 -0.02653894837684552" pbc="T T T"
C        4.55931554       4.07234615       3.41336945      23.81193757      18.31669599      19.74056986
C        0.00205090       0.06066148       3.59699294       1.52499822      -2.00933179       0.42817160
N        4.92149583       5.43514085       3.09483708       7.52760983       0.61330203      -2.27391993
N        3.71204660       3.67681415       2.96724632     -30.22576843     -19.39338048     -18.31648161
N        0.87535302       8.12223117       3.17873248      -6.21913708       6.59266173      -9.32591088
N        8.13984422       0.82357213       2.92144026       1.83965602      -0.85612226       5.56619032
H        4.40936810       4.42246758       4.74543663       0.78099084      -2.30946891      -2.14715543
H        6.06663106       5.78839792       3.41124829      -3.60870119      -1.36063267       0.76679940
H        5.51333383       5.31811393       2.19754733      -1.93146266       0.49790289      -0.54169248
H        3.46102261       3.53380964       1.65505439       0.65215468       0.84611760       2.63502785
H        2.91194937       2.82373554       3.27694750       2.72231547       2.52644276       0.02326356
H        0.13448985       8.92676069       4.59956173      -1.20518332       1.31696873       3.78995086
H        1.47115433       7.61939716       3.63046143       4.83530844      -3.94017854       3.85746789
H        0.91945452       8.41036476       2.13161456       1.36878021      -2.31559018       1.42853797
H        8.06131636       0.72041632       2.01059910      -0.93726861       0.00930050      -5.80159613
H        7.71133941       1.50899017       3.48360130      -1.19504199       1.27053378       0.15202482
Pb       0.02635839       4.69993141       0.14856902      -0.34499115      -0.58880785      -0.42990097
Pb       4.56553699       8.90840162       6.06419291      -0.14489379       0.40686119       0.05577797
I        0.00912918       4.71228531       3.10803014      -0.02154910      -0.19422670       0.46434536
I        4.40234666       0.03873449       2.92713507      -0.10408036       0.05063691       0.17964922
I        2.09347651       2.19587556       6.06300584       0.14453874       0.16447586       0.27080743
I        2.23484664       6.68879837       6.21490960       0.42062918       0.30353706      -0.03183215
I        6.39052613       2.54929564       0.42088293       0.06763872       0.00057172      -0.36114380
I        6.76295562       6.87736357       0.19538259       0.24151974       0.05173064      -0.12895072
24
Lattice="8.95158397 0.0 0.0 0.0 8.95158397 0.0 0.0 0.0 6.32897243" Properties=species:S:1:pos:R:3:forces:R:3 config_id=t-FAPI3_al_global_rattle_05__global_rattle__sev-0.935__seed-new phase=t-FAPI3 mode=active_learning seed=2946787446 source=t-FAPI3/CONTCAR energy=-106.73293308 stress="-0.024581500821260767 -0.004697022289741303 0.026245681939238045 -0.004697022289741303 -0.019997674952966085 -0.0011208999474123396 0.026245681939238045 -0.0011208999474123396 -0.024790938055360742" pbc="T T T"
C        4.32609671       4.55466878       3.72938169      -3.54875269      -6.62113988      -1.63878538
C        0.04661009       0.01197283       3.74209134      -4.50315066       5.69890198       0.07808387
N        5.16513565       5.16203930       3.03922718       3.53765191       3.70084243       9.93808814
N        3.59105645       3.49160516       3.25101245       9.39625576       8.94981079     -11.00561723
N        0.71868777       8.18176914       3.14994002       7.74337020      -9.23805411       1.74260355
N        8.33137133       0.94049781       2.98866477      -2.64481400       0.78443083       1.35981226
H        4.58793215       4.29221102       4.67662899       0.32157647       0.66656821       3.75080969
H        5.73647462       5.88536452       3.75161372      -1.13615351      -1.96291731      -2.21477874
H        5.29647490       5.41556848       2.20532291       0.66729675       2.04994684      -9.18394207
H        3.57596972       3.58680938       1.89400462      -0.57514131      -0.93867077       4.72641484
H        2.96914453       3.05185278       3.65158457      -8.51726333      -5.78399279       5.52109997
H        0.23200286       8.82261080       4.79271709      -1.37035103       1.21503272       1.07836588
H        1.39289332       7.48328573       3.72859708      -1.76709071       1.79249877      -1.09699867
H        0.94975008       8.06594030       2.25664822       0.50628278      -0.11242349      -5.27648210
H        8.00322416       1.04783267       1.92279271       1.48736264      -1.06856680       2.60919174
H        7.56557791       1.29197594       3.59287461       0.36161430       0.55084143      -0.62358524
Pb       0.05259360       4.44108070       0.05851565       0.78540713       0.59846559      -0.87847106
Pb       4.52306163       8.94037865       0.17948833       0.24135852       0.37518648      -0.48413549
I        8.90826314       4.20215352       2.86675173       0.10198514       0.40481860       1.11273025
I        4.53421181       8.79641712       3.10476869       0.03313893       0.05926409       0.42944730
I        1.86928221       1.91735141       6.01188851       0.40545364       0.05882698       0.30233705
I        2.37287800       6.86773919       6.28484329      -0.10579533      -0.39782148      -0.09575121
I        6.62160509       2.87086008       6.20733243      -1.17160473      -1.07284833      -0.05451139
I        6.96068357       6.89214550       6.20424629      -0.24863686       0.29099919      -0.09592596
24
Lattice="8.95158397 0.0 0.0 0.0 8.95158397 0.0 0.0 0.0 6.32897243" Properties=species:S:1:pos:R:3:forces:R:3 config_id=t-FAPI3_al_global_rattle_06__global_rattle__sev-0.965__seed-new phase=t-FAPI3 mode=active_learning seed=2433294073 source=t-FAPI3/CONTCAR energy=-104.05508426 stress="0.009080729490819443 0.006598974696510564 -0.003366431952618841 0.006598974696510564 -0.010711632105473299 -0.004857462971912566 -0.003366431952618841 -0.004857462971912566 -0.003297634986935393" pbc="T T T"
C        4.18427121       4.51199085       3.47574419      12.76693919       8.60917047       5.26352483
C        0.17102914       0.10924970       3.47633918       4.90993997      -6.57867696       7.90638640
N        5.45988589       5.24367130       2.85326001      -3.78911196       0.90034203      11.02665058
N        3.64957931       3.56637810       2.97375668      -4.17076738      -4.06844168       4.21576253
N        0.87516709       8.09527786       2.92551536       0.30913017      -0.44804365      -0.90999291
N        8.36879870       0.85949735       2.95865404     -13.15094963       9.84576691      -5.97808344
H        4.65902115       4.43924813       4.72961110      -2.37053893       0.55030150      -3.16632263
H        6.09898673       6.32122807       3.49386588      -2.58838468      -3.65149057      -1.64909120
H        5.67680918       5.24841994       1.97888905       1.21777620       0.08609789      -7.59586675
H        3.57318283       3.43139368       2.08583141      -0.86014130      -1.47920706      -7.47374510
H        2.94316283       3.18968506       3.61482482      -0.27415346      -0.89729869      -0.44023783
H        0.10032837       0.14275154       4.90843976       0.59942985      -0.22935501      -3.84183723
H        1.57889569       7.51020359       3.41355109      -0.64377670       0.58619172      -0.11631561
H        0.62956964       7.84768403       1.94038377       0.65906081       0.09900754       0.72310223
H        7.81874580       1.21766553       1.92572176       3.18890622      -2.12906712       2.13186151
H        7.32813777       1.26583624       3.45292875       3.77444813      -1.22331001       0.04473451
Pb       0.01018816       4.37245830       6.30566181       0.44465691       0.64533146      -0.00122944
Pb       4.60457368       0.33516807       6.30339996       0.32023797      -1.47142545      -0.12049256
I        0.13040963       4.56607891       3.13433594      -0.00703722      -0.15638048      -0.11589829
I        4.42885239       8.95145865       3.01870283       0.35456518       0.10558389       0.21091591
I        2.14738599       1.80400833       0.02285689      -1.00074747       0.79080330      -0.06941419
I        2.40051620       6.52531120       6.18297361       0.02686440      -0.11941510      -0.02279393
I        6.37709920       2.65620002       5.76957532       0.25957084       0.17516166       0.11364847
I        7.02577582       6.88094752       6.15723102       0.02408290       0.05835341      -0.13526587
24
Lattice="8.95158397 0.0 0.0 0.0 8.95158397 0.0 0.0 0.0 6.32897243" Properties=species:S:1:pos:R:3:forces:R:3 config_id=t-FAPI3_al_global_rattle_07__global_rattle__sev-0.995__seed-new phase=t-FAPI3 mode=active_learning seed=1979457046 source=t-FAPI3/CONTCAR energy=-89.66060722 stress="-0.06252887573654452 0.0387287328403388 0.010825062901829106 0.0387287328403388 -0.04250410034444063 -0.03982346730171436 0.010825062901829106 -0.03982346730171436 -0.09470014625119164" pbc="T T T"
C        4.57692698       4.28413392       3.88703753       1.22404121      -0.99829675     -39.11224123
C        0.15716735       0.17494081       3.38243299     -25.57120050      20.39864363      16.96345622
N        5.25696539       5.49719788       2.79718626      -1.81265327      -2.40921986      24.95526789
N        3.68103276       3.85174216       3.13799674      -6.48370089      -4.80892668       8.95833550
N        0.97805409       8.45338804       3.32199953      19.95415709     -12.31353539     -12.09877201
N        8.06965422       1.00286815       3.26240922      19.85217304     -12.23784255     -20.16229034
H        4.60514801       4.44645639       4.61374394       1.71222991       7.40464916      34.89183154
H        5.77383566       5.76636530       3.59047878       2.19200629       1.89413844      -0.61274779
H        5.24628660       5.45056532       1.99424719       0.34492848      -1.47219521     -19.35402550
H        3.84162875       3.47735952       2.35039707       1.78520580      -2.44738010      -8.79620612
H        3.07378121       2.93084052       3.59518298       1.18267589       2.83759542      -0.75565220
H        0.14694741       0.02611472       4.75830337      -1.07475861       1.21347461      -0.79791682
H        1.00963233       7.55552313       3.40849633       1.27236041      -7.63162125       3.39157489
H        0.83166956       8.21390041       2.24907200       2.26941662      -0.26981935      -2.11272963
H        8.15691838       0.84802347       1.94051978      -2.23136314       1.97485076       3.00326047
H        7.50080255       1.34226576       3.70782508     -14.56829922       8.40504815      11.76566929
Pb       0.13161299       4.26412140       6.06163670      -0.51430239       0.49957060       0.92444739
Pb       4.29948391       0.14621267       6.26749210       1.66070115      -1.48419831       0.05842411
I        0.01530792       4.42061979       3.23968643       0.12040993       0.18279404      -0.96176782
I        4.61136739       0.06519403       3.24673096      -0.16161452       0.15707236      -0.15525311
I        2.14055038       1.85899487       0.22380234      -1.37580074       1.02749142       0.14746679
I        2.26474323       6.34988522       0.25923636       0.65956707       0.40538796      -0.00806954
I        6.48536843       2.52031694       0.31648761      -0.41355117      -0.13882518      -0.25544087
I        7.16568559       7.05215005       6.10857343      -0.02262844      -0.18885590       0.12337889
24
Lattice="8.95158397 0.0 0.0 0.0 8.95158397 0.0 0.0 0.0 6.32897243" Properties=species:S:1:pos:R:3:forces:R:3 config_id=t-FAPI3_al_global_rattle_08__global_rattle__sev-1.025__seed-parity phase=t-FAPI3 mode=active_learning seed=2856594127 source=t-FAPI3/CONTCAR energy=-97.46424654 stress="-0.030791829215037817 0.03467202028716559 0.0054292914632948315 0.03467202028716559 -0.05677992942162398 0.011728535285090588 0.0054292914632948315 0.011728535285090588 -0.06983244175922007" pbc="T T T"
C        4.41859297       4.53011279       3.66178858      -0.01792959       4.77244388     -28.72207660
C        0.29690954       8.84934945       3.41062274     -23.81754607      26.35218304      16.20999617
N        5.41874880       5.31080478       2.95365700      -4.87075922      -5.29631132       6.65522640
N        3.46150680       3.57617006       3.20866092       9.12134936      23.06643885     -26.40030902
N        1.00631935       8.12481711       3.17599760      22.07881954     -23.98827314     -12.39468127
N        8.39151586       0.71600480       2.84965465      -3.77307091       3.86012354       2.33158470
H        4.39651040       4.30933209       4.41545059       1.45949185      -4.99863197      26.77807327
H        5.77458366       5.86746923       3.65889966       1.74602688       1.96009879       1.39942994
H        5.45792827       5.61083529       2.06938962      -0.30300922       1.15200892      -4.54637520
H        3.69592363       3.65946312       1.98787860      -2.06335940      -2.06712195       4.16574574
H        3.35761812       3.10531316       3.79759383      -4.92688116     -18.73523195      20.55699304
H        0.33953492       0.13939711       4.64476268      -0.73582222      -0.20515123      -2.39004552
H        1.36055599       7.31067198       3.62878463       0.89479565      -0.60830228       1.14524294
H        0.93372773       8.04084113       2.17461816       1.41477286      -1.70133896      -1.96036808
H        7.89878755       0.87853146       1.97213104       0.87680953      -0.81656263      -0.84779208
H        7.69921548       1.47424012       3.58522624       2.98042107      -2.90417085      -2.14773140
Pb       8.92865180       4.66636628       6.09339238      -1.00293213      -2.16381017       0.81483611
Pb       4.44087087       0.02478532       6.05047663      -0.04181743       0.40970381       0.62415997
I        0.03465749       4.29815792       3.22837377      -0.12555166       0.08200740      -0.91644067
I        4.59129132       0.08167130       3.16444533       0.03371642      -0.04086424      -0.52858346
I        1.91348459       2.09224182       0.05536072       0.64040221      -0.77039701      -0.01345779
I        2.34250895       6.04364016       5.95833654       2.48811448       1.73767075       0.11557771
I        6.53097397       2.58547570       0.07718676      -0.74155789      -0.63813689      -0.07047801
I        7.37023116       7.00808033       6.09728077      -1.31448296       1.54162559       0.14147311
24
Lattice="8.95158397 0.0 0.0 0.0 8.95158397 0.0 0.0 0.0 6.32897243" Properties=species:S:1:pos:R:3:forces:R:3 config_id=t-FAPI3_al_global_rattle_09__global_rattle__sev-1.055__seed-new phase=t-FAPI3 mode=active_learning seed=1578692304 source=t-FAPI3/CONTCAR energy=-96.76094432 stress="-0.0010975878733781108 -0.026772742139116852 0.029540559190264278 -0.026772742139116852 -0.051189644010064435 0.02058449905699685 0.029540559190264278 0.02058449905699685 -0.06087786606903409" pbc="T T T"
C        4.59177014       4.37454760       3.73101874     -18.46187764     -28.39235106      29.95658707
C        8.90303667       0.00479339       3.57246273      -6.88507801       3.64501907       2.35602161
N        4.86571206       4.94477182       2.97614922      26.71651893      37.20265588     -39.22655215
N        3.53686267       3.72068712       3.14265873      -5.08297072      -1.08085046      21.82328338
N        0.49149522       8.03448578       2.93347556       8.00055959      -4.25152887      -1.57542356
N        7.73487286       0.70541248       2.91245179       4.39732112      -1.01341650      -0.83888595
H        4.44568673       4.63105112       4.67366697       0.31022812       0.00232675       5.34269521
H        6.00425552       5.79247958       3.60841154      -1.80960719      -1.11580854      -1.43912408
H        5.30046328       5.43769975       1.90686838      -2.10911661      -2.14880143       3.20876029
H        3.48275464       3.45611204       2.39041751      -0.17691585      -5.81992611     -19.62876025
H        2.97944592       2.95332028       3.67703450       1.12431015       1.57821776      -0.25835926
H        8.83673703       8.90103626       4.83525658       0.41530923       0.35634486      -3.40936568
H        1.44001723       7.55297050       3.49728105      -3.12823472       1.19425764      -1.31393361
H        0.84250008       7.98519898       1.89162068      -1.65476750       0.42884931       1.78864225
H        7.91606841       0.98508601       1.85207011      -0.42359834      -0.95415467       2.38230392
H        7.48598920       1.55119788       3.38841526      -0.27934540       0.68954300       0.71378222
Pb       0.14339560       4.29309007       0.04061871      -0.53405382       0.80421082      -0.04317732
Pb       4.37262668       0.10708395       0.10283175       0.48574491      -0.27778169       0.04658588
I        8.82255002       4.65567505       3.18052807      -0.17682973      -0.19453560       0.06438382
I        4.53957292       8.66826938       3.16327523      -0.26790794       0.02327619      -0.02909808
I        1.83203610       1.86510835       0.04175647       0.07992811      -0.41907057       0.05151001
I        2.75737861       6.61855582       5.99979422      -1.00684784      -1.12825843       0.11142749
I        6.13596841       2.47493277       0.07794978       0.92397526       1.02922332      -0.06407471
I        7.23692462       7.02311371       0.11818666      -0.45674411      -0.15744067      -0.01922851
24
Lattice="8.95158397 0.0 0.0 0.0 8.95158397 0.0 0.0 0.0 6.32897243" Properties=species:S:1:pos:R:3:forces:R:3 config_id=t-FAPI3_al_global_rattle_10__global_rattle__sev-1.085__seed-new phase=t-FAPI3 mode=active_learning seed=1109747908 source=t-FAPI3/CONTCAR energy=-101.1001144 stress="-0.01612311122546621 0.02509607215459376 -0.016459857338844523 0.02509607215459376 -0.03607235715444538 0.010048640699775716 -0.016459857338844523 0.010048640699775716 -0.009604474038771344" pbc="T T T"
C        4.66497503       4.34845776       3.52306339      -2.15201406       2.43775735       9.75447739
C        0.07971520       0.01805123       3.76976256      -3.36514242       2.28190291      -4.28174314
N        5.49231300       5.16911991       2.94274820       1.30995881      -1.70657139       7.66776170
N        3.51023797       3.82587727       3.39166962      -1.75805389      -3.36091538      -9.43716336
N        0.87957521       8.27801004       3.13750194     -11.62539024      21.98565736     -17.41131162
N        8.21396011       0.75698649       3.01669446      -3.70771813       3.11860253       2.71304297
H        4.22164005       4.60336602       4.70354795       3.51248873       0.09991574      -0.89557751
H        5.81109529       6.04533971       3.36432498       0.20699644      -0.55325206       1.02814967
H        5.33437815       5.36289243       2.10621772      -1.56857371       1.68998622     -10.53964740
H        3.67695442       3.84140549       1.97017684      -2.13023088      -0.98266897       2.71517778
H        2.80958308       2.95317786       3.71562396       2.49959243       2.39387207      -0.16758360
H        8.88925445       8.69123530       4.73392714      -0.71692655       0.28635361       3.57532206
H        1.22426866       7.66972135       3.37777910      15.88780659     -26.95413819      11.25041997
H        0.75129597       8.00061746       1.68479233       0.55078265       0.94761785       3.99192674
H        7.89654876       0.97807576       2.04571610       1.61475845      -1.13292625       0.03793212
H        7.48016852       1.32020995       3.54364476       1.22388473      -0.84965339      -0.08735237
Pb       0.07576325       4.32262286       0.19049701      -0.02839856       0.00312856      -0.28731343
Pb       4.64853240       8.81220646       0.05836407       0.03542483       0.19021936       0.00402644
I        0.10825661       4.30179593       3.16361661      -0.01212525       0.12940126       0.31928674
I        4.25666079       8.93084190       3.17309830       0.28823570      -0.01037072       0.02303749
I        2.19361448       2.15895502       6.30966672       0.31921999      -0.47684872      -0.12714415
I        2.64375768       6.52628451       6.28837827      -0.58251236      -0.31671331       0.16891047
I        6.44878581       2.43264173       6.30868301       0.32838075       0.13079300       0.09010852
I        7.09422590       6.74084565       0.17466356      -0.13044403       0.64885055      -0.10474348
