C  N  H  Pb I                           
   1.0000000000000000     
     9.0746949745617762    0.0109089336466124    0.0040716008965043
     0.0109089336466124    8.8708917189451775    0.0300068774499557
     0.0028787139679253    0.0212155413668303    6.4052450593534891
  C               N               H               Pb              I             
     2     4    10     2     6
Direct
     0.5063820424519250    0.5028486082142791    0.5714103973916664
     0.0008108611220052    0.9976684210690365    0.5630996091028706
     0.5941680430937240    0.5935104223848029    0.4842193012581575
     0.4109965542996008    0.4083831286760358    0.4896615474954942
     0.1061021840375389    0.9199669044165617    0.4963306593388239
     0.9102613241166608    0.0830643213614692    0.4596460431755602
     0.5014553957037151    0.5046613745041029    0.7497703909887719
     0.6557235995734416    0.6576908611589758    0.5643059860442179
     0.5925801889638862    0.5998005043492753    0.3199715805570804
     0.3929970077979235    0.3934872357364085    0.3145589197327183
     0.3421206193377344    0.3367805289628549    0.5711135272530257
     0.9835163843188965    0.0028669296822628    0.7423447320538017
     0.1732097738851550    0.8646735331138728    0.5944212198048788
     0.1237692805474637    0.8996905561253001    0.3339089271179532
     0.9027769565616381    0.0933737075587686    0.2945438716611619
     0.8243567257032325    0.1387534948625415    0.5368206045172244
     0.0037154305105034    0.5046842033650591    0.9935762252427764
     0.4969985103255610    0.9987753792464744    0.9869709136532663
     0.0053110535026804    0.5057054317565317    0.4943238779256376
     0.4983863208861692    0.9953419939658588    0.4935046672932302
     0.2164501484460573    0.2176561997497757    0.9855685441579993
     0.2816563618023551    0.7260061139953464    0.9832512820682950
     0.7153419169198685    0.2798984620208032    0.9838828324972440
     0.7854974559006465    0.7792247653205919    0.9881755505038541

  0.00000000E+00  0.00000000E+00  0.00000000E+00
  0.00000000E+00  0.00000000E+00  0.00000000E+00
  0.00000000E+00  0.00000000E+00  0.00000000E+00
  0.00000000E+00  0.00000000E+00  0.00000000E+00
  0.00000000E+00  0.00000000E+00  0.00000000E+00
  0.00000000E+00  0.00000000E+00  0.00000000E+00
  0.00000000E+00  0.00000000E+00  0.00000000E+00
  0.00000000E+00  0.00000000E+00  0.00000000E+00
  0.00000000E+00  0.00000000E+00  0.00000000E+00
  0.00000000E+00  0.00000000E+00  0.00000000E+00
  0.00000000E+00  0.00000000E+00  0.00000000E+00
  0.00000000E+00  0.00000000E+00  0.00000000E+00
  0.00000000E+00  0.00000000E+00  0.00000000E+00
  0.00000000E+00  0.00000000E+00  0.00000000E+00
  0.00000000E+00  0.00000000E+00  0.00000000E+00
  0.00000000E+00  0.00000000E+00  0.00000000E+00
  0.00000000E+00  0.00000000E+00  0.00000000E+00
  0.00000000E+00  0.00000000E+00  0.00000000E+00
  0.00000000E+00  0.00000000E+00  0.00000000E+00
  0.00000000E+00  0.00000000E+00  0.00000000E+00
  0.00000000E+00  0.00000000E+00  0.00000000E+00
  0.00000000E+00  0.00000000E+00  0.00000000E+00
  0.00000000E+00  0.00000000E+00  0.00000000E+00
  0.00000000E+00  0.00000000E+00  0.00000000E+00
