C  N  H  Pb I 
 1.0000000000000000
     9.0746949745617762    0.0109089336466124    0.0040716008965043
     0.0109089336466124    8.8708917189451775    0.0300068774499557
     0.0028787139679253    0.0212155413668303    6.4052450593534891
 C   N   H   Pb  I  
   2   4  10   2   6
Direct
  0.5063820424519220  0.5028486082142773  0.5714103973916651
  0.0008108611220058  0.9976684210690373  0.5630996091028700
  0.5941680430937206  0.5935104223848006  0.4842193012581605
  0.4109965542996040  0.4083831286760365  0.4896615474954972
  0.1061021840375402  0.9199669044165621  0.4963306593388204
  0.9102613241166627  0.0830643213614724  0.4596460431755570
  0.5014553957037149  0.5046613745041025  0.7497703909887725
  0.6557235995734384  0.6576908611589765  0.5643059860442173
  0.5925801889638880  0.5998005043492723  0.3199715805570797
  0.3929970077979241  0.3934872357364108  0.3145589197327173
  0.3421206193377337  0.3367805289628518  0.5711135272530229
  0.9835163843188940  0.0028669296822597  0.7423447320538015
  0.1732097738851576  0.8646735331138725  0.5944212198048787
  0.1237692805474650  0.8996905561252991  0.3339089271179508
  0.9027769565616393  0.0933737075587711  0.2945438716611612
  0.8243567257032303  0.1387534948625400  0.5368206045172215
  0.0037154305105014  0.5046842033650624  0.9935762252427797
  0.4969985103255626  0.9987753792464710  0.9869709136532669
  0.0053110535026831  0.5057054317565324  0.4943238779256408
  0.4983863208861704  0.9953419939658575  0.4935046672932290
  0.2164501484460589  0.2176561997497745  0.9855685441579976
  0.2816563618023561  0.7260061139953491  0.9832512820682978
  0.7153419169198649  0.2798984620208040  0.9838828324972465
  0.7854974559006438  0.7792247653205917  0.9881755505038570
Cartesian
  0.0000000000000000  0.0000000000000000  0.0000000000000000
  0.0000000000000000  0.0000000000000000  0.0000000000000000
  0.0000000000000000  0.0000000000000000  0.0000000000000000
  0.0000000000000000  0.0000000000000000  0.0000000000000000
  0.0000000000000000  0.0000000000000000  0.0000000000000000
  0.0000000000000000  0.0000000000000000  0.0000000000000000
  0.0000000000000000  0.0000000000000000  0.0000000000000000
  0.0000000000000000  0.0000000000000000  0.0000000000000000
  0.0000000000000000  0.0000000000000000  0.0000000000000000
  0.0000000000000000  0.0000000000000000  0.0000000000000000
  0.0000000000000000  0.0000000000000000  0.0000000000000000
  0.0000000000000000  0.0000000000000000  0.0000000000000000
  0.0000000000000000  0.0000000000000000  0.0000000000000000
  0.0000000000000000  0.0000000000000000  0.0000000000000000
  0.0000000000000000  0.0000000000000000  0.0000000000000000
  0.0000000000000000  0.0000000000000000  0.0000000000000000
  0.0000000000000000  0.0000000000000000  0.0000000000000000
  0.0000000000000000  0.0000000000000000  0.0000000000000000
  0.0000000000000000  0.0000000000000000  0.0000000000000000
  0.0000000000000000  0.0000000000000000  0.0000000000000000
  0.0000000000000000  0.0000000000000000  0.0000000000000000
  0.0000000000000000  0.0000000000000000  0.0000000000000000
  0.0000000000000000  0.0000000000000000  0.0000000000000000
  0.0000000000000000  0.0000000000000000  0.0000000000000000
