C  N  H  Pb I                           
   1.0000000000000000     
     8.9682544835130376    0.0607075756873075    0.0129361069146337
     0.0590812689320172    8.6617441180222947   -0.0206594453306361
     0.0183529973480573   -0.0301172378270319   12.7129481125941890
  C               N               H               Pb              I             
     4     8    20     4    12
Direct
     0.5062962202811718    0.0473617458900719    0.2485034452748636
     0.0048141835703888    0.4582190076288413    0.7469493083243393
     0.9921426386688523    0.5382968157204218    0.2440343900365463
     0.4907380290198944    0.9857686360692384    0.7527111476848845
     0.5657972947759404    0.9348703015338984    0.1896892614140668
     0.0668775951312099    0.5663724522603815    0.6899299085281996
     0.1293752590780315    0.5784438890747978    0.2385823321852385
     0.6124665741789741    0.9042766726611760    0.7592070556427046
     0.3776893204446310    0.0816019406990591    0.2406779963159877
     0.8760463207606293    0.4147863345179772    0.7419051415584264
     0.9252049721023567    0.4348711961026765    0.1914901541223912
     0.4435589877116044    0.0447824862540074    0.6629715687956192
     0.5703071921271530    0.0969410184629140    0.3108054422510520
     0.0751392746808577    0.4000220625825719    0.8075087865278761
     0.9191426741295956    0.5939440580652544    0.3083689633385944
     0.4247330577908670    0.0043841865122971    0.8230589479143404
     0.6765278086874247    0.9116439267190088    0.1971979785230360
     0.1821398028852457    0.5807606013005397    0.7019945499294522
     0.1707530589187840    0.6599357088029763    0.2940283102477395
     0.6412969183469031    0.8657674174672181    0.8310475580415471
     0.5159158908319625    0.8810312739903878    0.1322591794218511
     0.0143571929989150    0.6258072589792079    0.6302848134772532
     0.2062693289365072    0.5375034241405956    0.1914106676947611
     0.6808872581995686    0.8854155215687669    0.7035593535632216
     0.2934034296169230    0.0380264886886295    0.1863902902871715
     0.8010737879717453    0.4622945880778175    0.6850986098021110
     0.9886774931601892    0.3847237123628986    0.1318740960700637
     0.5065379668532088    0.0383398910878299    0.5953210744113520
     0.3286266030337757    0.1631562514753213    0.2900751850325562
     0.8244512494849801    0.3402242063785010    0.7916894956614655
     0.8140826108135570    0.4151752839333511    0.1990083350257379
     0.3467841870453796    0.1066607422943591    0.6634430329846239
     0.4994370187825297    0.4882697437686829    0.9834168579246239
     0.0046822642606017    0.0139017781882700    0.4827127875552364
     0.9968589289683436    0.9864297543075935    0.9819871183703270
     0.4929861420179336    0.5139045421360890    0.4764641102050859
     0.7992673302512188    0.7087639923258635    0.5070156268745123
     0.9561439917994790    0.9899474704501543    0.2261084514719371
     0.7040383095045115    0.2010815624113178    0.9617531654610261
     0.2077603588782608    0.2916454072371195    0.0046636787176837
     0.2065522918467337    0.3041927249374652    0.4589397197117933
     0.2927725597134341    0.8080512409548462    0.4590111965641483
     0.7910119857513749    0.6961276743812661    0.9618404844680484
     0.7019172735744661    0.2075550761678500    0.5034678867209834
     0.4577197018868162    0.5058708041243420    0.7290612687652001
     0.0388728813502013    0.0064606781288674    0.7354192576019685
     0.3003296371985229    0.7931600781511534    0.0024191127558595
     0.5411836248583626    0.4941292992080974    0.2339339357982482

  0.00000000E+00  0.00000000E+00  0.00000000E+00
  0.00000000E+00  0.00000000E+00  0.00000000E+00
  0.00000000E+00  0.00000000E+00  0.00000000E+00
  0.00000000E+00  0.00000000E+00  0.00000000E+00
  0.00000000E+00  0.00000000E+00  0.00000000E+00
  0.00000000E+00  0.00000000E+00  0.00000000E+00
  0.00000000E+00  0.00000000E+00  0.00000000E+00
  0.00000000E+00  0.00000000E+00  0.00000000E+00
  0.00000000E+00  0.00000000E+00  0.00000000E+00
  0.00000000E+00  0.00000000E+00  0.00000000E+00
  0.00000000E+00  0.00000000E+00  0.00000000E+00
  0.00000000E+00  0.00000000E+00  0.00000000E+00
  0.00000000E+00  0.00000000E+00  0.00000000E+00
  0.00000000E+00  0.00000000E+00  0.00000000E+00
  0.00000000E+00  0.00000000E+00  0.00000000E+00
  0.00000000E+00  0.00000000E+00  0.00000000E+00
  0.00000000E+00  0.00000000E+00  0.00000000E+00
  0.00000000E+00  0.00000000E+00  0.00000000E+00
  0.00000000E+00  0.00000000E+00  0.00000000E+00
  0.00000000E+00  0.00000000E+00  0.00000000E+00
  0.00000000E+00  0.00000000E+00  0.00000000E+00
  0.00000000E+00  0.00000000E+00  0.00000000E+00
  0.00000000E+00  0.00000000E+00  0.00000000E+00
  0.00000000E+00  0.00000000E+00  0.00000000E+00
  0.00000000E+00  0.00000000E+00  0.00000000E+00
  0.00000000E+00  0.00000000E+00  0.00000000E+00
  0.00000000E+00  0.00000000E+00  0.00000000E+00
  0.00000000E+00  0.00000000E+00  0.00000000E+00
  0.00000000E+00  0.00000000E+00  0.00000000E+00
  0.00000000E+00  0.00000000E+00  0.00000000E+00
  0.00000000E+00  0.00000000E+00  0.00000000E+00
  0.00000000E+00  0.00000000E+00  0.00000000E+00
  0.00000000E+00  0.00000000E+00  0.00000000E+00
  0.00000000E+00  0.00000000E+00  0.00000000E+00
  0.00000000E+00  0.00000000E+00  0.00000000E+00
  0.00000000E+00  0.00000000E+00  0.00000000E+00
  0.00000000E+00  0.00000000E+00  0.00000000E+00
  0.00000000E+00  0.00000000E+00  0.00000000E+00
  0.00000000E+00  0.00000000E+00  0.00000000E+00
  0.00000000E+00  0.00000000E+00  0.00000000E+00
  0.00000000E+00  0.00000000E+00  0.00000000E+00
  0.00000000E+00  0.00000000E+00  0.00000000E+00
  0.00000000E+00  0.00000000E+00  0.00000000E+00
  0.00000000E+00  0.00000000E+00  0.00000000E+00
  0.00000000E+00  0.00000000E+00  0.00000000E+00
  0.00000000E+00  0.00000000E+00  0.00000000E+00
  0.00000000E+00  0.00000000E+00  0.00000000E+00
  0.00000000E+00  0.00000000E+00  0.00000000E+00
