C  N  H  Pb I 
 1.0000000000000000
     8.9682544835130376    0.0607075756873075    0.0129361069146337
     0.0590812689320172    8.6617441180222947   -0.0206594453306361
     0.0183529973480573   -0.0301172378270319   12.7129481125941890
 C   N   H   Pb  I  
   4   8  20   4  12
Direct
  0.5062962202811703  0.0473617458900701  0.2485034452748606
  0.0048141835703856  0.4582190076288384  0.7469493083243415
  0.9921426386688523  0.5382968157204228  0.2440343900365476
  0.4907380290198933  0.9857686360692388  0.7527111476848847
  0.5657972947759414  0.9348703015338957  0.1896892614140663
  0.0668775951312098  0.5663724522603792  0.6899299085282016
  0.1293752590780321  0.5784438890747969  0.2385823321852360
  0.6124665741789717  0.9042766726611764  0.7592070556427027
  0.3776893204446319  0.0816019406990595  0.2406779963159901
  0.8760463207606263  0.4147863345179779  0.7419051415584296
  0.9252049721023586  0.4348711961026734  0.1914901541223880
  0.4435589877116029  0.0447824862540041  0.6629715687956174
  0.5703071921271543  0.0969410184629153  0.3108054422510522
  0.0751392746808570  0.4000220625825715  0.8075087865278775
  0.9191426741295959  0.5939440580652523  0.3083689633385930
  0.4247330577908687  0.0043841865122936  0.8230589479143396
  0.6765278086874233  0.9116439267190075  0.1971979785230375
  0.1821398028852483  0.5807606013005400  0.7019945499294508
  0.1707530589187825  0.6599357088029785  0.2940283102477373
  0.6412969183468997  0.8657674174672182  0.8310475580415443
  0.5159158908319624  0.8810312739903856  0.1322591794218514
  0.0143571929989124  0.6258072589792056  0.6302848134772506
  0.2062693289365106  0.5375034241405970  0.1914106676947633
  0.6808872581995690  0.8854155215687696  0.7035593535632197
  0.2934034296169202  0.0380264886886310  0.1863902902871722
  0.8010737879717474  0.4622945880778199  0.6850986098021103
  0.9886774931601864  0.3847237123628980  0.1318740960700630
  0.5065379668532121  0.0383398910878313  0.5953210744113498
  0.3286266030337744  0.1631562514753190  0.2900751850325534
  0.8244512494849803  0.3402242063785011  0.7916894956614624
  0.8140826108135577  0.4151752839333492  0.1990083350257391
  0.3467841870453812  0.1066607422943582  0.6634430329846268
  0.4994370187825299  0.4882697437686799  0.9834168579246264
  0.0046822642605994  0.0139017781882717  0.4827127875552334
  0.9968589289683419  0.9864297543075969  0.9819871183703300
  0.4929861420179349  0.5139045421360885  0.4764641102050843
  0.7992673302512187  0.7087639923258652  0.5070156268745145
  0.9561439917994777  0.9899474704501532  0.2261084514719358
  0.7040383095045142  0.2010815624113151  0.9617531654610261
  0.2077603588782604  0.2916454072371177  0.0046636787176864
  0.2065522918467352  0.3041927249374680  0.4589397197117920
  0.2927725597134311  0.8080512409548486  0.4590111965641483
  0.7910119857513779  0.6961276743812639  0.9618404844680474
  0.7019172735744641  0.2075550761678507  0.5034678867209799
  0.4577197018868189  0.5058708041243438  0.7290612687652014
  0.0388728813502016  0.0064606781288685  0.7354192576019682
  0.3003296371985250  0.7931600781511527  0.0024191127558627
  0.5411836248583638  0.4941292992080998  0.2339339357982510
Cartesian
  0.0000000000000000  0.0000000000000000  0.0000000000000000
  0.0000000000000000  0.0000000000000000  0.0000000000000000
  0.0000000000000000  0.0000000000000000  0.0000000000000000
  0.0000000000000000  0.0000000000000000  0.0000000000000000
  0.0000000000000000  0.0000000000000000  0.0000000000000000
  0.0000000000000000  0.0000000000000000  0.0000000000000000
  0.0000000000000000  0.0000000000000000  0.0000000000000000
  0.0000000000000000  0.0000000000000000  0.0000000000000000
  0.0000000000000000  0.0000000000000000  0.0000000000000000
  0.0000000000000000  0.0000000000000000  0.0000000000000000
  0.0000000000000000  0.0000000000000000  0.0000000000000000
  0.0000000000000000  0.0000000000000000  0.0000000000000000
  0.0000000000000000  0.0000000000000000  0.0000000000000000
  0.0000000000000000  0.0000000000000000  0.0000000000000000
  0.0000000000000000  0.0000000000000000  0.0000000000000000
  0.0000000000000000  0.0000000000000000  0.0000000000000000
  0.0000000000000000  0.0000000000000000  0.0000000000000000
  0.0000000000000000  0.0000000000000000  0.0000000000000000
  0.0000000000000000  0.0000000000000000  0.0000000000000000
  0.0000000000000000  0.0000000000000000  0.0000000000000000
  0.0000000000000000  0.0000000000000000  0.0000000000000000
  0.0000000000000000  0.0000000000000000  0.0000000000000000
  0.0000000000000000  0.0000000000000000  0.0000000000000000
  0.0000000000000000  0.0000000000000000  0.0000000000000000
  0.0000000000000000  0.0000000000000000  0.0000000000000000
  0.0000000000000000  0.0000000000000000  0.0000000000000000
  0.0000000000000000  0.0000000000000000  0.0000000000000000
  0.0000000000000000  0.0000000000000000  0.0000000000000000
  0.0000000000000000  0.0000000000000000  0.0000000000000000
  0.0000000000000000  0.0000000000000000  0.0000000000000000
  0.0000000000000000  0.0000000000000000  0.0000000000000000
  0.0000000000000000  0.0000000000000000  0.0000000000000000
  0.0000000000000000  0.0000000000000000  0.0000000000000000
  0.0000000000000000  0.0000000000000000  0.0000000000000000
  0.0000000000000000  0.0000000000000000  0.0000000000000000
  0.0000000000000000  0.0000000000000000  0.0000000000000000
  0.0000000000000000  0.0000000000000000  0.0000000000000000
  0.0000000000000000  0.0000000000000000  0.0000000000000000
  0.0000000000000000  0.0000000000000000  0.0000000000000000
  0.0000000000000000  0.0000000000000000  0.0000000000000000
  0.0000000000000000  0.0000000000000000  0.0000000000000000
  0.0000000000000000  0.0000000000000000  0.0000000000000000
  0.0000000000000000  0.0000000000000000  0.0000000000000000
  0.0000000000000000  0.0000000000000000  0.0000000000000000
  0.0000000000000000  0.0000000000000000  0.0000000000000000
  0.0000000000000000  0.0000000000000000  0.0000000000000000
  0.0000000000000000  0.0000000000000000  0.0000000000000000
  0.0000000000000000  0.0000000000000000  0.0000000000000000
