C  N  H  Pb I                           
   1.0000000000000000     
     9.0193899931757802    0.0000000000000000    0.0000000000000000
     0.0000000000000000    8.7777678445653162    0.0000000000000000
     0.0000000000000000    0.0000000000000000   12.7961868062944486
  C               N               H               Pb              I             
     4     8    20     4    12
Direct
     0.5036160278593158    0.0318184644101720    0.2457315771187893
     0.0021640368750226    0.4699638841257325    0.7490433275773185
     0.9902408934179192    0.5364983108803187    0.2526244938344178
     0.4984086600410293    0.9578529891984005    0.7454873004261628
     0.5631877708892645    0.9355949043196077    0.1947592771836639
     0.0683047209787162    0.5620553636022265    0.6926239655845734
     0.1324967419947569    0.5871160752924283    0.2418946739762475
     0.6302359767311714    0.9248277392152531    0.7439167380875489
     0.3727350908853637    0.0979290924300429    0.2359656008381137
     0.8639022789491406    0.4082291780514566    0.7390187850406065
     0.9233480088570403    0.4365181272919827    0.1883193064872515
     0.4325961017822237    0.0574554328231400    0.6782473624903176
     0.5810886135823949    0.1036908337081499    0.3049514543674832
     0.0709856185934825    0.4120288111073407    0.8094715305767650
     0.9290977615908389    0.5951281674466884    0.3168727235016746
     0.4210455514891152    0.9073708819685322    0.8107654846849996
     0.6783589726222985    0.9113604097402970    0.1988838764038974
     0.1889275136785002    0.5847172036133514    0.6944425249650976
     0.1727765656022413    0.6553298857043899    0.2872594123262857
     0.6697155282688030    0.8541805966639373    0.7898861106244297
     0.5119522955464433    0.8943584032994210    0.1331636237569001
     0.0127017391176310    0.6262986524271028    0.6317671618294654
     0.1968918076311610    0.5390541209652184    0.1837372064530385
     0.6980487432550504    0.9646973049698957    0.6811928593780721
     0.2897493292946294    0.0418973415040611    0.1882704777850037
     0.7968098496174250    0.4660953799199632    0.6873077764852340
     0.9868949167033847    0.3763406850865039    0.1350695523919612
     0.4889408487188831    0.1306456229857957    0.6311636054976120
     0.3188260065709869    0.1644811292358384    0.2859147992215156
     0.8215254054798109    0.3332513024077599    0.7883478752196709
     0.8204165397341470    0.4193307505971973    0.1944065108367852
     0.3231150856614420    0.0794990625849792    0.7001037324675252
     0.5042272161203769    0.4933098793328696    0.9878943521665136
     0.0083140718029711    0.9987986220536698    0.4775903624326858
     0.9903804564937886    0.9929029357846844    0.9859763986072494
     0.4925456522406577    0.5164595145913538    0.4788953621731551
     0.7921923625851406    0.7104782302536421    0.4996776011546302
     0.9622662587746476    0.9959124325318314    0.2301989971645426
     0.7074115567936943    0.1971447888906681    0.9592396341623584
     0.2008084003890005    0.2906217567688358    0.0025906820706538
     0.2012217538477543    0.2994863172257141    0.4610332796612084
     0.2953986505205037    0.7992709069292800    0.4683589874692586
     0.7884569403163724    0.6856186908775399    0.9530378917383189
     0.7132770849951271    0.2111434444210829    0.5021720274560977
     0.4641170117946771    0.4971390284182178    0.7323692747832169
     0.0400744077185564    0.0119109558341037    0.7276648350314616
     0.2912174848824378    0.7898514965281507    0.0104666324727205
     0.5251557082923384    0.4891079497418644    0.2320554512780504

  0.00000000E+00  0.00000000E+00  0.00000000E+00
  0.00000000E+00  0.00000000E+00  0.00000000E+00
  0.00000000E+00  0.00000000E+00  0.00000000E+00
  0.00000000E+00  0.00000000E+00  0.00000000E+00
  0.00000000E+00  0.00000000E+00  0.00000000E+00
  0.00000000E+00  0.00000000E+00  0.00000000E+00
  0.00000000E+00  0.00000000E+00  0.00000000E+00
  0.00000000E+00  0.00000000E+00  0.00000000E+00
  0.00000000E+00  0.00000000E+00  0.00000000E+00
  0.00000000E+00  0.00000000E+00  0.00000000E+00
  0.00000000E+00  0.00000000E+00  0.00000000E+00
  0.00000000E+00  0.00000000E+00  0.00000000E+00
  0.00000000E+00  0.00000000E+00  0.00000000E+00
  0.00000000E+00  0.00000000E+00  0.00000000E+00
  0.00000000E+00  0.00000000E+00  0.00000000E+00
  0.00000000E+00  0.00000000E+00  0.00000000E+00
  0.00000000E+00  0.00000000E+00  0.00000000E+00
  0.00000000E+00  0.00000000E+00  0.00000000E+00
  0.00000000E+00  0.00000000E+00  0.00000000E+00
  0.00000000E+00  0.00000000E+00  0.00000000E+00
  0.00000000E+00  0.00000000E+00  0.00000000E+00
  0.00000000E+00  0.00000000E+00  0.00000000E+00
  0.00000000E+00  0.00000000E+00  0.00000000E+00
  0.00000000E+00  0.00000000E+00  0.00000000E+00
  0.00000000E+00  0.00000000E+00  0.00000000E+00
  0.00000000E+00  0.00000000E+00  0.00000000E+00
  0.00000000E+00  0.00000000E+00  0.00000000E+00
  0.00000000E+00  0.00000000E+00  0.00000000E+00
  0.00000000E+00  0.00000000E+00  0.00000000E+00
  0.00000000E+00  0.00000000E+00  0.00000000E+00
  0.00000000E+00  0.00000000E+00  0.00000000E+00
  0.00000000E+00  0.00000000E+00  0.00000000E+00
  0.00000000E+00  0.00000000E+00  0.00000000E+00
  0.00000000E+00  0.00000000E+00  0.00000000E+00
  0.00000000E+00  0.00000000E+00  0.00000000E+00
  0.00000000E+00  0.00000000E+00  0.00000000E+00
  0.00000000E+00  0.00000000E+00  0.00000000E+00
  0.00000000E+00  0.00000000E+00  0.00000000E+00
  0.00000000E+00  0.00000000E+00  0.00000000E+00
  0.00000000E+00  0.00000000E+00  0.00000000E+00
  0.00000000E+00  0.00000000E+00  0.00000000E+00
  0.00000000E+00  0.00000000E+00  0.00000000E+00
  0.00000000E+00  0.00000000E+00  0.00000000E+00
  0.00000000E+00  0.00000000E+00  0.00000000E+00
  0.00000000E+00  0.00000000E+00  0.00000000E+00
  0.00000000E+00  0.00000000E+00  0.00000000E+00
  0.00000000E+00  0.00000000E+00  0.00000000E+00
  0.00000000E+00  0.00000000E+00  0.00000000E+00
