C  N  H  Pb I 
 1.0000000000000000
     9.0193899931757802    0.0000000000000000    0.0000000000000000
     0.0000000000000000    8.7777678445653162    0.0000000000000000
     0.0000000000000000    0.0000000000000000   12.7961868062944486
 C   N   H   Pb  I  
   4   8  20   4  12
Direct
  0.5036160278593170  0.0318184644101719  0.2457315771187858
  0.0021640368750208  0.4699638841257303  0.7490433275773215
  0.9902408934179227  0.5364983108803194  0.2526244938344203
  0.4984086600410273  0.9578529891983997  0.7454873004261653
  0.5631877708892615  0.9355949043196088  0.1947592771836639
  0.0683047209787131  0.5620553636022255  0.6926239655845725
  0.1324967419947599  0.5871160752924306  0.2418946739762492
  0.6302359767311734  0.9248277392152562  0.7439167380875477
  0.3727350908853618  0.0979290924300444  0.2359656008381111
  0.8639022789491440  0.4082291780514554  0.7390187850406066
  0.9233480088570432  0.4365181272919843  0.1883193064872522
  0.4325961017822247  0.0574554328231372  0.6782473624903168
  0.5810886135823961  0.1036908337081532  0.3049514543674822
  0.0709856185934824  0.4120288111073435  0.8094715305767630
  0.9290977615908372  0.5951281674466905  0.3168727235016716
  0.4210455514891153  0.9073708819685332  0.8107654846849986
  0.6783589726222963  0.9113604097402936  0.1988838764038939
  0.1889275136785024  0.5847172036133496  0.6944425249650966
  0.1727765656022390  0.6553298857043893  0.2872594123262876
  0.6697155282688050  0.8541805966639368  0.7898861106244278
  0.5119522955464429  0.8943584032994185  0.1331636237569008
  0.0127017391176343  0.6262986524271018  0.6317671618294678
  0.1968918076311582  0.5390541209652171  0.1837372064530403
  0.6980487432550488  0.9646973049698985  0.6811928593780695
  0.2897493292946328  0.0418973415040603  0.1882704777850046
  0.7968098496174243  0.4660953799199640  0.6873077764852366
  0.9868949167033875  0.3763406850865022  0.1350695523919580
  0.4889408487188844  0.1306456229857980  0.6311636054976139
  0.3188260065709880  0.1644811292358360  0.2859147992215185
  0.8215254054798121  0.3332513024077594  0.7883478752196718
  0.8204165397341446  0.4193307505971948  0.1944065108367822
  0.3231150856614389  0.0794990625849786  0.7001037324675284
  0.5042272161203778  0.4933098793328695  0.9878943521665144
  0.0083140718029743  0.9987986220536730  0.4775903624326855
  0.9903804564937878  0.9929029357846875  0.9859763986072484
  0.4925456522406566  0.5164595145913538  0.4788953621731538
  0.7921923625851371  0.7104782302536395  0.4996776011546337
  0.9622662587746500  0.9959124325318326  0.2301989971645421
  0.7074115567936977  0.1971447888906706  0.9592396341623611
  0.2008084003890037  0.2906217567688330  0.0025906820706555
  0.2012217538477535  0.2994863172257154  0.4610332796612072
  0.2953986505205066  0.7992709069292835  0.4683589874692596
  0.7884569403163693  0.6856186908775372  0.9530378917383203
  0.7132770849951301  0.2111434444210830  0.5021720274560980
  0.4641170117946783  0.4971390284182163  0.7323692747832139
  0.0400744077185549  0.0119109558341018  0.7276648350314641
  0.2912174848824348  0.7898514965281538  0.0104666324727195
  0.5251557082923378  0.4891079497418618  0.2320554512780498
Cartesian
  0.0000000000000000  0.0000000000000000  0.0000000000000000
  0.0000000000000000  0.0000000000000000  0.0000000000000000
  0.0000000000000000  0.0000000000000000  0.0000000000000000
  0.0000000000000000  0.0000000000000000  0.0000000000000000
  0.0000000000000000  0.0000000000000000  0.0000000000000000
  0.0000000000000000  0.0000000000000000  0.0000000000000000
  0.0000000000000000  0.0000000000000000  0.0000000000000000
  0.0000000000000000  0.0000000000000000  0.0000000000000000
  0.0000000000000000  0.0000000000000000  0.0000000000000000
  0.0000000000000000  0.0000000000000000  0.0000000000000000
  0.0000000000000000  0.0000000000000000  0.0000000000000000
  0.0000000000000000  0.0000000000000000  0.0000000000000000
  0.0000000000000000  0.0000000000000000  0.0000000000000000
  0.0000000000000000  0.0000000000000000  0.0000000000000000
  0.0000000000000000  0.0000000000000000  0.0000000000000000
  0.0000000000000000  0.0000000000000000  0.0000000000000000
  0.0000000000000000  0.0000000000000000  0.0000000000000000
  0.0000000000000000  0.0000000000000000  0.0000000000000000
  0.0000000000000000  0.0000000000000000  0.0000000000000000
  0.0000000000000000  0.0000000000000000  0.0000000000000000
  0.0000000000000000  0.0000000000000000  0.0000000000000000
  0.0000000000000000  0.0000000000000000  0.0000000000000000
  0.0000000000000000  0.0000000000000000  0.0000000000000000
  0.0000000000000000  0.0000000000000000  0.0000000000000000
  0.0000000000000000  0.0000000000000000  0.0000000000000000
  0.0000000000000000  0.0000000000000000  0.0000000000000000
  0.0000000000000000  0.0000000000000000  0.0000000000000000
  0.0000000000000000  0.0000000000000000  0.0000000000000000
  0.0000000000000000  0.0000000000000000  0.0000000000000000
  0.0000000000000000  0.0000000000000000  0.0000000000000000
  0.0000000000000000  0.0000000000000000  0.0000000000000000
  0.0000000000000000  0.0000000000000000  0.0000000000000000
  0.0000000000000000  0.0000000000000000  0.0000000000000000
  0.0000000000000000  0.0000000000000000  0.0000000000000000
  0.0000000000000000  0.0000000000000000  0.0000000000000000
  0.0000000000000000  0.0000000000000000  0.0000000000000000
  0.0000000000000000  0.0000000000000000  0.0000000000000000
  0.0000000000000000  0.0000000000000000  0.0000000000000000
  0.0000000000000000  0.0000000000000000  0.0000000000000000
  0.0000000000000000  0.0000000000000000  0.0000000000000000
  0.0000000000000000  0.0000000000000000  0.0000000000000000
  0.0000000000000000  0.0000000000000000  0.0000000000000000
  0.0000000000000000  0.0000000000000000  0.0000000000000000
  0.0000000000000000  0.0000000000000000  0.0000000000000000
  0.0000000000000000  0.0000000000000000  0.0000000000000000
  0.0000000000000000  0.0000000000000000  0.0000000000000000
  0.0000000000000000  0.0000000000000000  0.0000000000000000
  0.0000000000000000  0.0000000000000000  0.0000000000000000
