C  N  H  Pb I                           
   1.0000000000000000     
     9.0193899931757802    0.0000000000000000    0.0000000000000000
     0.0000000000000000    8.7777678445653162    0.0000000000000000
     0.0000000000000000    0.0000000000000000   12.7961868062944486
  C               N               H               Pb              I             
     4     8    20     4    12
Direct
     0.5034704196325990    0.0424119449098157    0.2476722642115661
     0.0066465848205937    0.4598292617401896    0.7472393995079685
     0.9945852953242564    0.5360412495463294    0.2488149725576818
     0.4971338945232233    0.9572308147212709    0.7436207134916799
     0.5653637936028417    0.9366539613774734    0.1901264257862110
     0.0705807386453969    0.5653929734462082    0.6881838749282068
     0.1301285070652938    0.5891109960265695    0.2407476723071653
     0.6319800545969301    0.9160211977751302    0.7393487452887584
     0.3699814100082222    0.0806531471354077    0.2351119144121370
     0.8702539604287622    0.4197794025636981    0.7364019320782873
     0.9295607328263245    0.4384083057101407    0.1894870538040010
     0.4299724951112864    0.0635854674427421    0.6904153038754544
     0.5796764403513777    0.0952539234555516    0.3067358560244102
     0.0756431045404611    0.4024925128661110    0.8054452308414923
     0.9225125015410427    0.5993712627214052    0.3070575724263804
     0.4283765225652587    0.9038041168806643    0.8080350445877045
     0.6838455863775721    0.9108874273692962    0.1984044711450892
     0.1818952592519238    0.5816252852320360    0.6952279144776128
     0.1722357310943750    0.6634268131026744    0.2937990502677650
     0.6773401692726253    0.8432079827066374    0.7875225157712720
     0.5168467447634839    0.8789749036826962    0.1349070690208833
     0.0148478192573620    0.6196718843090849    0.6301874791145607
     0.2050501905328659    0.5314655545621321    0.1865460603179159
     0.6993516208355928    0.9621108532182490    0.6868966161139198
     0.2985004224233094    0.0315377380312540    0.1880950722139190
     0.7994487922362268    0.4661989897423169    0.6869083092964416
     0.9868044814698607    0.3810009800183209    0.1307385929820413
     0.4864982221014174    0.1204642603257895    0.6323040774773006
     0.3255911906566169    0.1630983767035019    0.2932870761639421
     0.8302801293405793    0.3369059801952403    0.7923006571390800
     0.8181565490104035    0.4190772364856699    0.1994908298509941
     0.3153933719949151    0.0854636155620270    0.6980064487746631
     0.5045619846300724    0.4922883033737477    0.9807100381280875
     0.9962368129892738    0.0129924274213238    0.4824764177392424
     0.9981558807498345    0.9897853947813360    0.9829768785328170
     0.4997485153863153    0.5121119712852220    0.4831872968711224
     0.7934840714340936    0.7098684563756947    0.5024435702229439
     0.9619883801381022    0.9952976294965197    0.2314428713992740
     0.7078727185038218    0.1989686253854828    0.9598376468050844
     0.1987791510084094    0.2872068331022888    0.0047551491210669
     0.2119699456436450    0.3015497154750193    0.4661496327457257
     0.2932015813306492    0.8034544575350608    0.4607853925055068
     0.7936043704581408    0.6928071915762644    0.9591181913311928
     0.7031528378492951    0.2111091358030066    0.5033342030953989
     0.4610420007465805    0.5049832936703922    0.7296847823902368
     0.0361738695977749    0.0025796557753139    0.7322673152765944
     0.2897848189456127    0.7879664573171681    0.0077010999122535
     0.5421431056062715    0.4946560244469325    0.2314778088041933

  0.00000000E+00  0.00000000E+00  0.00000000E+00
  0.00000000E+00  0.00000000E+00  0.00000000E+00
  0.00000000E+00  0.00000000E+00  0.00000000E+00
  0.00000000E+00  0.00000000E+00  0.00000000E+00
  0.00000000E+00  0.00000000E+00  0.00000000E+00
  0.00000000E+00  0.00000000E+00  0.00000000E+00
  0.00000000E+00  0.00000000E+00  0.00000000E+00
  0.00000000E+00  0.00000000E+00  0.00000000E+00
  0.00000000E+00  0.00000000E+00  0.00000000E+00
  0.00000000E+00  0.00000000E+00  0.00000000E+00
  0.00000000E+00  0.00000000E+00  0.00000000E+00
  0.00000000E+00  0.00000000E+00  0.00000000E+00
  0.00000000E+00  0.00000000E+00  0.00000000E+00
  0.00000000E+00  0.00000000E+00  0.00000000E+00
  0.00000000E+00  0.00000000E+00  0.00000000E+00
  0.00000000E+00  0.00000000E+00  0.00000000E+00
  0.00000000E+00  0.00000000E+00  0.00000000E+00
  0.00000000E+00  0.00000000E+00  0.00000000E+00
  0.00000000E+00  0.00000000E+00  0.00000000E+00
  0.00000000E+00  0.00000000E+00  0.00000000E+00
  0.00000000E+00  0.00000000E+00  0.00000000E+00
  0.00000000E+00  0.00000000E+00  0.00000000E+00
  0.00000000E+00  0.00000000E+00  0.00000000E+00
  0.00000000E+00  0.00000000E+00  0.00000000E+00
  0.00000000E+00  0.00000000E+00  0.00000000E+00
  0.00000000E+00  0.00000000E+00  0.00000000E+00
  0.00000000E+00  0.00000000E+00  0.00000000E+00
  0.00000000E+00  0.00000000E+00  0.00000000E+00
  0.00000000E+00  0.00000000E+00  0.00000000E+00
  0.00000000E+00  0.00000000E+00  0.00000000E+00
  0.00000000E+00  0.00000000E+00  0.00000000E+00
  0.00000000E+00  0.00000000E+00  0.00000000E+00
  0.00000000E+00  0.00000000E+00  0.00000000E+00
  0.00000000E+00  0.00000000E+00  0.00000000E+00
  0.00000000E+00  0.00000000E+00  0.00000000E+00
  0.00000000E+00  0.00000000E+00  0.00000000E+00
  0.00000000E+00  0.00000000E+00  0.00000000E+00
  0.00000000E+00  0.00000000E+00  0.00000000E+00
  0.00000000E+00  0.00000000E+00  0.00000000E+00
  0.00000000E+00  0.00000000E+00  0.00000000E+00
  0.00000000E+00  0.00000000E+00  0.00000000E+00
  0.00000000E+00  0.00000000E+00  0.00000000E+00
  0.00000000E+00  0.00000000E+00  0.00000000E+00
  0.00000000E+00  0.00000000E+00  0.00000000E+00
  0.00000000E+00  0.00000000E+00  0.00000000E+00
  0.00000000E+00  0.00000000E+00  0.00000000E+00
  0.00000000E+00  0.00000000E+00  0.00000000E+00
  0.00000000E+00  0.00000000E+00  0.00000000E+00
