C  N  H  Pb I 
 1.0000000000000000
     9.0193899931757802    0.0000000000000000    0.0000000000000000
     0.0000000000000000    8.7777678445653162    0.0000000000000000
     0.0000000000000000    0.0000000000000000   12.7961868062944486
 C   N   H   Pb  I  
   4   8  20   4  12
Direct
  0.5034704196326006  0.0424119449098138  0.2476722642115630
  0.0066465848205918  0.4598292617401883  0.7472393995079689
  0.9945852953242598  0.5360412495463274  0.2488149725576799
  0.4971338945232257  0.9572308147212687  0.7436207134916794
  0.5653637936028451  0.9366539613774763  0.1901264257862113
  0.0705807386453941  0.5653929734462091  0.6881838749282093
  0.1301285070652906  0.5891109960265695  0.2407476723071618
  0.6319800545969284  0.9160211977751275  0.7393487452887560
  0.3699814100082215  0.0806531471354080  0.2351119144121372
  0.8702539604287637  0.4197794025636952  0.7364019320782856
  0.9295607328263220  0.4384083057101423  0.1894870538040030
  0.4299724951112832  0.0635854674427391  0.6904153038754537
  0.5796764403513749  0.0952539234555508  0.3067358560244123
  0.0756431045404635  0.4024925128661104  0.8054452308414940
  0.9225125015410451  0.5993712627214056  0.3070575724263772
  0.4283765225652565  0.9038041168806639  0.8080350445877058
  0.6838455863775708  0.9108874273692944  0.1984044711450863
  0.1818952592519207  0.5816252852320374  0.6952279144776122
  0.1722357310943756  0.6634268131026761  0.2937990502677638
  0.6773401692726289  0.8432079827066381  0.7875225157712687
  0.5168467447634838  0.8789749036826973  0.1349070690208806
  0.0148478192573624  0.6196718843090872  0.6301874791145641
  0.2050501905328679  0.5314655545621342  0.1865460603179183
  0.6993516208355958  0.9621108532182504  0.6868966161139207
  0.2985004224233073  0.0315377380312523  0.1880950722139215
  0.7994487922362257  0.4661989897423173  0.6869083092964423
  0.9868044814698574  0.3810009800183241  0.1307385929820394
  0.4864982221014207  0.1204642603257908  0.6323040774772971
  0.3255911906566179  0.1630983767035052  0.2932870761639403
  0.8302801293405818  0.3369059801952411  0.7923006571390783
  0.8181565490104024  0.4190772364856700  0.1994908298509917
  0.3153933719949126  0.0854636155620277  0.6980064487746608
  0.5045619846300756  0.4922883033737447  0.9807100381280874
  0.9962368129892736  0.0129924274213254  0.4824764177392395
  0.9981558807498310  0.9897853947813324  0.9829768785328195
  0.4997485153863127  0.5121119712852239  0.4831872968711194
  0.7934840714340944  0.7098684563756960  0.5024435702229454
  0.9619883801381037  0.9952976294965179  0.2314428713992762
  0.7078727185038250  0.1989686253854835  0.9598376468050862
  0.1987791510084081  0.2872068331022904  0.0047551491210649
  0.2119699456436466  0.3015497154750197  0.4661496327457239
  0.2932015813306514  0.8034544575350618  0.4607853925055093
  0.7936043704581389  0.6928071915762631  0.9591181913311960
  0.7031528378492967  0.2111091358030083  0.5033342030954021
  0.4610420007465832  0.5049832936703953  0.7296847823902356
  0.0361738695977778  0.0025796557753158  0.7322673152765937
  0.2897848189456097  0.7879664573171680  0.0077010999122510
  0.5421431056062733  0.4946560244469332  0.2314778088041952
Cartesian
  0.0000000000000000  0.0000000000000000  0.0000000000000000
  0.0000000000000000  0.0000000000000000  0.0000000000000000
  0.0000000000000000  0.0000000000000000  0.0000000000000000
  0.0000000000000000  0.0000000000000000  0.0000000000000000
  0.0000000000000000  0.0000000000000000  0.0000000000000000
  0.0000000000000000  0.0000000000000000  0.0000000000000000
  0.0000000000000000  0.0000000000000000  0.0000000000000000
  0.0000000000000000  0.0000000000000000  0.0000000000000000
  0.0000000000000000  0.0000000000000000  0.0000000000000000
  0.0000000000000000  0.0000000000000000  0.0000000000000000
  0.0000000000000000  0.0000000000000000  0.0000000000000000
  0.0000000000000000  0.0000000000000000  0.0000000000000000
  0.0000000000000000  0.0000000000000000  0.0000000000000000
  0.0000000000000000  0.0000000000000000  0.0000000000000000
  0.0000000000000000  0.0000000000000000  0.0000000000000000
  0.0000000000000000  0.0000000000000000  0.0000000000000000
  0.0000000000000000  0.0000000000000000  0.0000000000000000
  0.0000000000000000  0.0000000000000000  0.0000000000000000
  0.0000000000000000  0.0000000000000000  0.0000000000000000
  0.0000000000000000  0.0000000000000000  0.0000000000000000
  0.0000000000000000  0.0000000000000000  0.0000000000000000
  0.0000000000000000  0.0000000000000000  0.0000000000000000
  0.0000000000000000  0.0000000000000000  0.0000000000000000
  0.0000000000000000  0.0000000000000000  0.0000000000000000
  0.0000000000000000  0.0000000000000000  0.0000000000000000
  0.0000000000000000  0.0000000000000000  0.0000000000000000
  0.0000000000000000  0.0000000000000000  0.0000000000000000
  0.0000000000000000  0.0000000000000000  0.0000000000000000
  0.0000000000000000  0.0000000000000000  0.0000000000000000
  0.0000000000000000  0.0000000000000000  0.0000000000000000
  0.0000000000000000  0.0000000000000000  0.0000000000000000
  0.0000000000000000  0.0000000000000000  0.0000000000000000
  0.0000000000000000  0.0000000000000000  0.0000000000000000
  0.0000000000000000  0.0000000000000000  0.0000000000000000
  0.0000000000000000  0.0000000000000000  0.0000000000000000
  0.0000000000000000  0.0000000000000000  0.0000000000000000
  0.0000000000000000  0.0000000000000000  0.0000000000000000
  0.0000000000000000  0.0000000000000000  0.0000000000000000
  0.0000000000000000  0.0000000000000000  0.0000000000000000
  0.0000000000000000  0.0000000000000000  0.0000000000000000
  0.0000000000000000  0.0000000000000000  0.0000000000000000
  0.0000000000000000  0.0000000000000000  0.0000000000000000
  0.0000000000000000  0.0000000000000000  0.0000000000000000
  0.0000000000000000  0.0000000000000000  0.0000000000000000
  0.0000000000000000  0.0000000000000000  0.0000000000000000
  0.0000000000000000  0.0000000000000000  0.0000000000000000
  0.0000000000000000  0.0000000000000000  0.0000000000000000
  0.0000000000000000  0.0000000000000000  0.0000000000000000
