C  N  H  Pb I                           
   1.0000000000000000     
     9.0333537281219112    0.0394612576527039   -0.0351143707217324
     0.0384041225395608    8.8609967550788635    0.0125342708053779
    -0.0498182302440337    0.0182723983530281   12.7103293848384311
  C               N               H               Pb              I             
     4     8    20     4    12
Direct
     0.5170959632262750    0.0284453484577014    0.2490927860889727
     0.9901086150918914    0.4453949176663841    0.7450996233728162
     0.9924384002362103    0.5380384493316868    0.2511556024033936
     0.4981657107001780    0.9503867182134798    0.7524145178228281
     0.5791750403538103    0.9300070944415850    0.1884936217143505
     0.0966186054543670    0.5273060583822300    0.6876477420259448
     0.1270818569214995    0.5939745736680777    0.2406417295925394
     0.6445060563466569    0.9277191178863688    0.7422747727524452
     0.3566579198004689    0.0837299373581430    0.2472104894392331
     0.8485001985923475    0.4690946997737058    0.7307559653822651
     0.9336216200710723    0.4313505132901412    0.1927731417555663
     0.4148427780237114    0.0491717601438424    0.6930028826770851
     0.5802596874250767    0.1047363529078496    0.3047241745411498
     0.0300555444056201    0.3507671276908937    0.7983610314272553
     0.9247720298390334    0.6031816519812665    0.3033460406077495
     0.4381606762347658    0.8954459045558139    0.8194069619020183
     0.6921291064030655    0.9230514905420293    0.1984109746365448
     0.2004614019645388    0.4838412526132316    0.7004019195930340
     0.1737085284583912    0.6640653898710198    0.2924415498446393
     0.6847161539874307    0.8738678522590391    0.7972952958439095
     0.5106865805607370    0.8875938598743573    0.1313934385996802
     0.0697173524524928    0.6125522530948331    0.6399702486584715
     0.2102478903395095    0.5289223947152664    0.1879207589261327
     0.6983498175639014    0.9802220541339537    0.6849195677257356
     0.3041604031536167    0.0423355272828871    0.1795314244220307
     0.8091472166693734    0.5535103425030456    0.6893707547362311
     0.9821210264983620    0.3874559382073457    0.1311261352547604
     0.4706426118424929    0.1025280865800156    0.6199155546398103
     0.3257156731416089    0.1577761640525637    0.2933927615969836
     0.7731013999245420    0.4085531449852837    0.7804234982727536
     0.8150267095180936    0.4123184444946517    0.1979484431885439
     0.3066464097038661    0.0515850550508219    0.6983197856948564
     0.5112820758313177    0.4920998432177939    0.9811209526261067
     0.9990593692107694    0.0206398921805047    0.4818401781443455
     0.0013749714407112    0.9813319609226170    0.9835870078912805
     0.4977060186061379    0.5177506478205984    0.4794397332944698
     0.7981944029671411    0.7026575737908232    0.4990671631843711
     0.9657973071446762    0.9946521480289761    0.2323964940136278
     0.7026319551982425    0.1918788912399236    0.9605418755737176
     0.2010672177122146    0.2914047653677301    0.9987346295478261
     0.2019041412005009    0.3001307781280644    0.4590873785375749
     0.2921344114521105    0.7955499203787895    0.4633356545517415
     0.7985739820154478    0.6985910237297048    0.9607465175870118
     0.7047523483600031    0.2098146937911878    0.5056210260280594
     0.4650145303417759    0.5033991420869697    0.7347487951694802
     0.0291150787830432    0.0007933312577819    0.7358270401261677
     0.2991629163830680    0.7840686417713911    0.0011540443090468
     0.5463018785180154    0.4915266037355011    0.2284982774612700

  0.00000000E+00  0.00000000E+00  0.00000000E+00
  0.00000000E+00  0.00000000E+00  0.00000000E+00
  0.00000000E+00  0.00000000E+00  0.00000000E+00
  0.00000000E+00  0.00000000E+00  0.00000000E+00
  0.00000000E+00  0.00000000E+00  0.00000000E+00
  0.00000000E+00  0.00000000E+00  0.00000000E+00
  0.00000000E+00  0.00000000E+00  0.00000000E+00
  0.00000000E+00  0.00000000E+00  0.00000000E+00
  0.00000000E+00  0.00000000E+00  0.00000000E+00
  0.00000000E+00  0.00000000E+00  0.00000000E+00
  0.00000000E+00  0.00000000E+00  0.00000000E+00
  0.00000000E+00  0.00000000E+00  0.00000000E+00
  0.00000000E+00  0.00000000E+00  0.00000000E+00
  0.00000000E+00  0.00000000E+00  0.00000000E+00
  0.00000000E+00  0.00000000E+00  0.00000000E+00
  0.00000000E+00  0.00000000E+00  0.00000000E+00
  0.00000000E+00  0.00000000E+00  0.00000000E+00
  0.00000000E+00  0.00000000E+00  0.00000000E+00
  0.00000000E+00  0.00000000E+00  0.00000000E+00
  0.00000000E+00  0.00000000E+00  0.00000000E+00
  0.00000000E+00  0.00000000E+00  0.00000000E+00
  0.00000000E+00  0.00000000E+00  0.00000000E+00
  0.00000000E+00  0.00000000E+00  0.00000000E+00
  0.00000000E+00  0.00000000E+00  0.00000000E+00
  0.00000000E+00  0.00000000E+00  0.00000000E+00
  0.00000000E+00  0.00000000E+00  0.00000000E+00
  0.00000000E+00  0.00000000E+00  0.00000000E+00
  0.00000000E+00  0.00000000E+00  0.00000000E+00
  0.00000000E+00  0.00000000E+00  0.00000000E+00
  0.00000000E+00  0.00000000E+00  0.00000000E+00
  0.00000000E+00  0.00000000E+00  0.00000000E+00
  0.00000000E+00  0.00000000E+00  0.00000000E+00
  0.00000000E+00  0.00000000E+00  0.00000000E+00
  0.00000000E+00  0.00000000E+00  0.00000000E+00
  0.00000000E+00  0.00000000E+00  0.00000000E+00
  0.00000000E+00  0.00000000E+00  0.00000000E+00
  0.00000000E+00  0.00000000E+00  0.00000000E+00
  0.00000000E+00  0.00000000E+00  0.00000000E+00
  0.00000000E+00  0.00000000E+00  0.00000000E+00
  0.00000000E+00  0.00000000E+00  0.00000000E+00
  0.00000000E+00  0.00000000E+00  0.00000000E+00
  0.00000000E+00  0.00000000E+00  0.00000000E+00
  0.00000000E+00  0.00000000E+00  0.00000000E+00
  0.00000000E+00  0.00000000E+00  0.00000000E+00
  0.00000000E+00  0.00000000E+00  0.00000000E+00
  0.00000000E+00  0.00000000E+00  0.00000000E+00
  0.00000000E+00  0.00000000E+00  0.00000000E+00
  0.00000000E+00  0.00000000E+00  0.00000000E+00
