C  N  H  Pb I 
 1.0000000000000000
     9.0333537281219112    0.0394612576527039   -0.0351143707217324
     0.0384041225395608    8.8609967550788635    0.0125342708053779
    -0.0498182302440337    0.0182723983530281   12.7103293848384311
 C   N   H   Pb  I  
   4   8  20   4  12
Direct
  0.5170959632262776  0.0284453484577048  0.2490927860889714
  0.9901086150918901  0.4453949176663847  0.7450996233728140
  0.9924384002362073  0.5380384493316841  0.2511556024033902
  0.4981657107001784  0.9503867182134800  0.7524145178228259
  0.5791750403538133  0.9300070944415838  0.1884936217143499
  0.0966186054543665  0.5273060583822285  0.6876477420259451
  0.1270818569215028  0.5939745736680790  0.2406417295925411
  0.6445060563466564  0.9277191178863655  0.7422747727524482
  0.3566579198004658  0.0837299373581408  0.2472104894392313
  0.8485001985923470  0.4690946997737041  0.7307559653822671
  0.9336216200710700  0.4313505132901446  0.1927731417555698
  0.4148427780237133  0.0491717601438389  0.6930028826770844
  0.5802596874250739  0.1047363529078524  0.3047241745411500
  0.0300555444056181  0.3507671276908936  0.7983610314272551
  0.9247720298390332  0.6031816519812696  0.3033460406077502
  0.4381606762347665  0.8954459045558160  0.8194069619020176
  0.6921291064030644  0.9230514905420284  0.1984109746365424
  0.2004614019645378  0.4838412526132316  0.7004019195930316
  0.1737085284583892  0.6640653898710223  0.2924415498446363
  0.6847161539874286  0.8738678522590414  0.7972952958439113
  0.5106865805607380  0.8875938598743548  0.1313934385996825
  0.0697173524524935  0.6125522530948301  0.6399702486584715
  0.2102478903395081  0.5289223947152650  0.1879207589261294
  0.6983498175639005  0.9802220541339537  0.6849195677257336
  0.3041604031536142  0.0423355272828850  0.1795314244220323
  0.8091472166693741  0.5535103425030486  0.6893707547362300
  0.9821210264983615  0.3874559382073456  0.1311261352547614
  0.4706426118424940  0.1025280865800147  0.6199155546398070
  0.3257156731416102  0.1577761640525607  0.2933927615969845
  0.7731013999245442  0.4085531449852843  0.7804234982727535
  0.8150267095180971  0.4123184444946550  0.1979484431885462
  0.3066464097038672  0.0515850550508211  0.6983197856948543
  0.5112820758313141  0.4920998432177956  0.9811209526261042
  0.9990593692107722  0.0206398921805031  0.4818401781443483
  0.0013749714407099  0.9813319609226180  0.9835870078912826
  0.4977060186061349  0.5177506478205980  0.4794397332944723
  0.7981944029671405  0.7026575737908246  0.4990671631843696
  0.9657973071446733  0.9946521480289752  0.2323964940136302
  0.7026319551982434  0.1918788912399271  0.9605418755737166
  0.2010672177122134  0.2914047653677322  0.9987346295478233
  0.2019041412005024  0.3001307781280667  0.4590873785375715
  0.2921344114521117  0.7955499203787882  0.4633356545517398
  0.7985739820154450  0.6985910237297075  0.9607465175870086
  0.7047523483600048  0.2098146937911881  0.5056210260280564
  0.4650145303417776  0.5033991420869716  0.7347487951694827
  0.0291150787830419  0.0007933312577828  0.7358270401261673
  0.2991629163830650  0.7840686417713902  0.0011540443090464
  0.5463018785180166  0.4915266037354982  0.2284982774612702
Cartesian
  0.0000000000000000  0.0000000000000000  0.0000000000000000
  0.0000000000000000  0.0000000000000000  0.0000000000000000
  0.0000000000000000  0.0000000000000000  0.0000000000000000
  0.0000000000000000  0.0000000000000000  0.0000000000000000
  0.0000000000000000  0.0000000000000000  0.0000000000000000
  0.0000000000000000  0.0000000000000000  0.0000000000000000
  0.0000000000000000  0.0000000000000000  0.0000000000000000
  0.0000000000000000  0.0000000000000000  0.0000000000000000
  0.0000000000000000  0.0000000000000000  0.0000000000000000
  0.0000000000000000  0.0000000000000000  0.0000000000000000
  0.0000000000000000  0.0000000000000000  0.0000000000000000
  0.0000000000000000  0.0000000000000000  0.0000000000000000
  0.0000000000000000  0.0000000000000000  0.0000000000000000
  0.0000000000000000  0.0000000000000000  0.0000000000000000
  0.0000000000000000  0.0000000000000000  0.0000000000000000
  0.0000000000000000  0.0000000000000000  0.0000000000000000
  0.0000000000000000  0.0000000000000000  0.0000000000000000
  0.0000000000000000  0.0000000000000000  0.0000000000000000
  0.0000000000000000  0.0000000000000000  0.0000000000000000
  0.0000000000000000  0.0000000000000000  0.0000000000000000
  0.0000000000000000  0.0000000000000000  0.0000000000000000
  0.0000000000000000  0.0000000000000000  0.0000000000000000
  0.0000000000000000  0.0000000000000000  0.0000000000000000
  0.0000000000000000  0.0000000000000000  0.0000000000000000
  0.0000000000000000  0.0000000000000000  0.0000000000000000
  0.0000000000000000  0.0000000000000000  0.0000000000000000
  0.0000000000000000  0.0000000000000000  0.0000000000000000
  0.0000000000000000  0.0000000000000000  0.0000000000000000
  0.0000000000000000  0.0000000000000000  0.0000000000000000
  0.0000000000000000  0.0000000000000000  0.0000000000000000
  0.0000000000000000  0.0000000000000000  0.0000000000000000
  0.0000000000000000  0.0000000000000000  0.0000000000000000
  0.0000000000000000  0.0000000000000000  0.0000000000000000
  0.0000000000000000  0.0000000000000000  0.0000000000000000
  0.0000000000000000  0.0000000000000000  0.0000000000000000
  0.0000000000000000  0.0000000000000000  0.0000000000000000
  0.0000000000000000  0.0000000000000000  0.0000000000000000
  0.0000000000000000  0.0000000000000000  0.0000000000000000
  0.0000000000000000  0.0000000000000000  0.0000000000000000
  0.0000000000000000  0.0000000000000000  0.0000000000000000
  0.0000000000000000  0.0000000000000000  0.0000000000000000
  0.0000000000000000  0.0000000000000000  0.0000000000000000
  0.0000000000000000  0.0000000000000000  0.0000000000000000
  0.0000000000000000  0.0000000000000000  0.0000000000000000
  0.0000000000000000  0.0000000000000000  0.0000000000000000
  0.0000000000000000  0.0000000000000000  0.0000000000000000
  0.0000000000000000  0.0000000000000000  0.0000000000000000
  0.0000000000000000  0.0000000000000000  0.0000000000000000
