C  N  H  Pb I                           
   1.0000000000000000     
     9.0193899931757802    0.0000000000000000    0.0000000000000000
     0.0000000000000000    8.7777678445653162    0.0000000000000000
     0.0000000000000000    0.0000000000000000   12.7961868062944486
  C               N               H               Pb              I             
     4     8    20     4    12
Direct
     0.5079545620594885    0.0406959883747646    0.2475946235704427
     0.0113640417184229    0.4591675008987366    0.7453195782251072
     0.9911865713547456    0.5414710098173003    0.2467213967329300
     0.4935907238441928    0.9592420573289004    0.7484225073170734
     0.5705946771768495    0.9354362274290722    0.1897252141182122
     0.0660501804874514    0.5587683567611919    0.6793044088216931
     0.1313185642156469    0.5817415150204539    0.2428610951169645
     0.6355913044458958    0.9271193333514418    0.7428963935164390
     0.3689663406760957    0.0838994856595292    0.2399588837149906
     0.8706598949057920    0.4220053129970012    0.7522712979338806
     0.9298369234105692    0.4369472332788789    0.1875520372873467
     0.4235420968202845    0.0535874282731328    0.6860878053277233
     0.5763163080256462    0.0964013618091926    0.3070350010383294
     0.0885332725544075    0.4031560214327001    0.7989877361652375
     0.9206031441051437    0.5991512977627380    0.3039440027853644
     0.4291676838092613    0.9034587956629778    0.8099766000657809
     0.6816203964682259    0.9153350004290033    0.1981420696355372
     0.1783465566087372    0.5741711702291639    0.6764132307204633
     0.1715783574626784    0.6593218387227466    0.2953084442684215
     0.6827071489720993    0.8576541127298327    0.7978018738552066
     0.5137159496301180    0.8799864858485265    0.1317994637689637
     0.0005319031765794    0.6140712405967790    0.6260344446700259
     0.2050388897825073    0.5327208738785529    0.1927612084561616
     0.7039772704370932    0.9751978958525527    0.6887701454425113
     0.2972319239003340    0.0368550498131768    0.1875867509889702
     0.7912065219746509    0.4698460838911203    0.7061464781886713
     0.9888676844207041    0.3797727622419629    0.1315157663871318
     0.4765232014769012    0.1082982865734792    0.6260342829960379
     0.3272559576570444    0.1618424731988952    0.2915835925839971
     0.8365121352513114    0.3484419068959639    0.8093883061017380
     0.8180488182374432    0.4192085848065190    0.1928921794679397
     0.3112135230632731    0.0651185390537705    0.6934250503259705
     0.5023441722619779    0.4879288203356396    0.9810849892003191
     0.0023441785924945    0.0120711836670608    0.4810849868122489
     0.9976558244282359    0.9879288178551917    0.9810849914872719
     0.4976558298475950    0.5120711849063113    0.4810849885500943
     0.7958928941106862    0.7105293335369609    0.5032699314851357
     0.9606598229172718    0.9944623124655507    0.2320592544955247
     0.7060293635732506    0.1956508126848462    0.9614522052702341
     0.2041070863312058    0.2894707010478257    0.0032699320500740
     0.2060293779368507    0.3043491755398549    0.4614522129329686
     0.2939706246777973    0.8043491828284957    0.4614522154174097
     0.7939706408800902    0.6956508110307098    0.9614522100061293
     0.7041071043942750    0.2105293303375291    0.5032699287679776
     0.4606598128207438    0.5055376617516671    0.7320592563212429
     0.0393401777688851    0.0055376740307977    0.7320592521911493
     0.2958929104798855    0.7894706933117490    0.0032699289927791
     0.5393401671427824    0.4944623109760684    0.2320592517272502

  0.00000000E+00  0.00000000E+00  0.00000000E+00
  0.00000000E+00  0.00000000E+00  0.00000000E+00
  0.00000000E+00  0.00000000E+00  0.00000000E+00
  0.00000000E+00  0.00000000E+00  0.00000000E+00
  0.00000000E+00  0.00000000E+00  0.00000000E+00
  0.00000000E+00  0.00000000E+00  0.00000000E+00
  0.00000000E+00  0.00000000E+00  0.00000000E+00
  0.00000000E+00  0.00000000E+00  0.00000000E+00
  0.00000000E+00  0.00000000E+00  0.00000000E+00
  0.00000000E+00  0.00000000E+00  0.00000000E+00
  0.00000000E+00  0.00000000E+00  0.00000000E+00
  0.00000000E+00  0.00000000E+00  0.00000000E+00
  0.00000000E+00  0.00000000E+00  0.00000000E+00
  0.00000000E+00  0.00000000E+00  0.00000000E+00
  0.00000000E+00  0.00000000E+00  0.00000000E+00
  0.00000000E+00  0.00000000E+00  0.00000000E+00
  0.00000000E+00  0.00000000E+00  0.00000000E+00
  0.00000000E+00  0.00000000E+00  0.00000000E+00
  0.00000000E+00  0.00000000E+00  0.00000000E+00
  0.00000000E+00  0.00000000E+00  0.00000000E+00
  0.00000000E+00  0.00000000E+00  0.00000000E+00
  0.00000000E+00  0.00000000E+00  0.00000000E+00
  0.00000000E+00  0.00000000E+00  0.00000000E+00
  0.00000000E+00  0.00000000E+00  0.00000000E+00
  0.00000000E+00  0.00000000E+00  0.00000000E+00
  0.00000000E+00  0.00000000E+00  0.00000000E+00
  0.00000000E+00  0.00000000E+00  0.00000000E+00
  0.00000000E+00  0.00000000E+00  0.00000000E+00
  0.00000000E+00  0.00000000E+00  0.00000000E+00
  0.00000000E+00  0.00000000E+00  0.00000000E+00
  0.00000000E+00  0.00000000E+00  0.00000000E+00
  0.00000000E+00  0.00000000E+00  0.00000000E+00
  0.00000000E+00  0.00000000E+00  0.00000000E+00
  0.00000000E+00  0.00000000E+00  0.00000000E+00
  0.00000000E+00  0.00000000E+00  0.00000000E+00
  0.00000000E+00  0.00000000E+00  0.00000000E+00
  0.00000000E+00  0.00000000E+00  0.00000000E+00
  0.00000000E+00  0.00000000E+00  0.00000000E+00
  0.00000000E+00  0.00000000E+00  0.00000000E+00
  0.00000000E+00  0.00000000E+00  0.00000000E+00
  0.00000000E+00  0.00000000E+00  0.00000000E+00
  0.00000000E+00  0.00000000E+00  0.00000000E+00
  0.00000000E+00  0.00000000E+00  0.00000000E+00
  0.00000000E+00  0.00000000E+00  0.00000000E+00
  0.00000000E+00  0.00000000E+00  0.00000000E+00
  0.00000000E+00  0.00000000E+00  0.00000000E+00
  0.00000000E+00  0.00000000E+00  0.00000000E+00
  0.00000000E+00  0.00000000E+00  0.00000000E+00
