C  N  H  Pb I 
 1.0000000000000000
     9.0193899931757802    0.0000000000000000    0.0000000000000000
     0.0000000000000000    8.7777678445653162    0.0000000000000000
     0.0000000000000000    0.0000000000000000   12.7961868062944486
 C   N   H   Pb  I  
   4   8  20   4  12
Direct
  0.5079545620594851  0.0406959883747638  0.2475946235704422
  0.0113640417184237  0.4591675008987401  0.7453195782251105
  0.9911865713547447  0.5414710098173001  0.2467213967329324
  0.4935907238441956  0.9592420573288970  0.7484225073170740
  0.5705946771768488  0.9354362274290704  0.1897252141182125
  0.0660501804874487  0.5587683567611937  0.6793044088216933
  0.1313185642156479  0.5817415150204551  0.2428610951169639
  0.6355913044458942  0.9271193333514428  0.7428963935164355
  0.3689663406760989  0.0838994856595276  0.2399588837149887
  0.8706598949057885  0.4220053129970009  0.7522712979338828
  0.9298369234105663  0.4369472332788765  0.1875520372873475
  0.4235420968202826  0.0535874282731351  0.6860878053277205
  0.5763163080256496  0.0964013618091920  0.3070350010383274
  0.0885332725544088  0.4031560214327002  0.7989877361652378
  0.9206031441051454  0.5991512977627396  0.3039440027853659
  0.4291676838092618  0.9034587956629778  0.8099766000657781
  0.6816203964682235  0.9153350004290041  0.1981420696355345
  0.1783465566087391  0.5741711702291649  0.6764132307204638
  0.1715783574626780  0.6593218387227499  0.2953084442684238
  0.6827071489720968  0.8576541127298297  0.7978018738552094
  0.5137159496301194  0.8799864858485240  0.1317994637689628
  0.0005319031765827  0.6140712405967821  0.6260344446700241
  0.2050388897825065  0.5327208738785533  0.1927612084561610
  0.7039772704370928  0.9751978958525509  0.6887701454425145
  0.2972319239003343  0.0368550498131778  0.1875867509889692
  0.7912065219746487  0.4698460838911188  0.7061464781886679
  0.9888676844207032  0.3797727622419623  0.1315157663871291
  0.4765232014769042  0.1082982865734766  0.6260342829960392
  0.3272559576570426  0.1618424731988938  0.2915835925839973
  0.8365121352513122  0.3484419068959673  0.8093883061017391
  0.8180488182374450  0.4192085848065175  0.1928921794679429
  0.3112135230632758  0.0651185390537715  0.6934250503259737
  0.5023441722619808  0.4879288203356366  0.9810849892003165
  0.0023441785924915  0.0120711836670638  0.4810849868122521
  0.9976558244282330  0.9879288178551918  0.9810849914872694
  0.4976558298475982  0.5120711849063111  0.4810849885500975
  0.7958928941106866  0.7105293335369601  0.5032699314851331
  0.9606598229172731  0.9944623124655482  0.2320592544955259
  0.7060293635732524  0.1956508126848427  0.9614522052702348
  0.2041070863312036  0.2894707010478275  0.0032699320500760
  0.2060293779368493  0.3043491755398582  0.4614522129329701
  0.2939706246777947  0.8043491828284943  0.4614522154174112
  0.7939706408800884  0.6956508110307111  0.9614522100061302
  0.7041071043942746  0.2105293303375289  0.5032699287679750
  0.4606598128207440  0.5055376617516696  0.7320592563212425
  0.0393401777688836  0.0055376740307987  0.7320592521911489
  0.2958929104798871  0.7894706933117497  0.0032699289927811
  0.5393401671427811  0.4944623109760681  0.2320592517272514
Cartesian
  0.0000000000000000  0.0000000000000000  0.0000000000000000
  0.0000000000000000  0.0000000000000000  0.0000000000000000
  0.0000000000000000  0.0000000000000000  0.0000000000000000
  0.0000000000000000  0.0000000000000000  0.0000000000000000
  0.0000000000000000  0.0000000000000000  0.0000000000000000
  0.0000000000000000  0.0000000000000000  0.0000000000000000
  0.0000000000000000  0.0000000000000000  0.0000000000000000
  0.0000000000000000  0.0000000000000000  0.0000000000000000
  0.0000000000000000  0.0000000000000000  0.0000000000000000
  0.0000000000000000  0.0000000000000000  0.0000000000000000
  0.0000000000000000  0.0000000000000000  0.0000000000000000
  0.0000000000000000  0.0000000000000000  0.0000000000000000
  0.0000000000000000  0.0000000000000000  0.0000000000000000
  0.0000000000000000  0.0000000000000000  0.0000000000000000
  0.0000000000000000  0.0000000000000000  0.0000000000000000
  0.0000000000000000  0.0000000000000000  0.0000000000000000
  0.0000000000000000  0.0000000000000000  0.0000000000000000
  0.0000000000000000  0.0000000000000000  0.0000000000000000
  0.0000000000000000  0.0000000000000000  0.0000000000000000
  0.0000000000000000  0.0000000000000000  0.0000000000000000
  0.0000000000000000  0.0000000000000000  0.0000000000000000
  0.0000000000000000  0.0000000000000000  0.0000000000000000
  0.0000000000000000  0.0000000000000000  0.0000000000000000
  0.0000000000000000  0.0000000000000000  0.0000000000000000
  0.0000000000000000  0.0000000000000000  0.0000000000000000
  0.0000000000000000  0.0000000000000000  0.0000000000000000
  0.0000000000000000  0.0000000000000000  0.0000000000000000
  0.0000000000000000  0.0000000000000000  0.0000000000000000
  0.0000000000000000  0.0000000000000000  0.0000000000000000
  0.0000000000000000  0.0000000000000000  0.0000000000000000
  0.0000000000000000  0.0000000000000000  0.0000000000000000
  0.0000000000000000  0.0000000000000000  0.0000000000000000
  0.0000000000000000  0.0000000000000000  0.0000000000000000
  0.0000000000000000  0.0000000000000000  0.0000000000000000
  0.0000000000000000  0.0000000000000000  0.0000000000000000
  0.0000000000000000  0.0000000000000000  0.0000000000000000
  0.0000000000000000  0.0000000000000000  0.0000000000000000
  0.0000000000000000  0.0000000000000000  0.0000000000000000
  0.0000000000000000  0.0000000000000000  0.0000000000000000
  0.0000000000000000  0.0000000000000000  0.0000000000000000
  0.0000000000000000  0.0000000000000000  0.0000000000000000
  0.0000000000000000  0.0000000000000000  0.0000000000000000
  0.0000000000000000  0.0000000000000000  0.0000000000000000
  0.0000000000000000  0.0000000000000000  0.0000000000000000
  0.0000000000000000  0.0000000000000000  0.0000000000000000
  0.0000000000000000  0.0000000000000000  0.0000000000000000
  0.0000000000000000  0.0000000000000000  0.0000000000000000
  0.0000000000000000  0.0000000000000000  0.0000000000000000
