C  N  H  Pb I                           
   1.0000000000000000     
     8.9109768929677671    0.0488895041615195   -0.0278266005319265
     0.0488895041615195    8.9822867366915116    0.0579790499279223
    -0.0196740362494538    0.0409925002762047    6.4238497582055158
  C               N               H               Pb              I             
     2     4    10     2     6
Direct
     0.5001903255591742    0.4974373454453840    0.5804735170237763
     0.0067523382285302    0.0075993671947217    0.5667042069368406
     0.5986331625208834    0.5884168242879397    0.4822318249506878
     0.4063253499733790    0.4121502693802341    0.4720170292745536
     0.1016560763339598    0.8987575042052498    0.5393881397524041
     0.9088369995836345    0.0822275595030959    0.4327188971776224
     0.4950571233547123    0.5013509360105957    0.7420207648466501
     0.6627059313969568    0.6599868717789263    0.5759841240013941
     0.6066189479367949    0.5984195602030908    0.3144448335421046
     0.4092554001666073    0.3945843741385389    0.3201657203378119
     0.3460249511467381    0.3414587038812797    0.5562596568802292
     0.9759452262979380    0.0343488092478594    0.7282447892819448
     0.1524252663947223    0.8608549987035872    0.6535539993242949
     0.1163083107147571    0.8675710602898548    0.3727069268488847
     0.9163323833092321    0.0606472268013221    0.2696371478824986
     0.8335237062695811    0.1604981220552730    0.4735595710312523
     0.0014252589461563    0.4991979119744201    0.9958454380971062
     0.5075494262818907    0.0103632236089908    0.9963341646665498
     0.0010266359543962    0.4967191533981179    0.4881141201386896
     0.5054954238650993    0.0036576761056963    0.4809004752013379
     0.2286005879496287    0.2194356772166870    0.9850116573831684
     0.2739722557205511    0.7213922055313304    0.9931477507774815
     0.7285354285682146    0.2865196163770207    0.9846240456875677
     0.7877785336372654    0.7766919111413202    0.9933610316138584

  0.00000000E+00  0.00000000E+00  0.00000000E+00
  0.00000000E+00  0.00000000E+00  0.00000000E+00
  0.00000000E+00  0.00000000E+00  0.00000000E+00
  0.00000000E+00  0.00000000E+00  0.00000000E+00
  0.00000000E+00  0.00000000E+00  0.00000000E+00
  0.00000000E+00  0.00000000E+00  0.00000000E+00
  0.00000000E+00  0.00000000E+00  0.00000000E+00
  0.00000000E+00  0.00000000E+00  0.00000000E+00
  0.00000000E+00  0.00000000E+00  0.00000000E+00
  0.00000000E+00  0.00000000E+00  0.00000000E+00
  0.00000000E+00  0.00000000E+00  0.00000000E+00
  0.00000000E+00  0.00000000E+00  0.00000000E+00
  0.00000000E+00  0.00000000E+00  0.00000000E+00
  0.00000000E+00  0.00000000E+00  0.00000000E+00
  0.00000000E+00  0.00000000E+00  0.00000000E+00
  0.00000000E+00  0.00000000E+00  0.00000000E+00
  0.00000000E+00  0.00000000E+00  0.00000000E+00
  0.00000000E+00  0.00000000E+00  0.00000000E+00
  0.00000000E+00  0.00000000E+00  0.00000000E+00
  0.00000000E+00  0.00000000E+00  0.00000000E+00
  0.00000000E+00  0.00000000E+00  0.00000000E+00
  0.00000000E+00  0.00000000E+00  0.00000000E+00
  0.00000000E+00  0.00000000E+00  0.00000000E+00
  0.00000000E+00  0.00000000E+00  0.00000000E+00
