C  N  H  Pb I 
 1.0000000000000000
     8.9109768929677671    0.0488895041615195   -0.0278266005319265
     0.0488895041615195    8.9822867366915116    0.0579790499279223
    -0.0196740362494538    0.0409925002762047    6.4238497582055158
 C   N   H   Pb  I  
   2   4  10   2   6
Direct
  0.5001903255591760  0.4974373454453851  0.5804735170237767
  0.0067523382285292  0.0075993671947239  0.5667042069368392
  0.5986331625208819  0.5884168242879400  0.4822318249506863
  0.4063253499733822  0.4121502693802355  0.4720170292745561
  0.1016560763339618  0.8987575042052472  0.5393881397524042
  0.9088369995836347  0.0822275595030942  0.4327188971776216
  0.4950571233547096  0.5013509360105961  0.7420207648466496
  0.6627059313969587  0.6599868717789242  0.5759841240013976
  0.6066189479367942  0.5984195602030887  0.3144448335421080
  0.4092554001666054  0.3945843741385364  0.3201657203378117
  0.3460249511467400  0.3414587038812809  0.5562596568802275
  0.9759452262979396  0.0343488092478562  0.7282447892819448
  0.1524252663947257  0.8608549987035897  0.6535539993242931
  0.1163083107147574  0.8675710602898542  0.3727069268488872
  0.9163323833092317  0.0606472268013186  0.2696371478824962
  0.8335237062695844  0.1604981220552709  0.4735595710312547
  0.0014252589461555  0.4991979119744213  0.9958454380971027
  0.5075494262818875  0.0103632236089922  0.9963341646665530
  0.0010266359543992  0.4967191533981190  0.4881141201386916
  0.5054954238650960  0.0036576761056951  0.4809004752013348
  0.2286005879496316  0.2194356772166841  0.9850116573831671
  0.2739722557205497  0.7213922055313315  0.9931477507774816
  0.7285354285682121  0.2865196163770221  0.9846240456875673
  0.7877785336372676  0.7766919111413217  0.9933610316138564
Cartesian
  0.0000000000000000  0.0000000000000000  0.0000000000000000
  0.0000000000000000  0.0000000000000000  0.0000000000000000
  0.0000000000000000  0.0000000000000000  0.0000000000000000
  0.0000000000000000  0.0000000000000000  0.0000000000000000
  0.0000000000000000  0.0000000000000000  0.0000000000000000
  0.0000000000000000  0.0000000000000000  0.0000000000000000
  0.0000000000000000  0.0000000000000000  0.0000000000000000
  0.0000000000000000  0.0000000000000000  0.0000000000000000
  0.0000000000000000  0.0000000000000000  0.0000000000000000
  0.0000000000000000  0.0000000000000000  0.0000000000000000
  0.0000000000000000  0.0000000000000000  0.0000000000000000
  0.0000000000000000  0.0000000000000000  0.0000000000000000
  0.0000000000000000  0.0000000000000000  0.0000000000000000
  0.0000000000000000  0.0000000000000000  0.0000000000000000
  0.0000000000000000  0.0000000000000000  0.0000000000000000
  0.0000000000000000  0.0000000000000000  0.0000000000000000
  0.0000000000000000  0.0000000000000000  0.0000000000000000
  0.0000000000000000  0.0000000000000000  0.0000000000000000
  0.0000000000000000  0.0000000000000000  0.0000000000000000
  0.0000000000000000  0.0000000000000000  0.0000000000000000
  0.0000000000000000  0.0000000000000000  0.0000000000000000
  0.0000000000000000  0.0000000000000000  0.0000000000000000
  0.0000000000000000  0.0000000000000000  0.0000000000000000
  0.0000000000000000  0.0000000000000000  0.0000000000000000
