C  N  H  Pb I                           
   1.0000000000000000     
     9.0193899931757802    0.0000000000000000    0.0000000000000000
     0.0000000000000000    8.7777678445653162    0.0000000000000000
     0.0000000000000000    0.0000000000000000   12.7961868062944486
  C               N               H               Pb              I             
     4     8    20     4    12
Direct
     0.5083811608894777    0.0369237609647612    0.2531261160602511
     0.0021487037357488    0.4647906255540164    0.7483923692153880
     0.9804311799194565    0.5397334302296954    0.2429279504446100
     0.5021944747526490    0.9601902849250763    0.7475929223480691
     0.5747542237267993    0.9273849043230982    0.1847656273080389
     0.0690486976311249    0.5593829907996124    0.6845318604043982
     0.1332450253717639    0.5839331076277006    0.2412807934804917
     0.6267662245873780    0.9116554102317309    0.7451036255657399
     0.3709884105909538    0.0773136841127950    0.2490621846847816
     0.8720309383159588    0.4168892280524972    0.7355911130092352
     0.9219472907545452    0.4376074504838954    0.1878321700741807
     0.4395390729591142    0.0669601182939346    0.6947657799266125
     0.5771729743155944    0.0901931956790420    0.3059916811568186
     0.0757993047371741    0.3973114581346024    0.8085332217705812
     0.9223381759972966    0.6005525921789356    0.3073444223145287
     0.4188493504056652    0.8965897194048793    0.8161281852550601
     0.6822642880836653    0.9184716502009778    0.1973764050488924
     0.1817099955100261    0.5910048467849336    0.6910163836895364
     0.1674548192295546    0.6529473975760709    0.2903089162288737
     0.6688562717765762    0.8480151449681586    0.7912426591162216
     0.4973519459746285    0.8832144500367960    0.1348540384293315
     0.0142719572027872    0.6195570339022964    0.6219947057763875
     0.1984423004621831    0.5336278214857089    0.1881879984929995
     0.7101668348661008    0.9620643167335317    0.6898863837677567
     0.3034328928218883    0.0259530516793376    0.1845433411052184
     0.7945164969847909    0.4632768037340185    0.6939204651237603
     0.9965494799559877    0.3853930823848444    0.1310199228018618
     0.4863238382601551    0.1200305969483324    0.6305113502651167
     0.3230070841692338    0.1597649433502966    0.2931146327565131
     0.8329743905992757    0.3332562107918520    0.7863398216995421
     0.8171882530675134    0.4137061044705845    0.1908846681366114
     0.3216222757998608    0.0769997760012870    0.7004639611957302
     0.4970008469802565    0.4766144561861978    0.9804468855518849
     0.0083962557859110    0.0178959220711405    0.4779363133557410
     0.0012918358301093    0.9906198279052205    0.9794630028217952
     0.5001139573222702    0.5078200479448967    0.4827839375276639
     0.8074494818099041    0.7088802345041856    0.5135958465113717
     0.9652463232627611    0.9813244715356220    0.2322408102977178
     0.7043742567560471    0.1959308372257809    0.9562375814188471
     0.1992439757643467    0.2915474517349068    0.9983804077753291
     0.2108072699524470    0.3015776694842387    0.4630501098805695
     0.2956136329350301    0.8078292208524616    0.4646994823409898
     0.7906481466125186    0.6999786107685608    0.9549063809808018
     0.7052526459746744    0.2120211228984203    0.5092409902326409
     0.4596888443067471    0.5122026066015479    0.7327930375048837
     0.0346212389544505    0.9991016412597489    0.7287008041732435
     0.3040948439063484    0.7962416862941026    0.0015950636396624
     0.5464266749771056    0.4965461800935813    0.2216845460373378

  0.00000000E+00  0.00000000E+00  0.00000000E+00
  0.00000000E+00  0.00000000E+00  0.00000000E+00
  0.00000000E+00  0.00000000E+00  0.00000000E+00
  0.00000000E+00  0.00000000E+00  0.00000000E+00
  0.00000000E+00  0.00000000E+00  0.00000000E+00
  0.00000000E+00  0.00000000E+00  0.00000000E+00
  0.00000000E+00  0.00000000E+00  0.00000000E+00
  0.00000000E+00  0.00000000E+00  0.00000000E+00
  0.00000000E+00  0.00000000E+00  0.00000000E+00
  0.00000000E+00  0.00000000E+00  0.00000000E+00
  0.00000000E+00  0.00000000E+00  0.00000000E+00
  0.00000000E+00  0.00000000E+00  0.00000000E+00
  0.00000000E+00  0.00000000E+00  0.00000000E+00
  0.00000000E+00  0.00000000E+00  0.00000000E+00
  0.00000000E+00  0.00000000E+00  0.00000000E+00
  0.00000000E+00  0.00000000E+00  0.00000000E+00
  0.00000000E+00  0.00000000E+00  0.00000000E+00
  0.00000000E+00  0.00000000E+00  0.00000000E+00
  0.00000000E+00  0.00000000E+00  0.00000000E+00
  0.00000000E+00  0.00000000E+00  0.00000000E+00
  0.00000000E+00  0.00000000E+00  0.00000000E+00
  0.00000000E+00  0.00000000E+00  0.00000000E+00
  0.00000000E+00  0.00000000E+00  0.00000000E+00
  0.00000000E+00  0.00000000E+00  0.00000000E+00
  0.00000000E+00  0.00000000E+00  0.00000000E+00
  0.00000000E+00  0.00000000E+00  0.00000000E+00
  0.00000000E+00  0.00000000E+00  0.00000000E+00
  0.00000000E+00  0.00000000E+00  0.00000000E+00
  0.00000000E+00  0.00000000E+00  0.00000000E+00
  0.00000000E+00  0.00000000E+00  0.00000000E+00
  0.00000000E+00  0.00000000E+00  0.00000000E+00
  0.00000000E+00  0.00000000E+00  0.00000000E+00
  0.00000000E+00  0.00000000E+00  0.00000000E+00
  0.00000000E+00  0.00000000E+00  0.00000000E+00
  0.00000000E+00  0.00000000E+00  0.00000000E+00
  0.00000000E+00  0.00000000E+00  0.00000000E+00
  0.00000000E+00  0.00000000E+00  0.00000000E+00
  0.00000000E+00  0.00000000E+00  0.00000000E+00
  0.00000000E+00  0.00000000E+00  0.00000000E+00
  0.00000000E+00  0.00000000E+00  0.00000000E+00
  0.00000000E+00  0.00000000E+00  0.00000000E+00
  0.00000000E+00  0.00000000E+00  0.00000000E+00
  0.00000000E+00  0.00000000E+00  0.00000000E+00
  0.00000000E+00  0.00000000E+00  0.00000000E+00
  0.00000000E+00  0.00000000E+00  0.00000000E+00
  0.00000000E+00  0.00000000E+00  0.00000000E+00
  0.00000000E+00  0.00000000E+00  0.00000000E+00
  0.00000000E+00  0.00000000E+00  0.00000000E+00
