C  N  H  Pb I 
 1.0000000000000000
     9.0193899931757802    0.0000000000000000    0.0000000000000000
     0.0000000000000000    8.7777678445653162    0.0000000000000000
     0.0000000000000000    0.0000000000000000   12.7961868062944486
 C   N   H   Pb  I  
   4   8  20   4  12
Direct
  0.5083811608894778  0.0369237609647595  0.2531261160602484
  0.0021487037357480  0.4647906255540151  0.7483923692153890
  0.9804311799194599  0.5397334302296941  0.2429279504446065
  0.5021944747526508  0.9601902849250781  0.7475929223480700
  0.5747542237268022  0.9273849043230978  0.1847656273080401
  0.0690486976311242  0.5593829907996121  0.6845318604043997
  0.1332450253717635  0.5839331076276983  0.2412807934804906
  0.6267662245873812  0.9116554102317341  0.7451036255657375
  0.3709884105909556  0.0773136841127931  0.2490621846847827
  0.8720309383159601  0.4168892280525002  0.7355911130092361
  0.9219472907545421  0.4376074504838984  0.1878321700741780
  0.4395390729591124  0.0669601182939328  0.6947657799266153
  0.5771729743155914  0.0901931956790413  0.3059916811568207
  0.0757993047371707  0.3973114581346008  0.8085332217705785
  0.9223381759972974  0.6005525921789341  0.3073444223145304
  0.4188493504056652  0.8965897194048814  0.8161281852550628
  0.6822642880836636  0.9184716502009809  0.1973764050488926
  0.1817099955100235  0.5910048467849320  0.6910163836895354
  0.1674548192295539  0.6529473975760681  0.2903089162288718
  0.6688562717765772  0.8480151449681567  0.7912426591162200
  0.4973519459746305  0.8832144500367953  0.1348540384293344
  0.0142719572027892  0.6195570339022993  0.6219947057763864
  0.1984423004621812  0.5336278214857065  0.1881879984930004
  0.7101668348661035  0.9620643167335282  0.6898863837677562
  0.3034328928218861  0.0259530516793347  0.1845433411052176
  0.7945164969847875  0.4632768037340191  0.6939204651237636
  0.9965494799559859  0.3853930823848439  0.1310199228018611
  0.4863238382601527  0.1200305969483311  0.6305113502651167
  0.3230070841692352  0.1597649433503001  0.2931146327565137
  0.8329743905992778  0.3332562107918503  0.7863398216995433
  0.8171882530675137  0.4137061044705850  0.1908846681366122
  0.3216222757998577  0.0769997760012839  0.7004639611957298
  0.4970008469802569  0.4766144561861980  0.9804468855518881
  0.0083962557859098  0.0178959220711421  0.4779363133557376
  0.0012918358301116  0.9906198279052211  0.9794630028217963
  0.5001139573222703  0.5078200479448957  0.4827839375276641
  0.8074494818099069  0.7088802345041824  0.5135958465113736
  0.9652463232627622  0.9813244715356191  0.2322408102977154
  0.7043742567560481  0.1959308372257822  0.9562375814188436
  0.1992439757643463  0.2915474517349064  0.9983804077753318
  0.2108072699524447  0.3015776694842392  0.4630501098805718
  0.2956136329350310  0.8078292208524588  0.4646994823409890
  0.7906481466125201  0.6999786107685601  0.9549063809808026
  0.7052526459746774  0.2120211228984221  0.5092409902326385
  0.4596888443067469  0.5122026066015508  0.7327930375048857
  0.0346212389544497  0.9991016412597488  0.7287008041732417
  0.3040948439063469  0.7962416862941022  0.0015950636396652
  0.5464266749771070  0.4965461800935834  0.2216845460373390
Cartesian
  0.0000000000000000  0.0000000000000000  0.0000000000000000
  0.0000000000000000  0.0000000000000000  0.0000000000000000
  0.0000000000000000  0.0000000000000000  0.0000000000000000
  0.0000000000000000  0.0000000000000000  0.0000000000000000
  0.0000000000000000  0.0000000000000000  0.0000000000000000
  0.0000000000000000  0.0000000000000000  0.0000000000000000
  0.0000000000000000  0.0000000000000000  0.0000000000000000
  0.0000000000000000  0.0000000000000000  0.0000000000000000
  0.0000000000000000  0.0000000000000000  0.0000000000000000
  0.0000000000000000  0.0000000000000000  0.0000000000000000
  0.0000000000000000  0.0000000000000000  0.0000000000000000
  0.0000000000000000  0.0000000000000000  0.0000000000000000
  0.0000000000000000  0.0000000000000000  0.0000000000000000
  0.0000000000000000  0.0000000000000000  0.0000000000000000
  0.0000000000000000  0.0000000000000000  0.0000000000000000
  0.0000000000000000  0.0000000000000000  0.0000000000000000
  0.0000000000000000  0.0000000000000000  0.0000000000000000
  0.0000000000000000  0.0000000000000000  0.0000000000000000
  0.0000000000000000  0.0000000000000000  0.0000000000000000
  0.0000000000000000  0.0000000000000000  0.0000000000000000
  0.0000000000000000  0.0000000000000000  0.0000000000000000
  0.0000000000000000  0.0000000000000000  0.0000000000000000
  0.0000000000000000  0.0000000000000000  0.0000000000000000
  0.0000000000000000  0.0000000000000000  0.0000000000000000
  0.0000000000000000  0.0000000000000000  0.0000000000000000
  0.0000000000000000  0.0000000000000000  0.0000000000000000
  0.0000000000000000  0.0000000000000000  0.0000000000000000
  0.0000000000000000  0.0000000000000000  0.0000000000000000
  0.0000000000000000  0.0000000000000000  0.0000000000000000
  0.0000000000000000  0.0000000000000000  0.0000000000000000
  0.0000000000000000  0.0000000000000000  0.0000000000000000
  0.0000000000000000  0.0000000000000000  0.0000000000000000
  0.0000000000000000  0.0000000000000000  0.0000000000000000
  0.0000000000000000  0.0000000000000000  0.0000000000000000
  0.0000000000000000  0.0000000000000000  0.0000000000000000
  0.0000000000000000  0.0000000000000000  0.0000000000000000
  0.0000000000000000  0.0000000000000000  0.0000000000000000
  0.0000000000000000  0.0000000000000000  0.0000000000000000
  0.0000000000000000  0.0000000000000000  0.0000000000000000
  0.0000000000000000  0.0000000000000000  0.0000000000000000
  0.0000000000000000  0.0000000000000000  0.0000000000000000
  0.0000000000000000  0.0000000000000000  0.0000000000000000
  0.0000000000000000  0.0000000000000000  0.0000000000000000
  0.0000000000000000  0.0000000000000000  0.0000000000000000
  0.0000000000000000  0.0000000000000000  0.0000000000000000
  0.0000000000000000  0.0000000000000000  0.0000000000000000
  0.0000000000000000  0.0000000000000000  0.0000000000000000
  0.0000000000000000  0.0000000000000000  0.0000000000000000
