C  N  H  Pb I 
 1.0000000000000000
     9.0193899931757802    0.0000000000000000    0.0000000000000000
     0.0000000000000000    8.7777678445653162    0.0000000000000000
     0.0000000000000000    0.0000000000000000   12.7961868062944486
 C   N   H   Pb  I  
   4   8  20   4  12
Direct
  0.5079545620594851  0.0406959883747638  0.2475946235704422
  0.0079545554343785  0.4593040156808086  0.7475946208954544
  0.9920454334685082  0.5406959860585880  0.2475946299923702
  0.4920454478785191  0.9593040127881087  0.7475946256013861
  0.5705946771768488  0.9354362274290704  0.1897252141182125
  0.0705946740239366  0.5645637727658527  0.6897252201605891
  0.1310336582348178  0.5838994807281044  0.2399588818968306
  0.6310336640152745  0.9161005167449353  0.7399588856927697
  0.3689663406760989  0.0838994856595276  0.2399588837149887
  0.8689663414621858  0.4161005194902583  0.7399588873068387
  0.9294053217315231  0.4354362199708706  0.1897252216917170
  0.4294053329446625  0.0645637684645837  0.6897252229388682
  0.5763163080256496  0.0964013618091920  0.3070350010383274
  0.0763163041439384  0.4035986538439506  0.8070350065760273
  0.9236836942065133  0.5964013535599978  0.3070350101048526
  0.4236837047439705  0.9035986570811895  0.8070350168177974
  0.6816203964682235  0.9153350004290041  0.1981420696355345
  0.1816203953774488  0.5846650008662724  0.6981420678013572
  0.1727440398663828  0.6618424652955209  0.2915835922463332
  0.6727440483713266  0.8381575300147407  0.7915835946568774
  0.5137159496301194  0.8799864858485240  0.1317994637689628
  0.0137159530701184  0.6200135182310215  0.6317994618654601
  0.2027680669080062  0.5368550561063354  0.1875867459194599
  0.7027680811919139  0.9631449364772252  0.6875867437071860
  0.2972319239003343  0.0368550498131778  0.1875867509889692
  0.7972319185576198  0.4631449498156998  0.6875867489999620
  0.9862840415021580  0.3799864786951983  0.1317994707683488
  0.4862840485959766  0.1200135117898101  0.6317994631872471
  0.3272559576570426  0.1618424731988938  0.2915835925839973
  0.8272559591671836  0.3381575261065085  0.7915835908767332
  0.8183796010724744  0.4153349919539673  0.1981420818729491
  0.3183796102733418  0.0846649986020452  0.6981420736952382
  0.5039140920247045  0.4989302622861372  0.9813563075205954
  0.0027660468627738  0.0149390806304184  0.4827896612779601
  0.9942421547987484  0.9833835735697859  0.9773258735440166
  0.4937490335740034  0.5117257672295835  0.4800968039497042
  0.7950003013069403  0.7155672556545627  0.5033104004328232
  0.9547151435095953  0.9937290219308842  0.2325945429017234
  0.7082927703933235  0.1964894173985259  0.9616718912909945
  0.2067370846494994  0.2868939078870760  0.0032549191366666
  0.2075416114920950  0.3028792908754108  0.4592361676807028
  0.2907399216723169  0.8076318086688810  0.4587246129640250
  0.8031453937480212  0.7038225121285893  0.9627639735456538
  0.7028720496935503  0.2123277779159616  0.5024278779668273
  0.4572923473318121  0.5089630136991653  0.7277606887368364
  0.0426867733045596  0.9992707927231180  0.7357415980267578
  0.3004284804195448  0.7887045143840773  0.0033493330700071
  0.5456417852611519  0.4966764616720665  0.2350641894524177
Cartesian
  0.0000000000000000  0.0000000000000000  0.0000000000000000
  0.0000000000000000  0.0000000000000000  0.0000000000000000
  0.0000000000000000  0.0000000000000000  0.0000000000000000
  0.0000000000000000  0.0000000000000000  0.0000000000000000
  0.0000000000000000  0.0000000000000000  0.0000000000000000
  0.0000000000000000  0.0000000000000000  0.0000000000000000
  0.0000000000000000  0.0000000000000000  0.0000000000000000
  0.0000000000000000  0.0000000000000000  0.0000000000000000
  0.0000000000000000  0.0000000000000000  0.0000000000000000
  0.0000000000000000  0.0000000000000000  0.0000000000000000
  0.0000000000000000  0.0000000000000000  0.0000000000000000
  0.0000000000000000  0.0000000000000000  0.0000000000000000
  0.0000000000000000  0.0000000000000000  0.0000000000000000
  0.0000000000000000  0.0000000000000000  0.0000000000000000
  0.0000000000000000  0.0000000000000000  0.0000000000000000
  0.0000000000000000  0.0000000000000000  0.0000000000000000
  0.0000000000000000  0.0000000000000000  0.0000000000000000
  0.0000000000000000  0.0000000000000000  0.0000000000000000
  0.0000000000000000  0.0000000000000000  0.0000000000000000
  0.0000000000000000  0.0000000000000000  0.0000000000000000
  0.0000000000000000  0.0000000000000000  0.0000000000000000
  0.0000000000000000  0.0000000000000000  0.0000000000000000
  0.0000000000000000  0.0000000000000000  0.0000000000000000
  0.0000000000000000  0.0000000000000000  0.0000000000000000
  0.0000000000000000  0.0000000000000000  0.0000000000000000
  0.0000000000000000  0.0000000000000000  0.0000000000000000
  0.0000000000000000  0.0000000000000000  0.0000000000000000
  0.0000000000000000  0.0000000000000000  0.0000000000000000
  0.0000000000000000  0.0000000000000000  0.0000000000000000
  0.0000000000000000  0.0000000000000000  0.0000000000000000
  0.0000000000000000  0.0000000000000000  0.0000000000000000
  0.0000000000000000  0.0000000000000000  0.0000000000000000
  0.0000000000000000  0.0000000000000000  0.0000000000000000
  0.0000000000000000  0.0000000000000000  0.0000000000000000
  0.0000000000000000  0.0000000000000000  0.0000000000000000
  0.0000000000000000  0.0000000000000000  0.0000000000000000
  0.0000000000000000  0.0000000000000000  0.0000000000000000
  0.0000000000000000  0.0000000000000000  0.0000000000000000
  0.0000000000000000  0.0000000000000000  0.0000000000000000
  0.0000000000000000  0.0000000000000000  0.0000000000000000
  0.0000000000000000  0.0000000000000000  0.0000000000000000
  0.0000000000000000  0.0000000000000000  0.0000000000000000
  0.0000000000000000  0.0000000000000000  0.0000000000000000
  0.0000000000000000  0.0000000000000000  0.0000000000000000
  0.0000000000000000  0.0000000000000000  0.0000000000000000
  0.0000000000000000  0.0000000000000000  0.0000000000000000
  0.0000000000000000  0.0000000000000000  0.0000000000000000
  0.0000000000000000  0.0000000000000000  0.0000000000000000
