C  N  H  Pb I                           
   1.0000000000000000     
     9.0282417783279971   -0.0572033618559382   -0.0236829980268270
    -0.0556709301493780    8.6995603255950975    0.0116440652304203
    -0.0336000624336762    0.0169746610427147   12.8546693067995790
  C               N               H               Pb              I             
     4     8    20     4    12
Direct
     0.5031367272995340    0.0397219003456755    0.2489308316323502
     0.0091872378596989    0.4543621984578294    0.7453395958013687
     0.0206889228198435    0.5435257479554849    0.2543710672098243
     0.4886302219940362    0.9667765060089906    0.7467842932232074
     0.5633359181656346    0.9343844497135976    0.1896853293940239
     0.0667056411302127    0.5657968951594512    0.6897547874689209
     0.1235584547757469    0.5689127499488080    0.1838622056389951
     0.6169995339623568    0.8929602668065399    0.7403483102608206
     0.3650637149658280    0.0949373709875374    0.2417569320718727
     0.8809816169204439    0.4211149105724274    0.7361227906543064
     0.9121446380148086    0.4611850857292410    0.2474578995876584
     0.4475982365861313    0.0806373779612457    0.6977700856885676
     0.5795099395863375    0.1024659909478842    0.3097824793614876
     0.0818335036801869    0.4006955182932401    0.8016611322721161
     0.0302828364504890    0.6000699437027777    0.3348045994630837
     0.4081678271578042    0.9098872687804871    0.8021067940379254
     0.6814371830716581    0.9042435822377044    0.1985837801553245
     0.1790841725792163    0.5845299421131642    0.6972728570449931
     0.2253072134469676    0.6233325647388597    0.1953569226647147
     0.6399808156074087    0.8023278304481707    0.7841656964350179
     0.5125597760885725    0.8788362542584238    0.1350447217504325
     0.0208509777247841    0.6183667423481722    0.6332100779681866
     0.1205612657193953    0.5114515637359744    0.1118582108736845
     0.7022005018296582    0.9374139047303771    0.6984317320906328
     0.2969691958163025    0.0284455961313625    0.1814807290394995
     0.7957659863105064    0.4654962150529798    0.6906961321745300
     0.8874225691266915    0.3958697789771648    0.1643378619831566
     0.5308606504539242    0.1303562923843060    0.6439032009351706
     0.3349830471500326    0.1518126920191207    0.2889278861862223
     0.8240154595356373    0.3436486109921333    0.7917802393665312
     0.8326377792894135    0.4494792269196921    0.3068038638029194
     0.3383728872727474    0.1152544556441129    0.6951284603995305
     0.5035570944857994    0.4825491101104191    0.9801656246040267
     0.9928194026001336    0.0135895035459583    0.4832792719696499
     0.9931803905573418    0.9925980162427521    0.9818505154619430
     0.5005531139635835    0.5095366469936238    0.4819605327186096
     0.7877347718382879    0.7041929487839766    0.5063371511169095
     0.9702106499105838    0.9948397372258384    0.2347318624644217
     0.7047836533062295    0.2000330015237211    0.9596285640016120
     0.2061469707664756    0.2914860012327551    0.0024659025927320
     0.2116757259618041    0.2973900979713378    0.4583270022228447
     0.2985129403803910    0.7902689351149377    0.4633620467681041
     0.7939938498021206    0.6940260813291275    0.9633130468360207
     0.7045200235869373    0.1980974332212213    0.5036438262769778
     0.4582630852782543    0.5016365538066978    0.7310440463031043
     0.0424666452762139    0.9968754841647112    0.7298330054725710
     0.2987910009959407    0.7875180562343473    0.9988588880220064
     0.5297628092709559    0.4881011711138115    0.2333712419537264

  0.00000000E+00  0.00000000E+00  0.00000000E+00
  0.00000000E+00  0.00000000E+00  0.00000000E+00
  0.00000000E+00  0.00000000E+00  0.00000000E+00
  0.00000000E+00  0.00000000E+00  0.00000000E+00
  0.00000000E+00  0.00000000E+00  0.00000000E+00
  0.00000000E+00  0.00000000E+00  0.00000000E+00
  0.00000000E+00  0.00000000E+00  0.00000000E+00
  0.00000000E+00  0.00000000E+00  0.00000000E+00
  0.00000000E+00  0.00000000E+00  0.00000000E+00
  0.00000000E+00  0.00000000E+00  0.00000000E+00
  0.00000000E+00  0.00000000E+00  0.00000000E+00
  0.00000000E+00  0.00000000E+00  0.00000000E+00
  0.00000000E+00  0.00000000E+00  0.00000000E+00
  0.00000000E+00  0.00000000E+00  0.00000000E+00
  0.00000000E+00  0.00000000E+00  0.00000000E+00
  0.00000000E+00  0.00000000E+00  0.00000000E+00
  0.00000000E+00  0.00000000E+00  0.00000000E+00
  0.00000000E+00  0.00000000E+00  0.00000000E+00
  0.00000000E+00  0.00000000E+00  0.00000000E+00
  0.00000000E+00  0.00000000E+00  0.00000000E+00
  0.00000000E+00  0.00000000E+00  0.00000000E+00
  0.00000000E+00  0.00000000E+00  0.00000000E+00
  0.00000000E+00  0.00000000E+00  0.00000000E+00
  0.00000000E+00  0.00000000E+00  0.00000000E+00
  0.00000000E+00  0.00000000E+00  0.00000000E+00
  0.00000000E+00  0.00000000E+00  0.00000000E+00
  0.00000000E+00  0.00000000E+00  0.00000000E+00
  0.00000000E+00  0.00000000E+00  0.00000000E+00
  0.00000000E+00  0.00000000E+00  0.00000000E+00
  0.00000000E+00  0.00000000E+00  0.00000000E+00
  0.00000000E+00  0.00000000E+00  0.00000000E+00
  0.00000000E+00  0.00000000E+00  0.00000000E+00
  0.00000000E+00  0.00000000E+00  0.00000000E+00
  0.00000000E+00  0.00000000E+00  0.00000000E+00
  0.00000000E+00  0.00000000E+00  0.00000000E+00
  0.00000000E+00  0.00000000E+00  0.00000000E+00
  0.00000000E+00  0.00000000E+00  0.00000000E+00
  0.00000000E+00  0.00000000E+00  0.00000000E+00
  0.00000000E+00  0.00000000E+00  0.00000000E+00
  0.00000000E+00  0.00000000E+00  0.00000000E+00
  0.00000000E+00  0.00000000E+00  0.00000000E+00
  0.00000000E+00  0.00000000E+00  0.00000000E+00
  0.00000000E+00  0.00000000E+00  0.00000000E+00
  0.00000000E+00  0.00000000E+00  0.00000000E+00
  0.00000000E+00  0.00000000E+00  0.00000000E+00
  0.00000000E+00  0.00000000E+00  0.00000000E+00
  0.00000000E+00  0.00000000E+00  0.00000000E+00
  0.00000000E+00  0.00000000E+00  0.00000000E+00
