C  N  H  Pb I 
 1.0000000000000000
     9.0282417783279971   -0.0572033618559382   -0.0236829980268270
    -0.0556709301493780    8.6995603255950975    0.0116440652304203
    -0.0336000624336762    0.0169746610427147   12.8546693067995790
 C   N   H   Pb  I  
   4   8  20   4  12
Direct
  0.5031367272995346  0.0397219003456789  0.2489308316323467
  0.0091872378596986  0.4543621984578289  0.7453395958013678
  0.0206889228198404  0.5435257479554827  0.2543710672098228
  0.4886302219940388  0.9667765060089889  0.7467842932232052
  0.5633359181656353  0.9343844497135985  0.1896853293940221
  0.0667056411302100  0.5657968951594521  0.6897547874689228
  0.1235584547757441  0.5689127499488076  0.1838622056389968
  0.6169995339623536  0.8929602668065389  0.7403483102608195
  0.3650637149658307  0.0949373709875360  0.2417569320718694
  0.8809816169204406  0.4211149105724309  0.7361227906543069
  0.9121446380148093  0.4611850857292419  0.2474578995876579
  0.4475982365861318  0.0806373779612440  0.6977700856885651
  0.5795099395863356  0.1024659909478831  0.3097824793614880
  0.0818335036801839  0.4006955182932396  0.8016611322721137
  0.0302828364504909  0.6000699437027759  0.3348045994630840
  0.4081678271578024  0.9098872687804858  0.8021067940379273
  0.6814371830716613  0.9042435822377032  0.1985837801553247
  0.1790841725792184  0.5845299421131647  0.6972728570449923
  0.2253072134469666  0.6233325647388628  0.1953569226647133
  0.6399808156074080  0.8023278304481728  0.7841656964350195
  0.5125597760885737  0.8788362542584230  0.1350447217504293
  0.0208509777247838  0.6183667423481757  0.6332100779681873
  0.1205612657193949  0.5114515637359748  0.1118582108736858
  0.7022005018296613  0.9374139047303757  0.6984317320906360
  0.2969691958163016  0.0284455961313640  0.1814807290395015
  0.7957659863105053  0.4654962150529831  0.6906961321745283
  0.8874225691266928  0.3958697789771640  0.1643378619831531
  0.5308606504539208  0.1303562923843054  0.6439032009351675
  0.3349830471500314  0.1518126920191219  0.2889278861862253
  0.8240154595356357  0.3436486109921346  0.7917802393665330
  0.8326377792894119  0.4494792269196892  0.3068038638029193
  0.3383728872727459  0.1152544556441107  0.6951284603995340
  0.5035570944857983  0.4825491101104173  0.9801656246040279
  0.9928194026001316  0.0135895035459559  0.4832792719696503
  0.9931803905573402  0.9925980162427545  0.9818505154619460
  0.5005531139635868  0.5095366469936203  0.4819605327186096
  0.7877347718382877  0.7041929487839778  0.5063371511169119
  0.9702106499105827  0.9948397372258355  0.2347318624644235
  0.7047836533062274  0.2000330015237191  0.9596285640016152
  0.2061469707664751  0.2914860012327545  0.0024659025927343
  0.2116757259618010  0.2973900979713406  0.4583270022228429
  0.2985129403803923  0.7902689351149376  0.4633620467681019
  0.7939938498021172  0.6940260813291284  0.9633130468360228
  0.7045200235869403  0.1980974332212200  0.5036438262769758
  0.4582630852782577  0.5016365538066978  0.7310440463031076
  0.0424666452762138  0.9968754841647107  0.7298330054725726
  0.2987910009959429  0.7875180562343465  0.9988588880220041
  0.5297628092709585  0.4881011711138136  0.2333712419537230
Cartesian
  0.0000000000000000  0.0000000000000000  0.0000000000000000
  0.0000000000000000  0.0000000000000000  0.0000000000000000
  0.0000000000000000  0.0000000000000000  0.0000000000000000
  0.0000000000000000  0.0000000000000000  0.0000000000000000
  0.0000000000000000  0.0000000000000000  0.0000000000000000
  0.0000000000000000  0.0000000000000000  0.0000000000000000
  0.0000000000000000  0.0000000000000000  0.0000000000000000
  0.0000000000000000  0.0000000000000000  0.0000000000000000
  0.0000000000000000  0.0000000000000000  0.0000000000000000
  0.0000000000000000  0.0000000000000000  0.0000000000000000
  0.0000000000000000  0.0000000000000000  0.0000000000000000
  0.0000000000000000  0.0000000000000000  0.0000000000000000
  0.0000000000000000  0.0000000000000000  0.0000000000000000
  0.0000000000000000  0.0000000000000000  0.0000000000000000
  0.0000000000000000  0.0000000000000000  0.0000000000000000
  0.0000000000000000  0.0000000000000000  0.0000000000000000
  0.0000000000000000  0.0000000000000000  0.0000000000000000
  0.0000000000000000  0.0000000000000000  0.0000000000000000
  0.0000000000000000  0.0000000000000000  0.0000000000000000
  0.0000000000000000  0.0000000000000000  0.0000000000000000
  0.0000000000000000  0.0000000000000000  0.0000000000000000
  0.0000000000000000  0.0000000000000000  0.0000000000000000
  0.0000000000000000  0.0000000000000000  0.0000000000000000
  0.0000000000000000  0.0000000000000000  0.0000000000000000
  0.0000000000000000  0.0000000000000000  0.0000000000000000
  0.0000000000000000  0.0000000000000000  0.0000000000000000
  0.0000000000000000  0.0000000000000000  0.0000000000000000
  0.0000000000000000  0.0000000000000000  0.0000000000000000
  0.0000000000000000  0.0000000000000000  0.0000000000000000
  0.0000000000000000  0.0000000000000000  0.0000000000000000
  0.0000000000000000  0.0000000000000000  0.0000000000000000
  0.0000000000000000  0.0000000000000000  0.0000000000000000
  0.0000000000000000  0.0000000000000000  0.0000000000000000
  0.0000000000000000  0.0000000000000000  0.0000000000000000
  0.0000000000000000  0.0000000000000000  0.0000000000000000
  0.0000000000000000  0.0000000000000000  0.0000000000000000
  0.0000000000000000  0.0000000000000000  0.0000000000000000
  0.0000000000000000  0.0000000000000000  0.0000000000000000
  0.0000000000000000  0.0000000000000000  0.0000000000000000
  0.0000000000000000  0.0000000000000000  0.0000000000000000
  0.0000000000000000  0.0000000000000000  0.0000000000000000
  0.0000000000000000  0.0000000000000000  0.0000000000000000
  0.0000000000000000  0.0000000000000000  0.0000000000000000
  0.0000000000000000  0.0000000000000000  0.0000000000000000
  0.0000000000000000  0.0000000000000000  0.0000000000000000
  0.0000000000000000  0.0000000000000000  0.0000000000000000
  0.0000000000000000  0.0000000000000000  0.0000000000000000
  0.0000000000000000  0.0000000000000000  0.0000000000000000
