C  N  H  Pb I                           
   1.0000000000000000     
     8.9959200619155553   -0.0124754731687147    0.0027677398895010
    -0.0121412653526387    8.8001049800067186    0.0572130806922246
     0.0039267086448290    0.0834049477344726   12.6075633056712828
  C               N               H               Pb              I             
     4     8    20     4    12
Direct
     0.5027870053812791    0.0379417578916303    0.2494725782970093
     0.0030804616016198    0.4689205325136570    0.7533684265400140
     0.9907811709874537    0.5480667425160632    0.2493805601814643
     0.4934436472099577    0.9706585472719809    0.7527481627363315
     0.5510582793308316    0.9036100025885929    0.2143234441472330
     0.0548521334686356    0.5808170191545372    0.6930003263782112
     0.1351384237286553    0.5774232090999476    0.2433298522011569
     0.6326213093909558    0.9564535414201316    0.7710343010469529
     0.3958490555626071    0.1178851534716472    0.2105552675716140
     0.8852830107395704    0.3906150636602348    0.7320411331265078
     0.9275848804778377    0.4338628809036393    0.1859860442358325
     0.4296590291884641    0.0151337115438324    0.6566758662371583
     0.5656818247934581    0.0835356618816974    0.3178898543113817
     0.0685773224057087    0.4477335786274352    0.8219785936844275
     0.9215193218203268    0.6136136316904697    0.2962358205283735
     0.4126814129604526    0.9438517982031627    0.8130082678247277
     0.6377780993030555    0.8553191597018497    0.2517773467809477
     0.1519995272705046    0.6413588710884142    0.7118876900155726
     0.1694608945672229    0.6533371687167389    0.2934782952457411
     0.6677379344948946    0.9319891824533642    0.8440534951096907
     0.4987563412082636    0.8523796465841187    0.1555758105318787
     0.0012521105838204    0.6115083727442610    0.6231955187453195
     0.2036767204679109    0.5212343737277649    0.1967550672423428
     0.7134277878920159    0.9812292057701981    0.7083156199862941
     0.3335677417481051    0.0831386816530255    0.1492584179965846
     0.8218184044088090    0.4014502633642394    0.6706826413639391
     0.9873315370371571    0.3744665352272065    0.1343924774060525
     0.4911193722723581    0.0371940415021115    0.5955191306517662
     0.3580077516174924    0.2155999879942740    0.2416960429610100
     0.8540681045588414    0.3141239979123469    0.7840543035625558
     0.8161111861365669    0.4235201470636909    0.1908281327890791
     0.3162139170779170    0.0063266998772633    0.6523163013794999
     0.4975213897328956    0.4863602323771659    0.9834566086078738
     0.0015239316754077    0.0141968900678151    0.4823706691551735
     0.9960255340779085    0.9817998452951713    0.9820953209469963
     0.4982490301260825    0.5093028824569785    0.4812933705302314
     0.7938768098649192    0.7109257511101674    0.5050043129117157
     0.9619953714602900    0.9929956077291351    0.2341245029392098
     0.7067257828562674    0.1925797671194545    0.9576803478679707
     0.2043461176307133    0.2913781805510851    0.0030255736835443
     0.2021783913549768    0.2999832643412930    0.4591938351396863
     0.2894717932246209    0.8014098513721635    0.4640033985398802
     0.7920448272776142    0.6988054813113536    0.9627286795465437
     0.7076863500919899    0.2131489698947746    0.5020731582626539
     0.4668570202931264    0.5066752975862343    0.7355311454561857
     0.0414282521400509    0.0071724357315688    0.7315889184761986
     0.3008584262441332    0.7852689713721404    0.0021804870964814
     0.5374121885964911    0.4905084173845822    0.2314809782695093

  0.00000000E+00  0.00000000E+00  0.00000000E+00
  0.00000000E+00  0.00000000E+00  0.00000000E+00
  0.00000000E+00  0.00000000E+00  0.00000000E+00
  0.00000000E+00  0.00000000E+00  0.00000000E+00
  0.00000000E+00  0.00000000E+00  0.00000000E+00
  0.00000000E+00  0.00000000E+00  0.00000000E+00
  0.00000000E+00  0.00000000E+00  0.00000000E+00
  0.00000000E+00  0.00000000E+00  0.00000000E+00
  0.00000000E+00  0.00000000E+00  0.00000000E+00
  0.00000000E+00  0.00000000E+00  0.00000000E+00
  0.00000000E+00  0.00000000E+00  0.00000000E+00
  0.00000000E+00  0.00000000E+00  0.00000000E+00
  0.00000000E+00  0.00000000E+00  0.00000000E+00
  0.00000000E+00  0.00000000E+00  0.00000000E+00
  0.00000000E+00  0.00000000E+00  0.00000000E+00
  0.00000000E+00  0.00000000E+00  0.00000000E+00
  0.00000000E+00  0.00000000E+00  0.00000000E+00
  0.00000000E+00  0.00000000E+00  0.00000000E+00
  0.00000000E+00  0.00000000E+00  0.00000000E+00
  0.00000000E+00  0.00000000E+00  0.00000000E+00
  0.00000000E+00  0.00000000E+00  0.00000000E+00
  0.00000000E+00  0.00000000E+00  0.00000000E+00
  0.00000000E+00  0.00000000E+00  0.00000000E+00
  0.00000000E+00  0.00000000E+00  0.00000000E+00
  0.00000000E+00  0.00000000E+00  0.00000000E+00
  0.00000000E+00  0.00000000E+00  0.00000000E+00
  0.00000000E+00  0.00000000E+00  0.00000000E+00
  0.00000000E+00  0.00000000E+00  0.00000000E+00
  0.00000000E+00  0.00000000E+00  0.00000000E+00
  0.00000000E+00  0.00000000E+00  0.00000000E+00
  0.00000000E+00  0.00000000E+00  0.00000000E+00
  0.00000000E+00  0.00000000E+00  0.00000000E+00
  0.00000000E+00  0.00000000E+00  0.00000000E+00
  0.00000000E+00  0.00000000E+00  0.00000000E+00
  0.00000000E+00  0.00000000E+00  0.00000000E+00
  0.00000000E+00  0.00000000E+00  0.00000000E+00
  0.00000000E+00  0.00000000E+00  0.00000000E+00
  0.00000000E+00  0.00000000E+00  0.00000000E+00
  0.00000000E+00  0.00000000E+00  0.00000000E+00
  0.00000000E+00  0.00000000E+00  0.00000000E+00
  0.00000000E+00  0.00000000E+00  0.00000000E+00
  0.00000000E+00  0.00000000E+00  0.00000000E+00
  0.00000000E+00  0.00000000E+00  0.00000000E+00
  0.00000000E+00  0.00000000E+00  0.00000000E+00
  0.00000000E+00  0.00000000E+00  0.00000000E+00
  0.00000000E+00  0.00000000E+00  0.00000000E+00
  0.00000000E+00  0.00000000E+00  0.00000000E+00
  0.00000000E+00  0.00000000E+00  0.00000000E+00
