C  N  H  Pb I 
 1.0000000000000000
     8.9959200619155553   -0.0124754731687147    0.0027677398895010
    -0.0121412653526387    8.8001049800067186    0.0572130806922246
     0.0039267086448290    0.0834049477344726   12.6075633056712828
 C   N   H   Pb  I  
   4   8  20   4  12
Direct
  0.5027870053812779  0.0379417578916312  0.2494725782970060
  0.0030804616016206  0.4689205325136563  0.7533684265400118
  0.9907811709874514  0.5480667425160640  0.2493805601814615
  0.4934436472099602  0.9706585472719811  0.7527481627363288
  0.5510582793308325  0.9036100025885965  0.2143234441472306
  0.0548521334686355  0.5808170191545358  0.6930003263782141
  0.1351384237286522  0.5774232090999504  0.2433298522011604
  0.6326213093909565  0.9564535414201292  0.7710343010469504
  0.3958490555626090  0.1178851534716438  0.2105552675716122
  0.8852830107395705  0.3906150636602365  0.7320411331265050
  0.9275848804778342  0.4338628809036388  0.1859860442358332
  0.4296590291884642  0.0151337115438318  0.6566758662371562
  0.5656818247934556  0.0835356618816953  0.3178898543113822
  0.0685773224057064  0.4477335786274317  0.8219785936844252
  0.9215193218203260  0.6136136316904680  0.2962358205283765
  0.4126814129604552  0.9438517982031652  0.8130082678247298
  0.6377780993030570  0.8553191597018506  0.2517773467809444
  0.1519995272705040  0.6413588710884145  0.7118876900155752
  0.1694608945672261  0.6533371687167370  0.2934782952457393
  0.6677379344948962  0.9319891824533646  0.8440534951096893
  0.4987563412082672  0.8523796465841190  0.1555758105318820
  0.0012521105838173  0.6115083727442627  0.6231955187453205
  0.2036767204679142  0.5212343737277647  0.1967550672423424
  0.7134277878920167  0.9812292057701972  0.7083156199862973
  0.3335677417481082  0.0831386816530245  0.1492584179965855
  0.8218184044088112  0.4014502633642364  0.6706826413639411
  0.9873315370371549  0.3744665352272037  0.1343924774060526
  0.4911193722723562  0.0371940415021082  0.5955191306517671
  0.3580077516174956  0.2155999879942724  0.2416960429610132
  0.8540681045588401  0.3141239979123441  0.7840543035625590
  0.8161111861365704  0.4235201470636898  0.1908281327890776
  0.3162139170779137  0.0063266998772643  0.6523163013795024
  0.4975213897328944  0.4863602323771624  0.9834566086078756
  0.0015239316754096  0.0141968900678125  0.4823706691551699
  0.9960255340779054  0.9817998452951744  0.9820953209469969
  0.4982490301260838  0.5093028824569796  0.4812933705302312
  0.7938768098649177  0.7109257511101668  0.5050043129117191
  0.9619953714602913  0.9929956077291329  0.2341245029392072
  0.7067257828562662  0.1925797671194576  0.9576803478679699
  0.2043461176307153  0.2913781805510816  0.0030255736835418
  0.2021783913549782  0.2999832643412917  0.4591938351396898
  0.2894717932246228  0.8014098513721668  0.4640033985398785
  0.7920448272776160  0.6988054813113559  0.9627286795465426
  0.7076863500919880  0.2131489698947763  0.5020731582626570
  0.4668570202931242  0.5066752975862362  0.7355311454561837
  0.0414282521400534  0.0071724357315711  0.7315889184761984
  0.3008584262441330  0.7852689713721415  0.0021804870964833
  0.5374121885964890  0.4905084173845797  0.2314809782695128
Cartesian
  0.0000000000000000  0.0000000000000000  0.0000000000000000
  0.0000000000000000  0.0000000000000000  0.0000000000000000
  0.0000000000000000  0.0000000000000000  0.0000000000000000
  0.0000000000000000  0.0000000000000000  0.0000000000000000
  0.0000000000000000  0.0000000000000000  0.0000000000000000
  0.0000000000000000  0.0000000000000000  0.0000000000000000
  0.0000000000000000  0.0000000000000000  0.0000000000000000
  0.0000000000000000  0.0000000000000000  0.0000000000000000
  0.0000000000000000  0.0000000000000000  0.0000000000000000
  0.0000000000000000  0.0000000000000000  0.0000000000000000
  0.0000000000000000  0.0000000000000000  0.0000000000000000
  0.0000000000000000  0.0000000000000000  0.0000000000000000
  0.0000000000000000  0.0000000000000000  0.0000000000000000
  0.0000000000000000  0.0000000000000000  0.0000000000000000
  0.0000000000000000  0.0000000000000000  0.0000000000000000
  0.0000000000000000  0.0000000000000000  0.0000000000000000
  0.0000000000000000  0.0000000000000000  0.0000000000000000
  0.0000000000000000  0.0000000000000000  0.0000000000000000
  0.0000000000000000  0.0000000000000000  0.0000000000000000
  0.0000000000000000  0.0000000000000000  0.0000000000000000
  0.0000000000000000  0.0000000000000000  0.0000000000000000
  0.0000000000000000  0.0000000000000000  0.0000000000000000
  0.0000000000000000  0.0000000000000000  0.0000000000000000
  0.0000000000000000  0.0000000000000000  0.0000000000000000
  0.0000000000000000  0.0000000000000000  0.0000000000000000
  0.0000000000000000  0.0000000000000000  0.0000000000000000
  0.0000000000000000  0.0000000000000000  0.0000000000000000
  0.0000000000000000  0.0000000000000000  0.0000000000000000
  0.0000000000000000  0.0000000000000000  0.0000000000000000
  0.0000000000000000  0.0000000000000000  0.0000000000000000
  0.0000000000000000  0.0000000000000000  0.0000000000000000
  0.0000000000000000  0.0000000000000000  0.0000000000000000
  0.0000000000000000  0.0000000000000000  0.0000000000000000
  0.0000000000000000  0.0000000000000000  0.0000000000000000
  0.0000000000000000  0.0000000000000000  0.0000000000000000
  0.0000000000000000  0.0000000000000000  0.0000000000000000
  0.0000000000000000  0.0000000000000000  0.0000000000000000
  0.0000000000000000  0.0000000000000000  0.0000000000000000
  0.0000000000000000  0.0000000000000000  0.0000000000000000
  0.0000000000000000  0.0000000000000000  0.0000000000000000
  0.0000000000000000  0.0000000000000000  0.0000000000000000
  0.0000000000000000  0.0000000000000000  0.0000000000000000
  0.0000000000000000  0.0000000000000000  0.0000000000000000
  0.0000000000000000  0.0000000000000000  0.0000000000000000
  0.0000000000000000  0.0000000000000000  0.0000000000000000
  0.0000000000000000  0.0000000000000000  0.0000000000000000
  0.0000000000000000  0.0000000000000000  0.0000000000000000
  0.0000000000000000  0.0000000000000000  0.0000000000000000
