C  N  H  Pb I                           
   1.0000000000000000     
     8.9515839677080429    0.0000000000000000    0.0000000000000000
     0.0000000000000000    8.9515839677080429    0.0000000000000000
     0.0000000000000000    0.0000000000000000    6.3289724258144924
  C               N               H               Pb              I             
     2     4    10     2     6
Direct
     0.4999442687614177    0.5036607848067618    0.5708160686712844
     0.9979108733830202    0.9992018342428537    0.5709420149384172
     0.6040636227061498    0.5771969460376738    0.4681477817505026
     0.3959837355768414    0.4197209429254514    0.4851838167838096
     0.0969710107783897    0.9119075693038567    0.4805410768687608
     0.9047898056844517    0.0887625085269761    0.4726841985253785
     0.4997925469481572    0.5131510560669028    0.7426776530822892
     0.6792864829826755    0.6391146070304146    0.5512424814381092
     0.6151249875803444    0.5766549287233715    0.3077710452908988
     0.3852020525568491    0.4026480068330258    0.3265957354879987
     0.3206071431278090    0.3676641313325888    0.5806087208190007
     0.9924888594344381    0.9971347272751601    0.7431319879294307
     0.1636997235213542    0.8468354034951489    0.5728121843959357
     0.1120882707697746    0.9045445547252484    0.3211649097590197
     0.8997342924096614    0.0999634864916530    0.3124838149337918
     0.8324288053609834    0.1516876817566555    0.5592713753268583
     0.9999996702832874    0.4999998411152120    0.9927896685767337
     0.4999997010236399    0.0000000324883942    0.9927896646371437
     0.9999999102034849    0.4999996263576136    0.4921929684839199
     0.4999999142446683    0.0000003677771616    0.4921929568124028
     0.2185734085131941    0.2185737368091125    0.9905351307177028
     0.2814254933831535    0.7185740284663780    0.9905345394682996
     0.7185734566697093    0.2814260629724075    0.9905349485405637
     0.7814255204687655    0.7814258469398112    0.9905345050794736

  0.00000000E+00  0.00000000E+00  0.00000000E+00
  0.00000000E+00  0.00000000E+00  0.00000000E+00
  0.00000000E+00  0.00000000E+00  0.00000000E+00
  0.00000000E+00  0.00000000E+00  0.00000000E+00
  0.00000000E+00  0.00000000E+00  0.00000000E+00
  0.00000000E+00  0.00000000E+00  0.00000000E+00
  0.00000000E+00  0.00000000E+00  0.00000000E+00
  0.00000000E+00  0.00000000E+00  0.00000000E+00
  0.00000000E+00  0.00000000E+00  0.00000000E+00
  0.00000000E+00  0.00000000E+00  0.00000000E+00
  0.00000000E+00  0.00000000E+00  0.00000000E+00
  0.00000000E+00  0.00000000E+00  0.00000000E+00
  0.00000000E+00  0.00000000E+00  0.00000000E+00
  0.00000000E+00  0.00000000E+00  0.00000000E+00
  0.00000000E+00  0.00000000E+00  0.00000000E+00
  0.00000000E+00  0.00000000E+00  0.00000000E+00
  0.00000000E+00  0.00000000E+00  0.00000000E+00
  0.00000000E+00  0.00000000E+00  0.00000000E+00
  0.00000000E+00  0.00000000E+00  0.00000000E+00
  0.00000000E+00  0.00000000E+00  0.00000000E+00
  0.00000000E+00  0.00000000E+00  0.00000000E+00
  0.00000000E+00  0.00000000E+00  0.00000000E+00
  0.00000000E+00  0.00000000E+00  0.00000000E+00
  0.00000000E+00  0.00000000E+00  0.00000000E+00
