C  N  H  Pb I                           
   1.0000000000000000     
     8.9515839677080429    0.0000000000000000    0.0000000000000000
     0.0000000000000000    8.9515839677080429    0.0000000000000000
     0.0000000000000000    0.0000000000000000    6.3289724258144924
  C               N               H               Pb              I             
     2     4    10     2     6
Direct
     0.4895415708275408    0.5039319832636409    0.5691116136548260
     0.0010249836518028    0.0003439102300220    0.5709997514885359
     0.5945103390738424    0.5920620939426726    0.4951814739826332
     0.4142997647442996    0.4046273435065117    0.4595858646472735
     0.0926165494227718    0.9081980441506161    0.4746709345783984
     0.9065210967509287    0.0915100038609467    0.4785057001572142
     0.4624040493196517    0.5141248300313492    0.7365497966414338
     0.6456319970432318    0.6651863699011713    0.5950255624325607
     0.6291511111935790    0.5924404200452642    0.3416717762850396
     0.4300230026404535    0.3853298525051372    0.3023398421873722
     0.3349925650752397    0.3420942691007340    0.5336675848454178
     0.0036817397220688    0.0012396602340630    0.7433395901179480
     0.1613387670115216    0.8423280527255770    0.5627890189498217
     0.0999175120032376    0.8977466963027680    0.3145421067811895
     0.8942881149495321    0.1003004336729276    0.3187798975770235
     0.8405582303114585    0.1583106110036212    0.5694015914591759
     0.9999996702832874    0.4999998411152120    0.9927896685767337
     0.4999997010236399    0.0000000324883942    0.9927896646371437
     0.9999999102034849    0.4999996263576136    0.4921929684839199
     0.4999999142446683    0.0000003677771616    0.4921929568124028
     0.2185734085131941    0.2185737368091125    0.9905351307177028
     0.2814254933831535    0.7185740284663780    0.9905345394682996
     0.7185734566697093    0.2814260629724075    0.9905349485405637
     0.7814255204687655    0.7814258469398112    0.9905345050794736

  0.00000000E+00  0.00000000E+00  0.00000000E+00
  0.00000000E+00  0.00000000E+00  0.00000000E+00
  0.00000000E+00  0.00000000E+00  0.00000000E+00
  0.00000000E+00  0.00000000E+00  0.00000000E+00
  0.00000000E+00  0.00000000E+00  0.00000000E+00
  0.00000000E+00  0.00000000E+00  0.00000000E+00
  0.00000000E+00  0.00000000E+00  0.00000000E+00
  0.00000000E+00  0.00000000E+00  0.00000000E+00
  0.00000000E+00  0.00000000E+00  0.00000000E+00
  0.00000000E+00  0.00000000E+00  0.00000000E+00
  0.00000000E+00  0.00000000E+00  0.00000000E+00
  0.00000000E+00  0.00000000E+00  0.00000000E+00
  0.00000000E+00  0.00000000E+00  0.00000000E+00
  0.00000000E+00  0.00000000E+00  0.00000000E+00
  0.00000000E+00  0.00000000E+00  0.00000000E+00
  0.00000000E+00  0.00000000E+00  0.00000000E+00
  0.00000000E+00  0.00000000E+00  0.00000000E+00
  0.00000000E+00  0.00000000E+00  0.00000000E+00
  0.00000000E+00  0.00000000E+00  0.00000000E+00
  0.00000000E+00  0.00000000E+00  0.00000000E+00
  0.00000000E+00  0.00000000E+00  0.00000000E+00
  0.00000000E+00  0.00000000E+00  0.00000000E+00
  0.00000000E+00  0.00000000E+00  0.00000000E+00
  0.00000000E+00  0.00000000E+00  0.00000000E+00
