C  N  H  Pb I                           
   1.0000000000000000     
     9.1164457538181463   -0.0656616946302236   -0.0036261540416789
    -0.0639026710432667    8.7354790071640540    0.0394892010467743
    -0.0051445767996318    0.0575671631300549   12.6258393615756628
  C               N               H               Pb              I             
     4     8    20     4    12
Direct
     0.4837761435195205    0.0597129885360488    0.2407763036365438
     0.9970688608958582    0.4492163670179679    0.7482527984361838
     0.9880772039382748    0.5423135676021502    0.2414380374717169
     0.4906501225652633    0.9540602434072696    0.7446145294493149
     0.6093378635929483    0.0028594879643933    0.2092914611760648
     0.0985636866406310    0.5159900062858256    0.6936672055287403
     0.1232719950969923    0.5921410580338673    0.2453561559966460
     0.6355753917847622    0.9313503929762277    0.7400146070151692
     0.3512920753661533    0.0020173224998175    0.2274145600439397
     0.8520506789227582    0.4742083325182165    0.7338535033143501
     0.9362401118182788    0.4231678785102986    0.1915213078393094
     0.4194909523611585    0.0536539681235340    0.6912995713805117
     0.4916209893518086    0.1730712984702123    0.2774951730895197
     0.0295563033286612    0.3642971205411527    0.8079840736406183
     0.9090896445297432    0.6180392717252445    0.2776576718362449
     0.4315769377812444    0.8842672547147714    0.8021620975495622
     0.7053549534439654    0.0637720811352196    0.2185495392674355
     0.2049879705605662    0.4797920228651762    0.7044551365510543
     0.1553665469200922    0.6845590276903764    0.2883907905196637
     0.6874671733436344    0.8567725525394536    0.7889565743195917
     0.6120867816428657    0.8964715279422393    0.1728250832146543
     0.0750743330699351    0.5940084734993505    0.6360689322471487
     0.2122039246225498    0.5289118617255397    0.2108121632422311
     0.7046124224511132    0.9948112558859776    0.6928909383784969
     0.3348951654879926    0.8934912025278692    0.1935840700760423
     0.8132318951751358    0.5507583970200827    0.6849159667050060
     0.0075763235451589    0.3521744157449191    0.1525162860574056
     0.4742372616461878    0.1223728122505676    0.6381398703493062
     0.2571998237022441    0.0523912715307304    0.2559583100886940
     0.7824998904404907    0.4250994739538712    0.7848039259982045
     0.8278821104444773    0.4034297590407121    0.1885791333770257
     0.3114128160096712    0.0604293696438063    0.6929180331788700
     0.5018082168305043    0.4904426977391054    0.9809117846381739
     0.0041960240961174    0.0123917005997498    0.4806792220203988
     0.9989416118204772    0.9883247444282617    0.9826456412230939
     0.4984923555760687    0.5106494729087174    0.4798260853166170
     0.7975074992157190    0.7127935811991648    0.5023477418185394
     0.9640770239899155    0.9966447855691953    0.2353338258296773
     0.7050872663279577    0.1966950098997771    0.9633527733308256
     0.2017046442786139    0.2872938409067629    0.0028331059910798
     0.2047711565536332    0.3057831753308662    0.4604177672441168
     0.2936026497282000    0.8043207915241339    0.4618806369403572
     0.7929909572550216    0.6941437653887874    0.9595896564729358
     0.7027953630696828    0.2089756617570941    0.5018125895799770
     0.4632959467258857    0.5087172425105706    0.7319436118040628
     0.0428429469759735    0.0036987045747310    0.7307091608656080
     0.2969866631003271    0.7902612905159785    0.0026873520145756
     0.5375560196765150    0.4967240321184789    0.2317656407686783

  0.00000000E+00  0.00000000E+00  0.00000000E+00
  0.00000000E+00  0.00000000E+00  0.00000000E+00
  0.00000000E+00  0.00000000E+00  0.00000000E+00
  0.00000000E+00  0.00000000E+00  0.00000000E+00
  0.00000000E+00  0.00000000E+00  0.00000000E+00
  0.00000000E+00  0.00000000E+00  0.00000000E+00
  0.00000000E+00  0.00000000E+00  0.00000000E+00
  0.00000000E+00  0.00000000E+00  0.00000000E+00
  0.00000000E+00  0.00000000E+00  0.00000000E+00
  0.00000000E+00  0.00000000E+00  0.00000000E+00
  0.00000000E+00  0.00000000E+00  0.00000000E+00
  0.00000000E+00  0.00000000E+00  0.00000000E+00
  0.00000000E+00  0.00000000E+00  0.00000000E+00
  0.00000000E+00  0.00000000E+00  0.00000000E+00
  0.00000000E+00  0.00000000E+00  0.00000000E+00
  0.00000000E+00  0.00000000E+00  0.00000000E+00
  0.00000000E+00  0.00000000E+00  0.00000000E+00
  0.00000000E+00  0.00000000E+00  0.00000000E+00
  0.00000000E+00  0.00000000E+00  0.00000000E+00
  0.00000000E+00  0.00000000E+00  0.00000000E+00
  0.00000000E+00  0.00000000E+00  0.00000000E+00
  0.00000000E+00  0.00000000E+00  0.00000000E+00
  0.00000000E+00  0.00000000E+00  0.00000000E+00
  0.00000000E+00  0.00000000E+00  0.00000000E+00
  0.00000000E+00  0.00000000E+00  0.00000000E+00
  0.00000000E+00  0.00000000E+00  0.00000000E+00
  0.00000000E+00  0.00000000E+00  0.00000000E+00
  0.00000000E+00  0.00000000E+00  0.00000000E+00
  0.00000000E+00  0.00000000E+00  0.00000000E+00
  0.00000000E+00  0.00000000E+00  0.00000000E+00
  0.00000000E+00  0.00000000E+00  0.00000000E+00
  0.00000000E+00  0.00000000E+00  0.00000000E+00
  0.00000000E+00  0.00000000E+00  0.00000000E+00
  0.00000000E+00  0.00000000E+00  0.00000000E+00
  0.00000000E+00  0.00000000E+00  0.00000000E+00
  0.00000000E+00  0.00000000E+00  0.00000000E+00
  0.00000000E+00  0.00000000E+00  0.00000000E+00
  0.00000000E+00  0.00000000E+00  0.00000000E+00
  0.00000000E+00  0.00000000E+00  0.00000000E+00
  0.00000000E+00  0.00000000E+00  0.00000000E+00
  0.00000000E+00  0.00000000E+00  0.00000000E+00
  0.00000000E+00  0.00000000E+00  0.00000000E+00
  0.00000000E+00  0.00000000E+00  0.00000000E+00
  0.00000000E+00  0.00000000E+00  0.00000000E+00
  0.00000000E+00  0.00000000E+00  0.00000000E+00
  0.00000000E+00  0.00000000E+00  0.00000000E+00
  0.00000000E+00  0.00000000E+00  0.00000000E+00
  0.00000000E+00  0.00000000E+00  0.00000000E+00
