C  N  H  Pb I 
 1.0000000000000000
     9.1164457538181463   -0.0656616946302236   -0.0036261540416789
    -0.0639026710432667    8.7354790071640540    0.0394892010467743
    -0.0051445767996318    0.0575671631300549   12.6258393615756628
 C   N   H   Pb  I  
   4   8  20   4  12
Direct
  0.4837761435195183  0.0597129885360474  0.2407763036365446
  0.9970688608958607  0.4492163670179705  0.7482527984361844
  0.9880772039382761  0.5423135676021537  0.2414380374717191
  0.4906501225652649  0.9540602434072663  0.7446145294493154
  0.6093378635929488  0.0028594879643904  0.2092914611760663
  0.0985636866406293  0.5159900062858287  0.6936672055287384
  0.1232719950969905  0.5921410580338705  0.2453561559966455
  0.6355753917847610  0.9313503929762276  0.7400146070151705
  0.3512920753661520  0.0020173224998202  0.2274145600439411
  0.8520506789227559  0.4742083325182146  0.7338535033143518
  0.9362401118182782  0.4231678785102966  0.1915213078393093
  0.4194909523611604  0.0536539681235373  0.6912995713805119
  0.4916209893518061  0.1730712984702141  0.2774951730895192
  0.0295563033286646  0.3642971205411492  0.8079840736406162
  0.9090896445297455  0.6180392717252449  0.2776576718362430
  0.4315769377812417  0.8842672547147747  0.8021620975495604
  0.7053549534439644  0.0637720811352172  0.2185495392674349
  0.2049879705605633  0.4797920228651790  0.7044551365510540
  0.1553665469200945  0.6845590276903751  0.2883907905196642
  0.6874671733436353  0.8567725525394525  0.7889565743195930
  0.6120867816428671  0.8964715279422412  0.1728250832146574
  0.0750743330699333  0.5940084734993484  0.6360689322471514
  0.2122039246225507  0.5289118617255403  0.2108121632422345
  0.7046124224511120  0.9948112558859799  0.6928909383784951
  0.3348951654879911  0.8934912025278693  0.1935840700760395
  0.8132318951751383  0.5507583970200842  0.6849159667050068
  0.0075763235451563  0.3521744157449189  0.1525162860574058
  0.4742372616461873  0.1223728122505643  0.6381398703493062
  0.2571998237022476  0.0523912715307269  0.2559583100886930
  0.7824998904404876  0.4250994739538742  0.7848039259982056
  0.8278821104444772  0.4034297590407115  0.1885791333770259
  0.3114128160096734  0.0604293696438072  0.6929180331788718
  0.5018082168305035  0.4904426977391061  0.9809117846381773
  0.0041960240961166  0.0123917005997521  0.4806792220203981
  0.9989416118204798  0.9883247444282636  0.9826456412230944
  0.4984923555760720  0.5106494729087163  0.4798260853166137
  0.7975074992157178  0.7127935811991660  0.5023477418185364
  0.9640770239899139  0.9966447855691937  0.2353338258296754
  0.7050872663279548  0.1966950098997788  0.9633527733308241
  0.2017046442786147  0.2872938409067644  0.0028331059910814
  0.2047711565536332  0.3057831753308650  0.4604177672441176
  0.2936026497281979  0.8043207915241350  0.4618806369403585
  0.7929909572550202  0.6941437653887882  0.9595896564729356
  0.7027953630696860  0.2089756617570960  0.5018125895799737
  0.4632959467258877  0.5087172425105689  0.7319436118040602
  0.0428429469759766  0.0036987045747312  0.7307091608656104
  0.2969866631003257  0.7902612905159816  0.0026873520145755
  0.5375560196765116  0.4967240321184804  0.2317656407686818
Cartesian
  0.0000000000000000  0.0000000000000000  0.0000000000000000
  0.0000000000000000  0.0000000000000000  0.0000000000000000
  0.0000000000000000  0.0000000000000000  0.0000000000000000
  0.0000000000000000  0.0000000000000000  0.0000000000000000
  0.0000000000000000  0.0000000000000000  0.0000000000000000
  0.0000000000000000  0.0000000000000000  0.0000000000000000
  0.0000000000000000  0.0000000000000000  0.0000000000000000
  0.0000000000000000  0.0000000000000000  0.0000000000000000
  0.0000000000000000  0.0000000000000000  0.0000000000000000
  0.0000000000000000  0.0000000000000000  0.0000000000000000
  0.0000000000000000  0.0000000000000000  0.0000000000000000
  0.0000000000000000  0.0000000000000000  0.0000000000000000
  0.0000000000000000  0.0000000000000000  0.0000000000000000
  0.0000000000000000  0.0000000000000000  0.0000000000000000
  0.0000000000000000  0.0000000000000000  0.0000000000000000
  0.0000000000000000  0.0000000000000000  0.0000000000000000
  0.0000000000000000  0.0000000000000000  0.0000000000000000
  0.0000000000000000  0.0000000000000000  0.0000000000000000
  0.0000000000000000  0.0000000000000000  0.0000000000000000
  0.0000000000000000  0.0000000000000000  0.0000000000000000
  0.0000000000000000  0.0000000000000000  0.0000000000000000
  0.0000000000000000  0.0000000000000000  0.0000000000000000
  0.0000000000000000  0.0000000000000000  0.0000000000000000
  0.0000000000000000  0.0000000000000000  0.0000000000000000
  0.0000000000000000  0.0000000000000000  0.0000000000000000
  0.0000000000000000  0.0000000000000000  0.0000000000000000
  0.0000000000000000  0.0000000000000000  0.0000000000000000
  0.0000000000000000  0.0000000000000000  0.0000000000000000
  0.0000000000000000  0.0000000000000000  0.0000000000000000
  0.0000000000000000  0.0000000000000000  0.0000000000000000
  0.0000000000000000  0.0000000000000000  0.0000000000000000
  0.0000000000000000  0.0000000000000000  0.0000000000000000
  0.0000000000000000  0.0000000000000000  0.0000000000000000
  0.0000000000000000  0.0000000000000000  0.0000000000000000
  0.0000000000000000  0.0000000000000000  0.0000000000000000
  0.0000000000000000  0.0000000000000000  0.0000000000000000
  0.0000000000000000  0.0000000000000000  0.0000000000000000
  0.0000000000000000  0.0000000000000000  0.0000000000000000
  0.0000000000000000  0.0000000000000000  0.0000000000000000
  0.0000000000000000  0.0000000000000000  0.0000000000000000
  0.0000000000000000  0.0000000000000000  0.0000000000000000
  0.0000000000000000  0.0000000000000000  0.0000000000000000
  0.0000000000000000  0.0000000000000000  0.0000000000000000
  0.0000000000000000  0.0000000000000000  0.0000000000000000
  0.0000000000000000  0.0000000000000000  0.0000000000000000
  0.0000000000000000  0.0000000000000000  0.0000000000000000
  0.0000000000000000  0.0000000000000000  0.0000000000000000
  0.0000000000000000  0.0000000000000000  0.0000000000000000
