C  N  H  Pb I                           
   1.0000000000000000     
     9.0193899931757802    0.0000000000000000    0.0000000000000000
     0.0000000000000000    8.7777678445653162    0.0000000000000000
     0.0000000000000000    0.0000000000000000   12.7961868062944486
  C               N               H               Pb              I             
     4     8    20     4    12
Direct
     0.4916334317198405    0.0536145912412564    0.2022891259774440
     0.9699470251203124    0.5222180217089871    0.7406954856933581
     0.9920454334685047    0.5406959860585872    0.2475946299923706
     0.4920454478785175    0.9593040127881096    0.7475946256013870
     0.6020368896568655    0.9753266858794873    0.2419395874275878
     0.0555694840028380    0.4243061440819744    0.7892597998036877
     0.1310336582348199    0.5838994807281068    0.2399588818968326
     0.6310336640152769    0.9161005167449332    0.7399588856927721
     0.3512524632348004    0.0333476929068723    0.2257417476564214
     0.9158696527417618    0.5034937918082534    0.6462705203682546
     0.9294053217315223    0.4354362199708675    0.1897252216917167
     0.4294053329446612    0.0645637684645806    0.6897252229388684
     0.5183390498078211    0.1430028339672376    0.1457122443379717
     0.9418231687853478    0.6277924068320146    0.7816515070381058
     0.9236836942065167    0.5964013535599975    0.3070350101048547
     0.4236837047439721    0.9035986570811900    0.8070350168177995
     0.7069421326302106    0.9945876805102074    0.2146816567386054
     0.0859023416278362    0.4459186973333189    0.8648120516691549
     0.1727440398663802    0.6618424652955213    0.2915835922463330
     0.6727440483713281    0.8381575300147404    0.7915835946568777
     0.5849863943262434    0.8888190858937506    0.2943193045851586
     0.0848330487177904    0.3224226312716780    0.7560998781870225
     0.2027680669080070    0.5368550561063330    0.1875867459194609
     0.7027680811919126    0.9631449364772280    0.6875867437071861
     0.3168022187154094    0.9538632065764148    0.2784513321584043
     0.9378313697360952    0.4094484229672446    0.6022325533103441
     0.9862840415021594    0.3799864786952014    0.1317994707683496
     0.4862840485959765    0.1200135117898071    0.6317994631872494
     0.2727813628427498    0.1043618206411665    0.1948246312843551
     0.8556629051543396    0.5889289519794261    0.6123207386532030
     0.8183796010724720    0.4153349919539693    0.1981420818729518
     0.3183796102733396    0.0846649986020438    0.6981420736952373
     0.5023441722619779    0.4879288203356396    0.9810849892003191
     0.0023441785924945    0.0120711836670608    0.4810849868122489
     0.9976558244282359    0.9879288178551917    0.9810849914872719
     0.4976558298475950    0.5120711849063113    0.4810849885500943
     0.7958928941106862    0.7105293335369609    0.5032699314851357
     0.9606598229172718    0.9944623124655507    0.2320592544955247
     0.7060293635732506    0.1956508126848462    0.9614522052702341
     0.2041070863312058    0.2894707010478257    0.0032699320500740
     0.2060293779368507    0.3043491755398549    0.4614522129329686
     0.2939706246777973    0.8043491828284957    0.4614522154174097
     0.7939706408800902    0.6956508110307098    0.9614522100061293
     0.7041071043942750    0.2105293303375291    0.5032699287679776
     0.4606598128207438    0.5055376617516671    0.7320592563212429
     0.0393401777688851    0.0055376740307977    0.7320592521911493
     0.2958929104798855    0.7894706933117490    0.0032699289927791
     0.5393401671427824    0.4944623109760684    0.2320592517272502

  0.00000000E+00  0.00000000E+00  0.00000000E+00
  0.00000000E+00  0.00000000E+00  0.00000000E+00
  0.00000000E+00  0.00000000E+00  0.00000000E+00
  0.00000000E+00  0.00000000E+00  0.00000000E+00
  0.00000000E+00  0.00000000E+00  0.00000000E+00
  0.00000000E+00  0.00000000E+00  0.00000000E+00
  0.00000000E+00  0.00000000E+00  0.00000000E+00
  0.00000000E+00  0.00000000E+00  0.00000000E+00
  0.00000000E+00  0.00000000E+00  0.00000000E+00
  0.00000000E+00  0.00000000E+00  0.00000000E+00
  0.00000000E+00  0.00000000E+00  0.00000000E+00
  0.00000000E+00  0.00000000E+00  0.00000000E+00
  0.00000000E+00  0.00000000E+00  0.00000000E+00
  0.00000000E+00  0.00000000E+00  0.00000000E+00
  0.00000000E+00  0.00000000E+00  0.00000000E+00
  0.00000000E+00  0.00000000E+00  0.00000000E+00
  0.00000000E+00  0.00000000E+00  0.00000000E+00
  0.00000000E+00  0.00000000E+00  0.00000000E+00
  0.00000000E+00  0.00000000E+00  0.00000000E+00
  0.00000000E+00  0.00000000E+00  0.00000000E+00
  0.00000000E+00  0.00000000E+00  0.00000000E+00
  0.00000000E+00  0.00000000E+00  0.00000000E+00
  0.00000000E+00  0.00000000E+00  0.00000000E+00
  0.00000000E+00  0.00000000E+00  0.00000000E+00
  0.00000000E+00  0.00000000E+00  0.00000000E+00
  0.00000000E+00  0.00000000E+00  0.00000000E+00
  0.00000000E+00  0.00000000E+00  0.00000000E+00
  0.00000000E+00  0.00000000E+00  0.00000000E+00
  0.00000000E+00  0.00000000E+00  0.00000000E+00
  0.00000000E+00  0.00000000E+00  0.00000000E+00
  0.00000000E+00  0.00000000E+00  0.00000000E+00
  0.00000000E+00  0.00000000E+00  0.00000000E+00
  0.00000000E+00  0.00000000E+00  0.00000000E+00
  0.00000000E+00  0.00000000E+00  0.00000000E+00
  0.00000000E+00  0.00000000E+00  0.00000000E+00
  0.00000000E+00  0.00000000E+00  0.00000000E+00
  0.00000000E+00  0.00000000E+00  0.00000000E+00
  0.00000000E+00  0.00000000E+00  0.00000000E+00
  0.00000000E+00  0.00000000E+00  0.00000000E+00
  0.00000000E+00  0.00000000E+00  0.00000000E+00
  0.00000000E+00  0.00000000E+00  0.00000000E+00
  0.00000000E+00  0.00000000E+00  0.00000000E+00
  0.00000000E+00  0.00000000E+00  0.00000000E+00
  0.00000000E+00  0.00000000E+00  0.00000000E+00
  0.00000000E+00  0.00000000E+00  0.00000000E+00
  0.00000000E+00  0.00000000E+00  0.00000000E+00
  0.00000000E+00  0.00000000E+00  0.00000000E+00
  0.00000000E+00  0.00000000E+00  0.00000000E+00
