C  N  H  Pb I                           
   1.0000000000000000     
     9.0193899931757802    0.0000000000000000    0.0000000000000000
     0.0000000000000000    8.7777678445653162    0.0000000000000000
     0.0000000000000000    0.0000000000000000   12.7961868062944486
  C               N               H               Pb              I             
     4     8    20     4    12
Direct
     0.5023562651541056    0.0253817629527902    0.2486803922619458
     0.0010860848543643    0.4562362281299883    0.7441745440151237
     0.9892633500963228    0.5536342920819166    0.2440588492979785
     0.4802520974351410    0.9476373099073285    0.7466493356796491
     0.5596960123353369    0.9305052411102892    0.1906539329836860
     0.0700800327118287    0.5572614894849082    0.6961244970944236
     0.1195728302500925    0.5884691979581902    0.2460337791774734
     0.6302165013700360    0.9088212462565934    0.7335728017905794
     0.3584026927117776    0.0850734868792316    0.2361184223624946
     0.8688329010728921    0.4255450245161612    0.7416689948206496
     0.9248538993269477    0.4227201439237689    0.1876529338786455
     0.4293389189785231    0.0687337158390946    0.6954598269742505
     0.5586398646909601    0.0938013657258594    0.3111511786071119
     0.0740750840415600    0.4066582373180481    0.8112465302306049
     0.9323206093810015    0.5986714813687826    0.3008101752752452
     0.4075686512070220    0.9060793639037641    0.8064313404159407
     0.6820146190322021    0.9085838209919430    0.2093506023058396
     0.1774272405721575    0.5900699664892670    0.6957950632704168
     0.1598016948371281    0.6535110958356825    0.2980784108779559
     0.6696914232624067    0.8439649339969364    0.7884129589862710
     0.5184108050466492    0.8768668969827118    0.1230328321833269
     0.0112141005157724    0.6165713399622419    0.6341825398350664
     0.2031848495478599    0.5430167715896985    0.1827670127699363
     0.7063825468773075    0.9562739296740190    0.6888887347556150
     0.2853442561117490    0.0356519501608830    0.1890163028964480
     0.7998005310577625    0.4589055326081493    0.6877198879896156
     0.9749578724108261    0.3776330176725438    0.1348424782077089
     0.4844762956373572    0.1065187029013259    0.6337631653813744
     0.3317887908746826    0.1729015467917137    0.2921039999726460
     0.8289179677607024    0.3399700077954790    0.7919974923532465
     0.8187888477053420    0.4114303356783040    0.1923667101152660
     0.3124155922532879    0.0835392041348726    0.6927671641437811
     0.5079934763638150    0.4754602779399804    0.9834799289422875
     0.9981733436272719    0.0221198900993826    0.4771405432281739
     0.9954030979904402    0.9961453993232823    0.9800618831270782
     0.5022973892358849    0.5095225200720179    0.4770910173190543
     0.7898155343728419    0.7066660542832750    0.5031828265740899
     0.9492211511738518    0.9976150060030307    0.2245841190614541
     0.7057416425962515    0.2093989230258018    0.9618831332446689
     0.2082123139274188    0.2874122438134989    0.0100987280403118
     0.2215825707045056    0.3059864842242419    0.4643964409074783
     0.3050469673456035    0.8174411068035141    0.4653574702054897
     0.7861804795173555    0.6912787499440896    0.9614244276032053
     0.6948057586260958    0.2000554247694666    0.5096132893494101
     0.4653009745022487    0.4991789431714864    0.7334024221587896
     0.0350696318676853    0.0121695766656487    0.7240109348427168
     0.2849536174618876    0.8036721572536010    0.9950948248903941
     0.5475830406075062    0.4885401349732135    0.2309876275696254

  0.00000000E+00  0.00000000E+00  0.00000000E+00
  0.00000000E+00  0.00000000E+00  0.00000000E+00
  0.00000000E+00  0.00000000E+00  0.00000000E+00
  0.00000000E+00  0.00000000E+00  0.00000000E+00
  0.00000000E+00  0.00000000E+00  0.00000000E+00
  0.00000000E+00  0.00000000E+00  0.00000000E+00
  0.00000000E+00  0.00000000E+00  0.00000000E+00
  0.00000000E+00  0.00000000E+00  0.00000000E+00
  0.00000000E+00  0.00000000E+00  0.00000000E+00
  0.00000000E+00  0.00000000E+00  0.00000000E+00
  0.00000000E+00  0.00000000E+00  0.00000000E+00
  0.00000000E+00  0.00000000E+00  0.00000000E+00
  0.00000000E+00  0.00000000E+00  0.00000000E+00
  0.00000000E+00  0.00000000E+00  0.00000000E+00
  0.00000000E+00  0.00000000E+00  0.00000000E+00
  0.00000000E+00  0.00000000E+00  0.00000000E+00
  0.00000000E+00  0.00000000E+00  0.00000000E+00
  0.00000000E+00  0.00000000E+00  0.00000000E+00
  0.00000000E+00  0.00000000E+00  0.00000000E+00
  0.00000000E+00  0.00000000E+00  0.00000000E+00
  0.00000000E+00  0.00000000E+00  0.00000000E+00
  0.00000000E+00  0.00000000E+00  0.00000000E+00
  0.00000000E+00  0.00000000E+00  0.00000000E+00
  0.00000000E+00  0.00000000E+00  0.00000000E+00
  0.00000000E+00  0.00000000E+00  0.00000000E+00
  0.00000000E+00  0.00000000E+00  0.00000000E+00
  0.00000000E+00  0.00000000E+00  0.00000000E+00
  0.00000000E+00  0.00000000E+00  0.00000000E+00
  0.00000000E+00  0.00000000E+00  0.00000000E+00
  0.00000000E+00  0.00000000E+00  0.00000000E+00
  0.00000000E+00  0.00000000E+00  0.00000000E+00
  0.00000000E+00  0.00000000E+00  0.00000000E+00
  0.00000000E+00  0.00000000E+00  0.00000000E+00
  0.00000000E+00  0.00000000E+00  0.00000000E+00
  0.00000000E+00  0.00000000E+00  0.00000000E+00
  0.00000000E+00  0.00000000E+00  0.00000000E+00
  0.00000000E+00  0.00000000E+00  0.00000000E+00
  0.00000000E+00  0.00000000E+00  0.00000000E+00
  0.00000000E+00  0.00000000E+00  0.00000000E+00
  0.00000000E+00  0.00000000E+00  0.00000000E+00
  0.00000000E+00  0.00000000E+00  0.00000000E+00
  0.00000000E+00  0.00000000E+00  0.00000000E+00
  0.00000000E+00  0.00000000E+00  0.00000000E+00
  0.00000000E+00  0.00000000E+00  0.00000000E+00
  0.00000000E+00  0.00000000E+00  0.00000000E+00
  0.00000000E+00  0.00000000E+00  0.00000000E+00
  0.00000000E+00  0.00000000E+00  0.00000000E+00
  0.00000000E+00  0.00000000E+00  0.00000000E+00
