C  N  H  Pb I 
 1.0000000000000000
     9.0193899931757802    0.0000000000000000    0.0000000000000000
     0.0000000000000000    8.7777678445653162    0.0000000000000000
     0.0000000000000000    0.0000000000000000   12.7961868062944486
 C   N   H   Pb  I  
   4   8  20   4  12
Direct
  0.5023562651541031  0.0253817629527923  0.2486803922619441
  0.0010860848543616  0.4562362281299868  0.7441745440151212
  0.9892633500963238  0.5536342920819188  0.2440588492979770
  0.4802520974351415  0.9476373099073311  0.7466493356796504
  0.5596960123353334  0.9305052411102888  0.1906539329836858
  0.0700800327118304  0.5572614894849072  0.6961244970944220
  0.1195728302500893  0.5884691979581892  0.2460337791774762
  0.6302165013700393  0.9088212462565922  0.7335728017905806
  0.3584026927117757  0.0850734868792347  0.2361184223624911
  0.8688329010728946  0.4255450245161579  0.7416689948206462
  0.9248538993269468  0.4227201439237657  0.1876529338786477
  0.4293389189785211  0.0687337158390928  0.6954598269742516
  0.5586398646909611  0.0938013657258598  0.3111511786071146
  0.0740750840415611  0.4066582373180486  0.8112465302306052
  0.9323206093809990  0.5986714813687803  0.3008101752752446
  0.4075686512070237  0.9060793639037638  0.8064313404159390
  0.6820146190322022  0.9085838209919412  0.2093506023058415
  0.1774272405721582  0.5900699664892692  0.6957950632704170
  0.1598016948371308  0.6535110958356835  0.2980784108779553
  0.6696914232624064  0.8439649339969361  0.7884129589862735
  0.5184108050466490  0.8768668969827090  0.1230328321833300
  0.0112141005157709  0.6165713399622409  0.6341825398350660
  0.2031848495478615  0.5430167715896986  0.1827670127699397
  0.7063825468773081  0.9562739296740209  0.6888887347556129
  0.2853442561117456  0.0356519501608819  0.1890163028964454
  0.7998005310577632  0.4589055326081477  0.6877198879896164
  0.9749578724108281  0.3776330176725439  0.1348424782077097
  0.4844762956373565  0.1065187029013230  0.6337631653813754
  0.3317887908746814  0.1729015467917167  0.2921039999726450
  0.8289179677606997  0.3399700077954765  0.7919974923532440
  0.8187888477053429  0.4114303356783043  0.1923667101152632
  0.3124155922532896  0.0835392041348729  0.6927671641437820
  0.5079934763638180  0.4754602779399834  0.9834799289422856
  0.9981733436272749  0.0221198900993817  0.4771405432281771
  0.9954030979904422  0.9961453993232789  0.9800618831270769
  0.5022973892358842  0.5095225200720195  0.4770910173190538
  0.7898155343728452  0.7066660542832771  0.5031828265740931
  0.9492211511738485  0.9976150060030311  0.2245841190614517
  0.7057416425962550  0.2093989230258009  0.9618831332446686
  0.2082123139274221  0.2874122438135009  0.0100987280403147
  0.2215825707045070  0.3059864842242394  0.4643964409074791
  0.3050469673456045  0.8174411068035127  0.4653574702054876
  0.7861804795173567  0.6912787499440862  0.9614244276032037
  0.6948057586260983  0.2000554247694696  0.5096132893494101
  0.4653009745022508  0.4991789431714861  0.7334024221587893
  0.0350696318676875  0.0121695766656479  0.7240109348427162
  0.2849536174618905  0.8036721572536011  0.9950948248903942
  0.5475830406075070  0.4885401349732115  0.2309876275696266
Cartesian
  0.0000000000000000  0.0000000000000000  0.0000000000000000
  0.0000000000000000  0.0000000000000000  0.0000000000000000
  0.0000000000000000  0.0000000000000000  0.0000000000000000
  0.0000000000000000  0.0000000000000000  0.0000000000000000
  0.0000000000000000  0.0000000000000000  0.0000000000000000
  0.0000000000000000  0.0000000000000000  0.0000000000000000
  0.0000000000000000  0.0000000000000000  0.0000000000000000
  0.0000000000000000  0.0000000000000000  0.0000000000000000
  0.0000000000000000  0.0000000000000000  0.0000000000000000
  0.0000000000000000  0.0000000000000000  0.0000000000000000
  0.0000000000000000  0.0000000000000000  0.0000000000000000
  0.0000000000000000  0.0000000000000000  0.0000000000000000
  0.0000000000000000  0.0000000000000000  0.0000000000000000
  0.0000000000000000  0.0000000000000000  0.0000000000000000
  0.0000000000000000  0.0000000000000000  0.0000000000000000
  0.0000000000000000  0.0000000000000000  0.0000000000000000
  0.0000000000000000  0.0000000000000000  0.0000000000000000
  0.0000000000000000  0.0000000000000000  0.0000000000000000
  0.0000000000000000  0.0000000000000000  0.0000000000000000
  0.0000000000000000  0.0000000000000000  0.0000000000000000
  0.0000000000000000  0.0000000000000000  0.0000000000000000
  0.0000000000000000  0.0000000000000000  0.0000000000000000
  0.0000000000000000  0.0000000000000000  0.0000000000000000
  0.0000000000000000  0.0000000000000000  0.0000000000000000
  0.0000000000000000  0.0000000000000000  0.0000000000000000
  0.0000000000000000  0.0000000000000000  0.0000000000000000
  0.0000000000000000  0.0000000000000000  0.0000000000000000
  0.0000000000000000  0.0000000000000000  0.0000000000000000
  0.0000000000000000  0.0000000000000000  0.0000000000000000
  0.0000000000000000  0.0000000000000000  0.0000000000000000
  0.0000000000000000  0.0000000000000000  0.0000000000000000
  0.0000000000000000  0.0000000000000000  0.0000000000000000
  0.0000000000000000  0.0000000000000000  0.0000000000000000
  0.0000000000000000  0.0000000000000000  0.0000000000000000
  0.0000000000000000  0.0000000000000000  0.0000000000000000
  0.0000000000000000  0.0000000000000000  0.0000000000000000
  0.0000000000000000  0.0000000000000000  0.0000000000000000
  0.0000000000000000  0.0000000000000000  0.0000000000000000
  0.0000000000000000  0.0000000000000000  0.0000000000000000
  0.0000000000000000  0.0000000000000000  0.0000000000000000
  0.0000000000000000  0.0000000000000000  0.0000000000000000
  0.0000000000000000  0.0000000000000000  0.0000000000000000
  0.0000000000000000  0.0000000000000000  0.0000000000000000
  0.0000000000000000  0.0000000000000000  0.0000000000000000
  0.0000000000000000  0.0000000000000000  0.0000000000000000
  0.0000000000000000  0.0000000000000000  0.0000000000000000
  0.0000000000000000  0.0000000000000000  0.0000000000000000
  0.0000000000000000  0.0000000000000000  0.0000000000000000
