C  N  H  Pb I                           
   1.0000000000000000     
     8.9515839677080429    0.0000000000000000    0.0000000000000000
     0.0000000000000000    8.9515839677080429    0.0000000000000000
     0.0000000000000000    0.0000000000000000    6.3289724258144924
  C               N               H               Pb              I             
     2     4    10     2     6
Direct
     0.5459758098506526    0.4915680195342915    0.5112646040641522
     0.0190909428333157    0.9788116129486042    0.4517622227591147
     0.5074111489853408    0.6204866083560248    0.4286677843247020
     0.4538614519841957    0.3866176358025939    0.5748271872062176
     0.9072397088411321    0.9103158746735502    0.5446821297717648
     0.0766798927550454    0.1075298652447998    0.5089340916140586
     0.6652442042925486    0.4696847452193964    0.5286418177640826
     0.5887346382586642    0.6937554930298688    0.3847996189021146
     0.3995439005279380    0.6530676558552315    0.4048713568482398
     0.3403730744951403    0.3946484066413021    0.5663737788869767
     0.4964280956877900    0.2906219912090933    0.6367430675192693
     0.0686176862123133    0.9238477285458799    0.3147721315298000
     0.8716463646604637    0.8104041083663134    0.4864716605402819
     0.8523876831691126    0.9509714287501154    0.6736818632000521
     0.0396137029146004    0.1688862948426504    0.6341810505123959
     0.1637182471487222    0.1503493975099914    0.4248493357688332
     0.9999996702832874    0.4999998411152120    0.9927896685767337
     0.4999997010236399    0.0000000324883942    0.9927896646371437
     0.9999999102034849    0.4999996263576136    0.4921929684839199
     0.4999999142446683    0.0000003677771616    0.4921929568124028
     0.2185734085131941    0.2185737368091125    0.9905351307177028
     0.2814254933831535    0.7185740284663780    0.9905345394682996
     0.7185734566697093    0.2814260629724075    0.9905349485405637
     0.7814255204687655    0.7814258469398112    0.9905345050794736

  0.00000000E+00  0.00000000E+00  0.00000000E+00
  0.00000000E+00  0.00000000E+00  0.00000000E+00
  0.00000000E+00  0.00000000E+00  0.00000000E+00
  0.00000000E+00  0.00000000E+00  0.00000000E+00
  0.00000000E+00  0.00000000E+00  0.00000000E+00
  0.00000000E+00  0.00000000E+00  0.00000000E+00
  0.00000000E+00  0.00000000E+00  0.00000000E+00
  0.00000000E+00  0.00000000E+00  0.00000000E+00
  0.00000000E+00  0.00000000E+00  0.00000000E+00
  0.00000000E+00  0.00000000E+00  0.00000000E+00
  0.00000000E+00  0.00000000E+00  0.00000000E+00
  0.00000000E+00  0.00000000E+00  0.00000000E+00
  0.00000000E+00  0.00000000E+00  0.00000000E+00
  0.00000000E+00  0.00000000E+00  0.00000000E+00
  0.00000000E+00  0.00000000E+00  0.00000000E+00
  0.00000000E+00  0.00000000E+00  0.00000000E+00
  0.00000000E+00  0.00000000E+00  0.00000000E+00
  0.00000000E+00  0.00000000E+00  0.00000000E+00
  0.00000000E+00  0.00000000E+00  0.00000000E+00
  0.00000000E+00  0.00000000E+00  0.00000000E+00
  0.00000000E+00  0.00000000E+00  0.00000000E+00
  0.00000000E+00  0.00000000E+00  0.00000000E+00
  0.00000000E+00  0.00000000E+00  0.00000000E+00
  0.00000000E+00  0.00000000E+00  0.00000000E+00
