C  N  H  Pb I 
 1.0000000000000000
     9.0558847084332346    0.0531484776795731    0.0045512983979874
     0.0517246730340228    8.6614972972257007   -0.0118320705777413
     0.0064571178933276   -0.0172487343136763   12.9233431826075584
 C   N   H   Pb  I  
   4   8  20   4  12
Direct
  0.5079545620594851  0.0406959883747638  0.2475946235704423
  0.0079545554343785  0.4593040156808087  0.7475946208954546
  0.9920454334685082  0.5406959860585880  0.2475946299923701
  0.4920454478785191  0.9593040127881088  0.7475946256013861
  0.5705946771768489  0.9354362274290704  0.1897252141182125
  0.0705946740239366  0.5645637727658528  0.6897252201605891
  0.1310336582348178  0.5838994807281047  0.2399588818968306
  0.6310336640152746  0.9161005167449355  0.7399588856927697
  0.3689663406760990  0.0838994856595276  0.2399588837149887
  0.8689663414621859  0.4161005194902585  0.7399588873068387
  0.9294053217315233  0.4354362199708707  0.1897252216917170
  0.4294053329446626  0.0645637684645837  0.6897252229388683
  0.5763163080256496  0.0964013618091920  0.3070350010383274
  0.0763163041439384  0.4035986538439508  0.8070350065760273
  0.9236836942065135  0.5964013535599981  0.3070350101048527
  0.4236837047439705  0.9035986570811898  0.8070350168177977
  0.6816203964682236  0.9153350004290043  0.1981420696355345
  0.1816203953774488  0.5846650008662725  0.6981420678013571
  0.1727440398663828  0.6618424652955208  0.2915835922463332
  0.6727440483713267  0.8381575300147407  0.7915835946568777
  0.5137159496301195  0.8799864858485240  0.1317994637689628
  0.0137159530701184  0.6200135182310217  0.6317994618654600
  0.2027680669080062  0.5368550561063359  0.1875867459194599
  0.7027680811919139  0.9631449364772252  0.6875867437071859
  0.2972319239003344  0.0368550498131778  0.1875867509889692
  0.7972319185576200  0.4631449498156999  0.6875867489999620
  0.9862840415021582  0.3799864786951984  0.1317994707683488
  0.4862840485959767  0.1200135117898101  0.6317994631872471
  0.3272559576570427  0.1618424731988938  0.2915835925839973
  0.8272559591671838  0.3381575261065086  0.7915835908767332
  0.8183796010724746  0.4153349919539672  0.1981420818729491
  0.3183796102733419  0.0846649986020452  0.6981420736952382
  0.5031597924001253  0.4878186936459285  0.9812686801825468
  0.0034283136082247  0.0130839884682451  0.4816915272337303
  0.9993705974963233  0.9884521848249563  0.9818943152027858
  0.5008349576649377  0.5163117647110497  0.4816177073833537
  0.7966779514643103  0.7127517394614838  0.5026688458555273
  0.9623100585040383  0.9942839505515779  0.2326228195352156
  0.7063072650120178  0.1970869797444997  0.9601883633597010
  0.2057279038172850  0.2903701916670357  0.0009527710325397
  0.2048339562101614  0.3031145476672784  0.4638812927366225
  0.2992369978103741  0.8074723337439097  0.4626379789607348
  0.7937951024780453  0.6932852577211277  0.9638984882977902
  0.7028687031051525  0.2124107181123008  0.5024786328245232
  0.4607999680132445  0.5069343587993254  0.7341954793207042
  0.0379573841949528  0.0068845317771905  0.7299757000475798
  0.2938638859038171  0.7868071272638761  0.0018553054404719
  0.5374327246019972  0.4916700248497720  0.2335719790113281
Cartesian
  0.0000000000000000  0.0000000000000000  0.0000000000000000
  0.0000000000000000  0.0000000000000000  0.0000000000000000
  0.0000000000000000  0.0000000000000000  0.0000000000000000
  0.0000000000000000  0.0000000000000000  0.0000000000000000
  0.0000000000000000  0.0000000000000000  0.0000000000000000
  0.0000000000000000  0.0000000000000000  0.0000000000000000
  0.0000000000000000  0.0000000000000000  0.0000000000000000
  0.0000000000000000  0.0000000000000000  0.0000000000000000
  0.0000000000000000  0.0000000000000000  0.0000000000000000
  0.0000000000000000  0.0000000000000000  0.0000000000000000
  0.0000000000000000  0.0000000000000000  0.0000000000000000
  0.0000000000000000  0.0000000000000000  0.0000000000000000
  0.0000000000000000  0.0000000000000000  0.0000000000000000
  0.0000000000000000  0.0000000000000000  0.0000000000000000
  0.0000000000000000  0.0000000000000000  0.0000000000000000
  0.0000000000000000  0.0000000000000000  0.0000000000000000
  0.0000000000000000  0.0000000000000000  0.0000000000000000
  0.0000000000000000  0.0000000000000000  0.0000000000000000
  0.0000000000000000  0.0000000000000000  0.0000000000000000
  0.0000000000000000  0.0000000000000000  0.0000000000000000
  0.0000000000000000  0.0000000000000000  0.0000000000000000
  0.0000000000000000  0.0000000000000000  0.0000000000000000
  0.0000000000000000  0.0000000000000000  0.0000000000000000
  0.0000000000000000  0.0000000000000000  0.0000000000000000
  0.0000000000000000  0.0000000000000000  0.0000000000000000
  0.0000000000000000  0.0000000000000000  0.0000000000000000
  0.0000000000000000  0.0000000000000000  0.0000000000000000
  0.0000000000000000  0.0000000000000000  0.0000000000000000
  0.0000000000000000  0.0000000000000000  0.0000000000000000
  0.0000000000000000  0.0000000000000000  0.0000000000000000
  0.0000000000000000  0.0000000000000000  0.0000000000000000
  0.0000000000000000  0.0000000000000000  0.0000000000000000
  0.0000000000000000  0.0000000000000000  0.0000000000000000
  0.0000000000000000  0.0000000000000000  0.0000000000000000
  0.0000000000000000  0.0000000000000000  0.0000000000000000
  0.0000000000000000  0.0000000000000000  0.0000000000000000
  0.0000000000000000  0.0000000000000000  0.0000000000000000
  0.0000000000000000  0.0000000000000000  0.0000000000000000
  0.0000000000000000  0.0000000000000000  0.0000000000000000
  0.0000000000000000  0.0000000000000000  0.0000000000000000
  0.0000000000000000  0.0000000000000000  0.0000000000000000
  0.0000000000000000  0.0000000000000000  0.0000000000000000
  0.0000000000000000  0.0000000000000000  0.0000000000000000
  0.0000000000000000  0.0000000000000000  0.0000000000000000
  0.0000000000000000  0.0000000000000000  0.0000000000000000
  0.0000000000000000  0.0000000000000000  0.0000000000000000
  0.0000000000000000  0.0000000000000000  0.0000000000000000
  0.0000000000000000  0.0000000000000000  0.0000000000000000
