C  N  H  Pb I 
 1.0000000000000000
     8.8488740630786769    0.0601046109593987   -0.0317595445743069
     0.0601046109593987    9.0864747512448609   -0.0745326987005293
    -0.0224547166839211   -0.0526963045421745    6.4295147511338326
 C   N   H   Pb  I  
   2   4  10   2   6
Direct
  0.5000018554397698  0.5000022537173053  0.5710180843918639
  0.0000007410375673  0.9999987646105950  0.5710173459562401
  0.5923581034953975  0.5923585163879730  0.4765803103999295
  0.4076407503633792  0.4076411399921032  0.4765811169345088
  0.0923596624104001  0.9076399465760639  0.4765807909973082
  0.9076407520067941  0.0923588334847715  0.4765810251555299
  0.5000002811686741  0.5000006754111793  0.7434031870421927
  0.6592043223742975  0.6592047228670136  0.5661117567204836
  0.6020540182598020  0.6020543629609085  0.3166118097023156
  0.3979460835827361  0.3979464056777410  0.3166130108747678
  0.3407963330843803  0.3407967026589522  0.5661133888189648
  0.0000003891983269  0.9999991386351894  0.7434028011511012
  0.1592037642541199  0.8407958108961852  0.5661101690442601
  0.1020541224786791  0.8979456517450169  0.3166108718828012
  0.8979457520127502  0.1020539951781196  0.3166116306627343
  0.8407959940430518  0.1592035362748205  0.5661129987487664
  0.9997006685868087  0.5021601551114635  0.9946941504722441
  0.4966075173888460  0.0017155381799134  0.9926083293582089
  0.9995229372777400  0.5023442821235807  0.4894401206734540
  0.4974856359486140  0.0021116794098778  0.4926734580461724
  0.2198822171757482  0.2189260617196105  0.9917977866925451
  0.2830074489268822  0.7169870532701125  0.9879920304082110
  0.7172560335228511  0.2825878022047338  0.9887772337531487
  0.7825971424602399  0.7827806225294692  0.9885974302276507
Cartesian
  0.0000000000000000  0.0000000000000000  0.0000000000000000
  0.0000000000000000  0.0000000000000000  0.0000000000000000
  0.0000000000000000  0.0000000000000000  0.0000000000000000
  0.0000000000000000  0.0000000000000000  0.0000000000000000
  0.0000000000000000  0.0000000000000000  0.0000000000000000
  0.0000000000000000  0.0000000000000000  0.0000000000000000
  0.0000000000000000  0.0000000000000000  0.0000000000000000
  0.0000000000000000  0.0000000000000000  0.0000000000000000
  0.0000000000000000  0.0000000000000000  0.0000000000000000
  0.0000000000000000  0.0000000000000000  0.0000000000000000
  0.0000000000000000  0.0000000000000000  0.0000000000000000
  0.0000000000000000  0.0000000000000000  0.0000000000000000
  0.0000000000000000  0.0000000000000000  0.0000000000000000
  0.0000000000000000  0.0000000000000000  0.0000000000000000
  0.0000000000000000  0.0000000000000000  0.0000000000000000
  0.0000000000000000  0.0000000000000000  0.0000000000000000
  0.0000000000000000  0.0000000000000000  0.0000000000000000
  0.0000000000000000  0.0000000000000000  0.0000000000000000
  0.0000000000000000  0.0000000000000000  0.0000000000000000
  0.0000000000000000  0.0000000000000000  0.0000000000000000
  0.0000000000000000  0.0000000000000000  0.0000000000000000
  0.0000000000000000  0.0000000000000000  0.0000000000000000
  0.0000000000000000  0.0000000000000000  0.0000000000000000
  0.0000000000000000  0.0000000000000000  0.0000000000000000
