C  N  H  Pb I 
 1.0000000000000000
     8.9456704073584046   -0.0435896694931770    0.0155181107049929
    -0.0424219375724895    8.8900295713679878    0.0856567808054761
     0.0220161944002965    0.1248700339108784   12.9389479804895267
 C   N   H   Pb  I  
   4   8  20   4  12
Direct
  0.5079545620594851  0.0406959883747638  0.2475946235704422
  0.0079545554343785  0.4593040156808084  0.7475946208954541
  0.9920454334685080  0.5406959860585879  0.2475946299923701
  0.4920454478785191  0.9593040127881088  0.7475946256013861
  0.5705946771768488  0.9354362274290704  0.1897252141182124
  0.0705946740239366  0.5645637727658525  0.6897252201605890
  0.1310336582348178  0.5838994807281044  0.2399588818968306
  0.6310336640152744  0.9161005167449355  0.7399588856927697
  0.3689663406760989  0.0838994856595276  0.2399588837149887
  0.8689663414621858  0.4161005194902584  0.7399588873068385
  0.9294053217315230  0.4354362199708705  0.1897252216917170
  0.4294053329446624  0.0645637684645837  0.6897252229388680
  0.5763163080256496  0.0964013618091920  0.3070350010383273
  0.0763163041439384  0.4035986538439505  0.8070350065760273
  0.9236836942065132  0.5964013535599979  0.3070350101048526
  0.4236837047439705  0.9035986570811895  0.8070350168177974
  0.6816203964682235  0.9153350004290043  0.1981420696355345
  0.1816203953774488  0.5846650008662723  0.6981420678013572
  0.1727440398663828  0.6618424652955208  0.2915835922463332
  0.6727440483713266  0.8381575300147407  0.7915835946568774
  0.5137159496301194  0.8799864858485240  0.1317994637689628
  0.0137159530701184  0.6200135182310214  0.6317994618654602
  0.2027680669080061  0.5368550561063355  0.1875867459194599
  0.7027680811919139  0.9631449364772253  0.6875867437071860
  0.2972319239003343  0.0368550498131778  0.1875867509889692
  0.7972319185576198  0.4631449498156998  0.6875867489999617
  0.9862840415021580  0.3799864786951984  0.1317994707683488
  0.4862840485959766  0.1200135117898101  0.6317994631872471
  0.3272559576570425  0.1618424731988938  0.2915835925839973
  0.8272559591671835  0.3381575261065085  0.7915835908767332
  0.8183796010724744  0.4153349919539673  0.1981420818729491
  0.3183796102733418  0.0846649986020452  0.6981420736952383
  0.5028388915389383  0.4879491482326773  0.9819179396364850
  0.0021823853061286  0.0099882851408216  0.4802310695199360
  0.9963792147635046  0.9889533966540079  0.9831536964512863
  0.4975294746887364  0.5111148569493491  0.4813207349153242
  0.7979615454194603  0.7092146540593757  0.5017895650205214
  0.9638500591341911  0.9937634167554145  0.2305785736834296
  0.7042201917545615  0.1987106467316525  0.9632373516453218
  0.2067049002100889  0.2916972990593704  0.0050249040427552
  0.2063623757336960  0.3040266390372547  0.4609513779966013
  0.2926130076983169  0.8057629576063816  0.4603822097221498
  0.7959062627047861  0.6946602531168451  0.9624322210594870
  0.7073179637716684  0.2121645137716930  0.5020674453384665
  0.4610347987755486  0.5067439345816297  0.7321209589125171
  0.0372420146858538  0.0045493557363776  0.7317927672499316
  0.2950868836856940  0.7901239056352952  0.0022783931255606
  0.5413743892388342  0.4955702834371146  0.2326738904566502
Cartesian
  0.0000000000000000  0.0000000000000000  0.0000000000000000
  0.0000000000000000  0.0000000000000000  0.0000000000000000
  0.0000000000000000  0.0000000000000000  0.0000000000000000
  0.0000000000000000  0.0000000000000000  0.0000000000000000
  0.0000000000000000  0.0000000000000000  0.0000000000000000
  0.0000000000000000  0.0000000000000000  0.0000000000000000
  0.0000000000000000  0.0000000000000000  0.0000000000000000
  0.0000000000000000  0.0000000000000000  0.0000000000000000
  0.0000000000000000  0.0000000000000000  0.0000000000000000
  0.0000000000000000  0.0000000000000000  0.0000000000000000
  0.0000000000000000  0.0000000000000000  0.0000000000000000
  0.0000000000000000  0.0000000000000000  0.0000000000000000
  0.0000000000000000  0.0000000000000000  0.0000000000000000
  0.0000000000000000  0.0000000000000000  0.0000000000000000
  0.0000000000000000  0.0000000000000000  0.0000000000000000
  0.0000000000000000  0.0000000000000000  0.0000000000000000
  0.0000000000000000  0.0000000000000000  0.0000000000000000
  0.0000000000000000  0.0000000000000000  0.0000000000000000
  0.0000000000000000  0.0000000000000000  0.0000000000000000
  0.0000000000000000  0.0000000000000000  0.0000000000000000
  0.0000000000000000  0.0000000000000000  0.0000000000000000
  0.0000000000000000  0.0000000000000000  0.0000000000000000
  0.0000000000000000  0.0000000000000000  0.0000000000000000
  0.0000000000000000  0.0000000000000000  0.0000000000000000
  0.0000000000000000  0.0000000000000000  0.0000000000000000
  0.0000000000000000  0.0000000000000000  0.0000000000000000
  0.0000000000000000  0.0000000000000000  0.0000000000000000
  0.0000000000000000  0.0000000000000000  0.0000000000000000
  0.0000000000000000  0.0000000000000000  0.0000000000000000
  0.0000000000000000  0.0000000000000000  0.0000000000000000
  0.0000000000000000  0.0000000000000000  0.0000000000000000
  0.0000000000000000  0.0000000000000000  0.0000000000000000
  0.0000000000000000  0.0000000000000000  0.0000000000000000
  0.0000000000000000  0.0000000000000000  0.0000000000000000
  0.0000000000000000  0.0000000000000000  0.0000000000000000
  0.0000000000000000  0.0000000000000000  0.0000000000000000
  0.0000000000000000  0.0000000000000000  0.0000000000000000
  0.0000000000000000  0.0000000000000000  0.0000000000000000
  0.0000000000000000  0.0000000000000000  0.0000000000000000
  0.0000000000000000  0.0000000000000000  0.0000000000000000
  0.0000000000000000  0.0000000000000000  0.0000000000000000
  0.0000000000000000  0.0000000000000000  0.0000000000000000
  0.0000000000000000  0.0000000000000000  0.0000000000000000
  0.0000000000000000  0.0000000000000000  0.0000000000000000
  0.0000000000000000  0.0000000000000000  0.0000000000000000
  0.0000000000000000  0.0000000000000000  0.0000000000000000
  0.0000000000000000  0.0000000000000000  0.0000000000000000
  0.0000000000000000  0.0000000000000000  0.0000000000000000
