C  N  H  Pb I                           
   1.0000000000000000     
     8.9625724252929402    0.0020435109028962   -0.0527163242494232
     0.0019887669018673    8.8353267217276468   -0.0163114868518703
    -0.0747908598416521   -0.0237788053342261   12.6087973291741680
  C               N               H               Pb              I             
     4     8    20     4    12
Direct
     0.5068582376371538    0.0358860252850519    0.2496596553777621
     0.0001029109746113    0.4575844738119557    0.7518883191025765
     0.0136667572365354    0.5448397881237668    0.2548278206313057
     0.4814357674768104    0.9529317282198946    0.7475623480566398
     0.5674590027769071    0.9359419135970199    0.1895949015473732
     0.0647624969202738    0.5586644023044443    0.6910226165394207
     0.1503942314227302    0.5146056584911634    0.2195800413632938
     0.6373629259606659    0.9299884274609127    0.7426030468695402
     0.3682681851945517    0.0799474158442735    0.2394083685376032
     0.8681803186821497    0.4118460844883955    0.7350032697107949
     0.8949289094884065    0.5018564752436419    0.2008538808859086
     0.4202871119727121    0.0599352006665654    0.6871770446204621
     0.5724210421162326    0.0977113051390148    0.3016353668332741
     0.0788193910608399    0.4015620451043489    0.8040077201710076
     0.0042191872347814    0.5986315083350888    0.3244108600352433
     0.4273827943901338    0.8933962793093713    0.8041166602807621
     0.6833791783772938    0.9119564587567979    0.1983473451361206
     0.1852073224832012    0.5822336033278646    0.7009638220489336
     0.2414833301038755    0.5464309645516465    0.2748422933825765
     0.6787225895529616    0.8436476983506154    0.7971083403884265
     0.5119758130437475    0.8745779636523849    0.1292364999208004
     0.0116172873605223    0.6162561314439117    0.6336203777587031
     0.1732396393876243    0.4723095100948811    0.1532777125797864
     0.7106503284061532    0.9756451690987760    0.6896207331738751
     0.2974739341754642    0.0423311417222152    0.1862479387060247
     0.8023300287930226    0.4557489761776239    0.6884127359220287
     0.8968633861790138    0.4499990632476596    0.1271314930970391
     0.4854685075553604    0.1169662035711596    0.6340879337113208
     0.3225379651566058    0.1621058775925093    0.2938877228395498
     0.8255719028402808    0.3445695853920654    0.7917706149888275
     0.7877816606553765    0.5237254124460549    0.2357420893597109
     0.3166608161024129    0.0663402285568466    0.6984111941404336
     0.5061319153545298    0.4760186164519808    0.9786010404316556
     0.0040698628087839    0.0111803586975441    0.4755936968285539
     0.9992405571803431    0.9851465540213056    0.9841375732176374
     0.4978337193152811    0.5102837235162596    0.4798868803054361
     0.7961405449366694    0.7048490888150809    0.5065612167323721
     0.9652446612917558    0.9919829330047421    0.2273289034940689
     0.7082130971852578    0.1987501909481537    0.9637051430756784
     0.2037601233202508    0.2886181483489523    0.0012906213931956
     0.2072418066959827    0.3008004892351579    0.4610830483289874
     0.3005042216673317    0.8038157848551251    0.4625524383887836
     0.7961629633670810    0.6996174673196052    0.9603066895135726
     0.7082362779203066    0.2068024761085852    0.5069511381378007
     0.4668049971098256    0.5119564419561442    0.7285234362998452
     0.0389591602596511    0.0034562817451942    0.7380017868121129
     0.2961033775882242    0.7927703804245567    0.0055641538301572
     0.5365933352656711    0.4934090568016529    0.2300976836133444

  0.00000000E+00  0.00000000E+00  0.00000000E+00
  0.00000000E+00  0.00000000E+00  0.00000000E+00
  0.00000000E+00  0.00000000E+00  0.00000000E+00
  0.00000000E+00  0.00000000E+00  0.00000000E+00
  0.00000000E+00  0.00000000E+00  0.00000000E+00
  0.00000000E+00  0.00000000E+00  0.00000000E+00
  0.00000000E+00  0.00000000E+00  0.00000000E+00
  0.00000000E+00  0.00000000E+00  0.00000000E+00
  0.00000000E+00  0.00000000E+00  0.00000000E+00
  0.00000000E+00  0.00000000E+00  0.00000000E+00
  0.00000000E+00  0.00000000E+00  0.00000000E+00
  0.00000000E+00  0.00000000E+00  0.00000000E+00
  0.00000000E+00  0.00000000E+00  0.00000000E+00
  0.00000000E+00  0.00000000E+00  0.00000000E+00
  0.00000000E+00  0.00000000E+00  0.00000000E+00
  0.00000000E+00  0.00000000E+00  0.00000000E+00
  0.00000000E+00  0.00000000E+00  0.00000000E+00
  0.00000000E+00  0.00000000E+00  0.00000000E+00
  0.00000000E+00  0.00000000E+00  0.00000000E+00
  0.00000000E+00  0.00000000E+00  0.00000000E+00
  0.00000000E+00  0.00000000E+00  0.00000000E+00
  0.00000000E+00  0.00000000E+00  0.00000000E+00
  0.00000000E+00  0.00000000E+00  0.00000000E+00
  0.00000000E+00  0.00000000E+00  0.00000000E+00
  0.00000000E+00  0.00000000E+00  0.00000000E+00
  0.00000000E+00  0.00000000E+00  0.00000000E+00
  0.00000000E+00  0.00000000E+00  0.00000000E+00
  0.00000000E+00  0.00000000E+00  0.00000000E+00
  0.00000000E+00  0.00000000E+00  0.00000000E+00
  0.00000000E+00  0.00000000E+00  0.00000000E+00
  0.00000000E+00  0.00000000E+00  0.00000000E+00
  0.00000000E+00  0.00000000E+00  0.00000000E+00
  0.00000000E+00  0.00000000E+00  0.00000000E+00
  0.00000000E+00  0.00000000E+00  0.00000000E+00
  0.00000000E+00  0.00000000E+00  0.00000000E+00
  0.00000000E+00  0.00000000E+00  0.00000000E+00
  0.00000000E+00  0.00000000E+00  0.00000000E+00
  0.00000000E+00  0.00000000E+00  0.00000000E+00
  0.00000000E+00  0.00000000E+00  0.00000000E+00
  0.00000000E+00  0.00000000E+00  0.00000000E+00
  0.00000000E+00  0.00000000E+00  0.00000000E+00
  0.00000000E+00  0.00000000E+00  0.00000000E+00
  0.00000000E+00  0.00000000E+00  0.00000000E+00
  0.00000000E+00  0.00000000E+00  0.00000000E+00
  0.00000000E+00  0.00000000E+00  0.00000000E+00
  0.00000000E+00  0.00000000E+00  0.00000000E+00
  0.00000000E+00  0.00000000E+00  0.00000000E+00
  0.00000000E+00  0.00000000E+00  0.00000000E+00
