C  N  H  Pb I 
 1.0000000000000000
     8.9625724252929402    0.0020435109028962   -0.0527163242494232
     0.0019887669018673    8.8353267217276468   -0.0163114868518703
    -0.0747908598416521   -0.0237788053342261   12.6087973291741680
 C   N   H   Pb  I  
   4   8  20   4  12
Direct
  0.5068582376371521  0.0358860252850494  0.2496596553777639
  0.0001029109746105  0.4575844738119572  0.7518883191025741
  0.0136667572365355  0.5448397881237689  0.2548278206313029
  0.4814357674768117  0.9529317282198940  0.7475623480566400
  0.5674590027769105  0.9359419135970182  0.1895949015473715
  0.0647624969202745  0.5586644023044446  0.6910226165394211
  0.1503942314227332  0.5146056584911628  0.2195800413632926
  0.6373629259606640  0.9299884274609096  0.7426030468695398
  0.3682681851945498  0.0799474158442746  0.2394083685376031
  0.8681803186821505  0.4118460844883932  0.7350032697107959
  0.8949289094884081  0.5018564752436427  0.2008538808859097
  0.4202871119727147  0.0599352006665624  0.6871770446204631
  0.5724210421162311  0.0977113051390139  0.3016353668332757
  0.0788193910608395  0.4015620451043520  0.8040077201710105
  0.0042191872347848  0.5986315083350892  0.3244108600352423
  0.4273827943901329  0.8933962793093733  0.8041166602807631
  0.6833791783772940  0.9119564587567962  0.1983473451361203
  0.1852073224831985  0.5822336033278630  0.7009638220489331
  0.2414833301038727  0.5464309645516471  0.2748422933825775
  0.6787225895529581  0.8436476983506149  0.7971083403884248
  0.5119758130437497  0.8745779636523844  0.1292364999208006
  0.0116172873605206  0.6162561314439085  0.6336203777587041
  0.1732396393876273  0.4723095100948838  0.1532777125797892
  0.7106503284061545  0.9756451690987753  0.6896207331738720
  0.2974739341754674  0.0423311417222169  0.1862479387060240
  0.8023300287930198  0.4557489761776208  0.6884127359220303
  0.8968633861790156  0.4499990632476590  0.1271314930970406
  0.4854685075553611  0.1169662035711563  0.6340879337113208
  0.3225379651566085  0.1621058775925127  0.2938877228395466
  0.8255719028402803  0.3445695853920678  0.7917706149888273
  0.7877816606553744  0.5237254124460557  0.2357420893597099
  0.3166608161024144  0.0663402285568498  0.6984111941404350
  0.5061319153545318  0.4760186164519787  0.9786010404316543
  0.0040698628087813  0.0111803586975447  0.4755936968285506
  0.9992405571803423  0.9851465540213058  0.9841375732176362
  0.4978337193152831  0.5102837235162608  0.4798868803054347
  0.7961405449366716  0.7048490888150838  0.5065612167323715
  0.9652446612917557  0.9919829330047448  0.2273289034940719
  0.7082130971852590  0.1987501909481560  0.9637051430756755
  0.2037601233202489  0.2886181483489529  0.0012906213931955
  0.2072418066959826  0.3008004892351595  0.4610830483289841
  0.3005042216673290  0.8038157848551224  0.4625524383887855
  0.7961629633670823  0.6996174673196061  0.9603066895135733
  0.7082362779203085  0.2068024761085876  0.5069511381377988
  0.4668049971098237  0.5119564419561438  0.7285234362998456
  0.0389591602596480  0.0034562817451908  0.7380017868121103
  0.2961033775882217  0.7927703804245574  0.0055641538301553
  0.5365933352656700  0.4934090568016525  0.2300976836133437
Cartesian
  0.0000000000000000  0.0000000000000000  0.0000000000000000
  0.0000000000000000  0.0000000000000000  0.0000000000000000
  0.0000000000000000  0.0000000000000000  0.0000000000000000
  0.0000000000000000  0.0000000000000000  0.0000000000000000
  0.0000000000000000  0.0000000000000000  0.0000000000000000
  0.0000000000000000  0.0000000000000000  0.0000000000000000
  0.0000000000000000  0.0000000000000000  0.0000000000000000
  0.0000000000000000  0.0000000000000000  0.0000000000000000
  0.0000000000000000  0.0000000000000000  0.0000000000000000
  0.0000000000000000  0.0000000000000000  0.0000000000000000
  0.0000000000000000  0.0000000000000000  0.0000000000000000
  0.0000000000000000  0.0000000000000000  0.0000000000000000
  0.0000000000000000  0.0000000000000000  0.0000000000000000
  0.0000000000000000  0.0000000000000000  0.0000000000000000
  0.0000000000000000  0.0000000000000000  0.0000000000000000
  0.0000000000000000  0.0000000000000000  0.0000000000000000
  0.0000000000000000  0.0000000000000000  0.0000000000000000
  0.0000000000000000  0.0000000000000000  0.0000000000000000
  0.0000000000000000  0.0000000000000000  0.0000000000000000
  0.0000000000000000  0.0000000000000000  0.0000000000000000
  0.0000000000000000  0.0000000000000000  0.0000000000000000
  0.0000000000000000  0.0000000000000000  0.0000000000000000
  0.0000000000000000  0.0000000000000000  0.0000000000000000
  0.0000000000000000  0.0000000000000000  0.0000000000000000
  0.0000000000000000  0.0000000000000000  0.0000000000000000
  0.0000000000000000  0.0000000000000000  0.0000000000000000
  0.0000000000000000  0.0000000000000000  0.0000000000000000
  0.0000000000000000  0.0000000000000000  0.0000000000000000
  0.0000000000000000  0.0000000000000000  0.0000000000000000
  0.0000000000000000  0.0000000000000000  0.0000000000000000
  0.0000000000000000  0.0000000000000000  0.0000000000000000
  0.0000000000000000  0.0000000000000000  0.0000000000000000
  0.0000000000000000  0.0000000000000000  0.0000000000000000
  0.0000000000000000  0.0000000000000000  0.0000000000000000
  0.0000000000000000  0.0000000000000000  0.0000000000000000
  0.0000000000000000  0.0000000000000000  0.0000000000000000
  0.0000000000000000  0.0000000000000000  0.0000000000000000
  0.0000000000000000  0.0000000000000000  0.0000000000000000
  0.0000000000000000  0.0000000000000000  0.0000000000000000
  0.0000000000000000  0.0000000000000000  0.0000000000000000
  0.0000000000000000  0.0000000000000000  0.0000000000000000
  0.0000000000000000  0.0000000000000000  0.0000000000000000
  0.0000000000000000  0.0000000000000000  0.0000000000000000
  0.0000000000000000  0.0000000000000000  0.0000000000000000
  0.0000000000000000  0.0000000000000000  0.0000000000000000
  0.0000000000000000  0.0000000000000000  0.0000000000000000
  0.0000000000000000  0.0000000000000000  0.0000000000000000
  0.0000000000000000  0.0000000000000000  0.0000000000000000
