C  N  H  Pb I                           
   1.0000000000000000     
     8.8546822405017043   -0.0532253200675410    0.0378050793733797
    -0.0532253200675410    8.9254288516756990   -0.0158430461520518
     0.0267290465880655   -0.0112013921333875    6.3680832947873043
  C               N               H               Pb              I             
     2     4    10     2     6
Direct
     0.5005956361411634    0.4975530096493941    0.5650810380419102
     0.9940029498376362    0.9867786162270846    0.5655705216842435
     0.5943890493731061    0.5885806380645704    0.4741176890133048
     0.4082667623086778    0.4081938161700123    0.4760616006021507
     0.0695168513457958    0.8984721773170818    0.4470192978664898
     0.9284796524978987    0.1063903638762298    0.5097524578114800
     0.5057255502522437    0.5037407148247368    0.7507991625066524
     0.6603489170591459    0.6586840725302991    0.5660300531839866
     0.6020091863941133    0.6018940159253603    0.3186791226484615
     0.3969655561309438    0.3952897986702411    0.3146765540015011
     0.3416677954542138    0.3403101740670564    0.5660813855555276
     0.9866464597834295    0.9521140866725020    0.7317217744175224
     0.1204526094787894    0.8037046286111575    0.5063292510056172
     0.0932763524498554    0.9170932902672106    0.2830832615216465
     0.9341968635526285    0.1528449346604788    0.3616540402985464
     0.8711831058799859    0.1667069618158976    0.6209911935681092
     0.0015684793199782    0.4969807531534300    0.9882176445112592
     0.5013064533184988    0.9922573773517058    0.9976126946292112
     0.9975714027170639    0.5019547909494904    0.4897565968639626
     0.4985212528148182    0.0001262424664787    0.4947395436818596
     0.2176430261253870    0.2163658108473570    0.9913834144472702
     0.2845831005251895    0.7203530127468554    0.9947196697072798
     0.7193263352825170    0.2823433654698064    0.9935003818429493
     0.7784546759732081    0.7842095513604264    0.9917672261475232

  0.00000000E+00  0.00000000E+00  0.00000000E+00
  0.00000000E+00  0.00000000E+00  0.00000000E+00
  0.00000000E+00  0.00000000E+00  0.00000000E+00
  0.00000000E+00  0.00000000E+00  0.00000000E+00
  0.00000000E+00  0.00000000E+00  0.00000000E+00
  0.00000000E+00  0.00000000E+00  0.00000000E+00
  0.00000000E+00  0.00000000E+00  0.00000000E+00
  0.00000000E+00  0.00000000E+00  0.00000000E+00
  0.00000000E+00  0.00000000E+00  0.00000000E+00
  0.00000000E+00  0.00000000E+00  0.00000000E+00
  0.00000000E+00  0.00000000E+00  0.00000000E+00
  0.00000000E+00  0.00000000E+00  0.00000000E+00
  0.00000000E+00  0.00000000E+00  0.00000000E+00
  0.00000000E+00  0.00000000E+00  0.00000000E+00
  0.00000000E+00  0.00000000E+00  0.00000000E+00
  0.00000000E+00  0.00000000E+00  0.00000000E+00
  0.00000000E+00  0.00000000E+00  0.00000000E+00
  0.00000000E+00  0.00000000E+00  0.00000000E+00
  0.00000000E+00  0.00000000E+00  0.00000000E+00
  0.00000000E+00  0.00000000E+00  0.00000000E+00
  0.00000000E+00  0.00000000E+00  0.00000000E+00
  0.00000000E+00  0.00000000E+00  0.00000000E+00
  0.00000000E+00  0.00000000E+00  0.00000000E+00
  0.00000000E+00  0.00000000E+00  0.00000000E+00
