C  N  H  Pb I 
 1.0000000000000000
     8.8546822405017043   -0.0532253200675410    0.0378050793733797
    -0.0532253200675410    8.9254288516756990   -0.0158430461520518
     0.0267290465880655   -0.0112013921333875    6.3680832947873043
 C   N   H   Pb  I  
   2   4  10   2   6
Direct
  0.5005956361411662  0.4975530096493957  0.5650810380419133
  0.9940029498376329  0.9867786162270836  0.5655705216842450
  0.5943890493731050  0.5885806380645708  0.4741176890133018
  0.4082667623086756  0.4081938161700098  0.4760616006021534
  0.0695168513457976  0.8984721773170823  0.4470192978664898
  0.9284796524978972  0.1063903638762281  0.5097524578114794
  0.5057255502522463  0.5037407148247387  0.7507991625066507
  0.6603489170591481  0.6586840725302970  0.5660300531839889
  0.6020091863941105  0.6018940159253630  0.3186791226484584
  0.3969655561309441  0.3952897986702378  0.3146765540014992
  0.3416677954542156  0.3403101740670592  0.5660813855555294
  0.9866464597834317  0.9521140866725036  0.7317217744175216
  0.1204526094787864  0.8037046286111579  0.5063292510056198
  0.0932763524498525  0.9170932902672119  0.2830832615216479
  0.9341968635526310  0.1528449346604815  0.3616540402985435
  0.8711831058799843  0.1667069618158995  0.6209911935681075
  0.0015684793199784  0.4969807531534324  0.9882176445112579
  0.5013064533184969  0.9922573773517056  0.9976126946292134
  0.9975714027170611  0.5019547909494879  0.4897565968639635
  0.4985212528148151  0.0001262424664795  0.4947395436818569
  0.2176430261253849  0.2163658108473558  0.9913834144472689
  0.2845831005251899  0.7203530127468586  0.9947196697072788
  0.7193263352825202  0.2823433654698043  0.9935003818429501
  0.7784546759732064  0.7842095513604265  0.9917672261475249
Cartesian
  0.0000000000000000  0.0000000000000000  0.0000000000000000
  0.0000000000000000  0.0000000000000000  0.0000000000000000
  0.0000000000000000  0.0000000000000000  0.0000000000000000
  0.0000000000000000  0.0000000000000000  0.0000000000000000
  0.0000000000000000  0.0000000000000000  0.0000000000000000
  0.0000000000000000  0.0000000000000000  0.0000000000000000
  0.0000000000000000  0.0000000000000000  0.0000000000000000
  0.0000000000000000  0.0000000000000000  0.0000000000000000
  0.0000000000000000  0.0000000000000000  0.0000000000000000
  0.0000000000000000  0.0000000000000000  0.0000000000000000
  0.0000000000000000  0.0000000000000000  0.0000000000000000
  0.0000000000000000  0.0000000000000000  0.0000000000000000
  0.0000000000000000  0.0000000000000000  0.0000000000000000
  0.0000000000000000  0.0000000000000000  0.0000000000000000
  0.0000000000000000  0.0000000000000000  0.0000000000000000
  0.0000000000000000  0.0000000000000000  0.0000000000000000
  0.0000000000000000  0.0000000000000000  0.0000000000000000
  0.0000000000000000  0.0000000000000000  0.0000000000000000
  0.0000000000000000  0.0000000000000000  0.0000000000000000
  0.0000000000000000  0.0000000000000000  0.0000000000000000
  0.0000000000000000  0.0000000000000000  0.0000000000000000
  0.0000000000000000  0.0000000000000000  0.0000000000000000
  0.0000000000000000  0.0000000000000000  0.0000000000000000
  0.0000000000000000  0.0000000000000000  0.0000000000000000
