C  N  H  Pb I                           
   1.0000000000000000     
     8.9515839677080429    0.0000000000000000    0.0000000000000000
     0.0000000000000000    8.9515839677080429    0.0000000000000000
     0.0000000000000000    0.0000000000000000    6.3289724258144924
  C               N               H               Pb              I             
     2     4    10     2     6
Direct
     0.5033996322836600    0.5051138200138396    0.5659361584483591
     0.9950165224769805    0.9944831890491201    0.5611438982219994
     0.5966415092289665    0.5999105514567304    0.4734172848383764
     0.4006187721737291    0.4056105943560979    0.4696874834640070
     0.0849710596863389    0.9111327597875274    0.4722897315855903
     0.9063478693810296    0.0844835829038004    0.4838049476158091
     0.4939776759753229    0.5038730452001587    0.7464177691637701
     0.6601961037568245    0.6474439219513357    0.5647288690175358
     0.6010695233779444    0.5900774618278106    0.3010223085267185
     0.3929946487134757    0.3925543898604715    0.3121747291406507
     0.3364879102246974    0.3452040680262130    0.5717647185626547
     0.0015731277455018    0.9974540513157777    0.7336044650236175
     0.1549292351586615    0.8604562752133944    0.5670325048596325
     0.1003796067919751    0.8982740769339230    0.3118077775669263
     0.8972831660173242    0.1008583104870127    0.3138361420959797
     0.8480681480880321    0.1478872663274728    0.5695750579212771
     0.9966535074422751    0.5066622180827451    0.9895731829150591
     0.5039714590682038    0.0013860928632781    0.9977080184419691
     0.0045527323775474    0.4968122323639506    0.4885175014367675
     0.5075343137509520    0.9907287241221496    0.4878905812571688
     0.2111853462242976    0.2209948412926082    0.9761250581906680
     0.2876130355833837    0.7101869739466480    0.9834458197627427
     0.7213749437356682    0.2819789872598051    0.9907549250681456
     0.7776898601889997    0.7821495559525786    0.9942022551357681

  0.00000000E+00  0.00000000E+00  0.00000000E+00
  0.00000000E+00  0.00000000E+00  0.00000000E+00
  0.00000000E+00  0.00000000E+00  0.00000000E+00
  0.00000000E+00  0.00000000E+00  0.00000000E+00
  0.00000000E+00  0.00000000E+00  0.00000000E+00
  0.00000000E+00  0.00000000E+00  0.00000000E+00
  0.00000000E+00  0.00000000E+00  0.00000000E+00
  0.00000000E+00  0.00000000E+00  0.00000000E+00
  0.00000000E+00  0.00000000E+00  0.00000000E+00
  0.00000000E+00  0.00000000E+00  0.00000000E+00
  0.00000000E+00  0.00000000E+00  0.00000000E+00
  0.00000000E+00  0.00000000E+00  0.00000000E+00
  0.00000000E+00  0.00000000E+00  0.00000000E+00
  0.00000000E+00  0.00000000E+00  0.00000000E+00
  0.00000000E+00  0.00000000E+00  0.00000000E+00
  0.00000000E+00  0.00000000E+00  0.00000000E+00
  0.00000000E+00  0.00000000E+00  0.00000000E+00
  0.00000000E+00  0.00000000E+00  0.00000000E+00
  0.00000000E+00  0.00000000E+00  0.00000000E+00
  0.00000000E+00  0.00000000E+00  0.00000000E+00
  0.00000000E+00  0.00000000E+00  0.00000000E+00
  0.00000000E+00  0.00000000E+00  0.00000000E+00
  0.00000000E+00  0.00000000E+00  0.00000000E+00
  0.00000000E+00  0.00000000E+00  0.00000000E+00
