C  N  H  Pb I 
 1.0000000000000000
     8.9515839677080429    0.0000000000000000    0.0000000000000000
     0.0000000000000000    8.9515839677080429    0.0000000000000000
     0.0000000000000000    0.0000000000000000    6.3289724258144924
 C   N   H   Pb  I  
   2   4  10   2   6
Direct
  0.5033996322836573  0.5051138200138404  0.5659361584483569
  0.9950165224769821  0.9944831890491170  0.5611438982219964
  0.5966415092289684  0.5999105514567312  0.4734172848383751
  0.4006187721737259  0.4056105943560949  0.4696874834640039
  0.0849710596863358  0.9111327597875286  0.4722897315855912
  0.9063478693810291  0.0844835829038036  0.4838049476158108
  0.4939776759753239  0.5038730452001616  0.7464177691637689
  0.6601961037568278  0.6474439219513365  0.5647288690175366
  0.6010695233779408  0.5900774618278101  0.3010223085267156
  0.3929946487134741  0.3925543898604726  0.3121747291406515
  0.3364879102246959  0.3452040680262163  0.5717647185626573
  0.0015731277455019  0.9974540513157790  0.7336044650236209
  0.1549292351586637  0.8604562752133921  0.5670325048596293
  0.1003796067919747  0.8982740769339239  0.3118077775669272
  0.8972831660173218  0.1008583104870131  0.3138361420959769
  0.8480681480880310  0.1478872663274764  0.5695750579212788
  0.9966535074422721  0.5066622180827418  0.9895731829150618
  0.5039714590682054  0.0013860928632778  0.9977080184419697
  0.0045527323775508  0.4968122323639541  0.4885175014367685
  0.5075343137509547  0.9907287241221522  0.4878905812571660
  0.2111853462242970  0.2209948412926064  0.9761250581906709
  0.2876130355833826  0.7101869739466492  0.9834458197627433
  0.7213749437356682  0.2819789872598067  0.9907549250681443
  0.7776898601889961  0.7821495559525793  0.9942022551357709
Cartesian
  0.0000000000000000  0.0000000000000000  0.0000000000000000
  0.0000000000000000  0.0000000000000000  0.0000000000000000
  0.0000000000000000  0.0000000000000000  0.0000000000000000
  0.0000000000000000  0.0000000000000000  0.0000000000000000
  0.0000000000000000  0.0000000000000000  0.0000000000000000
  0.0000000000000000  0.0000000000000000  0.0000000000000000
  0.0000000000000000  0.0000000000000000  0.0000000000000000
  0.0000000000000000  0.0000000000000000  0.0000000000000000
  0.0000000000000000  0.0000000000000000  0.0000000000000000
  0.0000000000000000  0.0000000000000000  0.0000000000000000
  0.0000000000000000  0.0000000000000000  0.0000000000000000
  0.0000000000000000  0.0000000000000000  0.0000000000000000
  0.0000000000000000  0.0000000000000000  0.0000000000000000
  0.0000000000000000  0.0000000000000000  0.0000000000000000
  0.0000000000000000  0.0000000000000000  0.0000000000000000
  0.0000000000000000  0.0000000000000000  0.0000000000000000
  0.0000000000000000  0.0000000000000000  0.0000000000000000
  0.0000000000000000  0.0000000000000000  0.0000000000000000
  0.0000000000000000  0.0000000000000000  0.0000000000000000
  0.0000000000000000  0.0000000000000000  0.0000000000000000
  0.0000000000000000  0.0000000000000000  0.0000000000000000
  0.0000000000000000  0.0000000000000000  0.0000000000000000
  0.0000000000000000  0.0000000000000000  0.0000000000000000
  0.0000000000000000  0.0000000000000000  0.0000000000000000
