C  N  H  Pb I                           
   1.0000000000000000     
     8.9270730472371156    0.0624028852619151    0.0461525375233840
     0.0607311625369986    8.8118489213478135    0.0265676389143877
     0.0654785403647670    0.0387301733847027   12.7242562430949029
  C               N               H               Pb              I             
     4     8    20     4    12
Direct
     0.5267031702449714    0.0193887815880842    0.2346742752294517
     0.0082622556156053    0.4584567922442275    0.7487741591894945
     0.9940398404132793    0.5421804589004111    0.2491389174637035
     0.5024174441618428    0.9463291133318421    0.7462471900292726
     0.4869839443520121    0.9084626839867767    0.1736026424854984
     0.0742294196402966    0.5626974872941020    0.6912685374719771
     0.1327895405721335    0.5824055658856579    0.2372784702458191
     0.6429557915378510    0.9581987406754493    0.7389304908695138
     0.4379131377100975    0.1298750848160424    0.2643676871380549
     0.8691041738392613    0.4180920579713572    0.7403695914107118
     0.9249629470130429    0.4395940012459292    0.1928123118893197
     0.4052537162262340    0.0318794218630671    0.6922856171528622
     0.6398020377064668    0.0115361039542492    0.2705815213186469
     0.0751752050102397    0.4034759103262360    0.8054166764019044
     0.9316278632050867    0.5945447829239825    0.3108978620739151
     0.4564824665554568    0.8648745907329172    0.7988968502424996
     0.5658665076388303    0.8327785209978558    0.1511952638123333
     0.1855058432443144    0.5859345077049980    0.6992197392680950
     0.1813629072906480    0.6595733527661949    0.2890142477643138
     0.7100152525385681    0.8958284979842688    0.7862917285221869
     0.3840279658530434    0.9101791059592514    0.1388179265181932
     0.0154870365367685    0.6226165709985665    0.6311123785903234
     0.2005110220936146    0.5352841503475219    0.1829470851377195
     0.6978949684382556    0.0347071895593487    0.6909446010006732
     0.3323846887995501    0.1457083585278696    0.2350983448270867
     0.8012399471046834    0.4643017574205217    0.6886571323295598
     0.9767949099805975    0.3815623978567260    0.1325406798067519
     0.4380441162723443    0.1093741998830069    0.6379556005075244
     0.4771492893903257    0.2046767336341091    0.3192252273903975
     0.8290699067593437    0.3429411417966648    0.7924280196369580
     0.8154498757857453    0.4188078754450899    0.2032078048405737
     0.2974272866633854    0.0116637571253548    0.7014838801700094
     0.5024819712510364    0.4903145437774228    0.9807413288777838
     0.0022787631997687    0.0134990494725926    0.4789114281619788
     0.9964308970467002    0.9854770117246900    0.9794890214192478
     0.5006806593067878    0.5157947845118187    0.4807235270633612
     0.7971991220469761    0.7113702527114754    0.5038415440627801
     0.9619539863545938    0.9949930847839852    0.2302326703788395
     0.7080732248032646    0.1961304311066527    0.9619283911146042
     0.2041516041704341    0.2887802825445860    0.0026888638888281
     0.2060877711241957    0.3071767553540923    0.4631150135078315
     0.2934693097199528    0.8016414181803739    0.4616114622598744
     0.7945614987149696    0.7004760802292509    0.9588048370054807
     0.7023410868445410    0.2102158941081669    0.5034950883735974
     0.4591210345489927    0.5042015124397139    0.7300790319510995
     0.0421853383058348    0.0051027700210469    0.7299396309416437
     0.2943580314166354    0.7901699073122757    0.0022123804680021
     0.5398579150535241    0.4930643526744802    0.2319982232663662

  0.00000000E+00  0.00000000E+00  0.00000000E+00
  0.00000000E+00  0.00000000E+00  0.00000000E+00
  0.00000000E+00  0.00000000E+00  0.00000000E+00
  0.00000000E+00  0.00000000E+00  0.00000000E+00
  0.00000000E+00  0.00000000E+00  0.00000000E+00
  0.00000000E+00  0.00000000E+00  0.00000000E+00
  0.00000000E+00  0.00000000E+00  0.00000000E+00
  0.00000000E+00  0.00000000E+00  0.00000000E+00
  0.00000000E+00  0.00000000E+00  0.00000000E+00
  0.00000000E+00  0.00000000E+00  0.00000000E+00
  0.00000000E+00  0.00000000E+00  0.00000000E+00
  0.00000000E+00  0.00000000E+00  0.00000000E+00
  0.00000000E+00  0.00000000E+00  0.00000000E+00
  0.00000000E+00  0.00000000E+00  0.00000000E+00
  0.00000000E+00  0.00000000E+00  0.00000000E+00
  0.00000000E+00  0.00000000E+00  0.00000000E+00
  0.00000000E+00  0.00000000E+00  0.00000000E+00
  0.00000000E+00  0.00000000E+00  0.00000000E+00
  0.00000000E+00  0.00000000E+00  0.00000000E+00
  0.00000000E+00  0.00000000E+00  0.00000000E+00
  0.00000000E+00  0.00000000E+00  0.00000000E+00
  0.00000000E+00  0.00000000E+00  0.00000000E+00
  0.00000000E+00  0.00000000E+00  0.00000000E+00
  0.00000000E+00  0.00000000E+00  0.00000000E+00
  0.00000000E+00  0.00000000E+00  0.00000000E+00
  0.00000000E+00  0.00000000E+00  0.00000000E+00
  0.00000000E+00  0.00000000E+00  0.00000000E+00
  0.00000000E+00  0.00000000E+00  0.00000000E+00
  0.00000000E+00  0.00000000E+00  0.00000000E+00
  0.00000000E+00  0.00000000E+00  0.00000000E+00
  0.00000000E+00  0.00000000E+00  0.00000000E+00
  0.00000000E+00  0.00000000E+00  0.00000000E+00
  0.00000000E+00  0.00000000E+00  0.00000000E+00
  0.00000000E+00  0.00000000E+00  0.00000000E+00
  0.00000000E+00  0.00000000E+00  0.00000000E+00
  0.00000000E+00  0.00000000E+00  0.00000000E+00
  0.00000000E+00  0.00000000E+00  0.00000000E+00
  0.00000000E+00  0.00000000E+00  0.00000000E+00
  0.00000000E+00  0.00000000E+00  0.00000000E+00
  0.00000000E+00  0.00000000E+00  0.00000000E+00
  0.00000000E+00  0.00000000E+00  0.00000000E+00
  0.00000000E+00  0.00000000E+00  0.00000000E+00
  0.00000000E+00  0.00000000E+00  0.00000000E+00
  0.00000000E+00  0.00000000E+00  0.00000000E+00
  0.00000000E+00  0.00000000E+00  0.00000000E+00
  0.00000000E+00  0.00000000E+00  0.00000000E+00
  0.00000000E+00  0.00000000E+00  0.00000000E+00
  0.00000000E+00  0.00000000E+00  0.00000000E+00
