C  N  H  Pb I 
 1.0000000000000000
     8.9270730472371156    0.0624028852619151    0.0461525375233840
     0.0607311625369986    8.8118489213478135    0.0265676389143877
     0.0654785403647670    0.0387301733847027   12.7242562430949029
 C   N   H   Pb  I  
   4   8  20   4  12
Direct
  0.5267031702449693  0.0193887815880817  0.2346742752294521
  0.0082622556156059  0.4584567922442293  0.7487741591894970
  0.9940398404132762  0.5421804589004131  0.2491389174637020
  0.5024174441618430  0.9463291133318410  0.7462471900292711
  0.4869839443520125  0.9084626839867732  0.1736026424854957
  0.0742294196402989  0.5626974872941002  0.6912685374719770
  0.1327895405721325  0.5824055658856592  0.2372784702458163
  0.6429557915378487  0.9581987406754474  0.7389304908695107
  0.4379131377100954  0.1298750848160443  0.2643676871380552
  0.8691041738392635  0.4180920579713546  0.7403695914107123
  0.9249629470130400  0.4395940012459315  0.1928123118893224
  0.4052537162262350  0.0318794218630683  0.6922856171528586
  0.6398020377064680  0.0115361039542509  0.2705815213186476
  0.0751752050102388  0.4034759103262326  0.8054166764019043
  0.9316278632050878  0.5945447829239818  0.3108978620739165
  0.4564824665554590  0.8648745907329166  0.7988968502424973
  0.5658665076388271  0.8327785209978527  0.1511952638123318
  0.1855058432443130  0.5859345077049956  0.6992197392680933
  0.1813629072906462  0.6595733527661927  0.2890142477643126
  0.7100152525385646  0.8958284979842708  0.7862917285221854
  0.3840279658530415  0.9101791059592487  0.1388179265181915
  0.0154870365367693  0.6226165709985672  0.6311123785903267
  0.2005110220936144  0.5352841503475207  0.1829470851377163
  0.6978949684382537  0.0347071895593461  0.6909446010006762
  0.3323846887995499  0.1457083585278718  0.2350983448270872
  0.8012399471046856  0.4643017574205206  0.6886571323295588
  0.9767949099805977  0.3815623978567267  0.1325406798067485
  0.4380441162723470  0.1093741998830072  0.6379556005075265
  0.4771492893903261  0.2046767336341123  0.3192252273903960
  0.8290699067593449  0.3429411417966660  0.7924280196369599
  0.8154498757857475  0.4188078754450898  0.2032078048405755
  0.2974272866633830  0.0116637571253562  0.7014838801700068
  0.5024819712510369  0.4903145437774224  0.9807413288777813
  0.0022787631997699  0.0134990494725930  0.4789114281619783
  0.9964308970467004  0.9854770117246895  0.9794890214192444
  0.5006806593067910  0.5157947845118183  0.4807235270633578
  0.7971991220469742  0.7113702527114779  0.5038415440627799
  0.9619539863545951  0.9949930847839858  0.2302326703788427
  0.7080732248032671  0.1961304311066533  0.9619283911146019
  0.2041516041704310  0.2887802825445828  0.0026888638888309
  0.2060877711241952  0.3071767553540952  0.4631150135078320
  0.2934693097199500  0.8016414181803752  0.4616114622598776
  0.7945614987149727  0.7004760802292486  0.9588048370054800
  0.7023410868445399  0.2102158941081636  0.5034950883735974
  0.4591210345489918  0.5042015124397140  0.7300790319511029
  0.0421853383058359  0.0051027700210458  0.7299396309416448
  0.2943580314166333  0.7901699073122742  0.0022123804680013
  0.5398579150535251  0.4930643526744778  0.2319982232663659
Cartesian
  0.0000000000000000  0.0000000000000000  0.0000000000000000
  0.0000000000000000  0.0000000000000000  0.0000000000000000
  0.0000000000000000  0.0000000000000000  0.0000000000000000
  0.0000000000000000  0.0000000000000000  0.0000000000000000
  0.0000000000000000  0.0000000000000000  0.0000000000000000
  0.0000000000000000  0.0000000000000000  0.0000000000000000
  0.0000000000000000  0.0000000000000000  0.0000000000000000
  0.0000000000000000  0.0000000000000000  0.0000000000000000
  0.0000000000000000  0.0000000000000000  0.0000000000000000
  0.0000000000000000  0.0000000000000000  0.0000000000000000
  0.0000000000000000  0.0000000000000000  0.0000000000000000
  0.0000000000000000  0.0000000000000000  0.0000000000000000
  0.0000000000000000  0.0000000000000000  0.0000000000000000
  0.0000000000000000  0.0000000000000000  0.0000000000000000
  0.0000000000000000  0.0000000000000000  0.0000000000000000
  0.0000000000000000  0.0000000000000000  0.0000000000000000
  0.0000000000000000  0.0000000000000000  0.0000000000000000
  0.0000000000000000  0.0000000000000000  0.0000000000000000
  0.0000000000000000  0.0000000000000000  0.0000000000000000
  0.0000000000000000  0.0000000000000000  0.0000000000000000
  0.0000000000000000  0.0000000000000000  0.0000000000000000
  0.0000000000000000  0.0000000000000000  0.0000000000000000
  0.0000000000000000  0.0000000000000000  0.0000000000000000
  0.0000000000000000  0.0000000000000000  0.0000000000000000
  0.0000000000000000  0.0000000000000000  0.0000000000000000
  0.0000000000000000  0.0000000000000000  0.0000000000000000
  0.0000000000000000  0.0000000000000000  0.0000000000000000
  0.0000000000000000  0.0000000000000000  0.0000000000000000
  0.0000000000000000  0.0000000000000000  0.0000000000000000
  0.0000000000000000  0.0000000000000000  0.0000000000000000
  0.0000000000000000  0.0000000000000000  0.0000000000000000
  0.0000000000000000  0.0000000000000000  0.0000000000000000
  0.0000000000000000  0.0000000000000000  0.0000000000000000
  0.0000000000000000  0.0000000000000000  0.0000000000000000
  0.0000000000000000  0.0000000000000000  0.0000000000000000
  0.0000000000000000  0.0000000000000000  0.0000000000000000
  0.0000000000000000  0.0000000000000000  0.0000000000000000
  0.0000000000000000  0.0000000000000000  0.0000000000000000
  0.0000000000000000  0.0000000000000000  0.0000000000000000
  0.0000000000000000  0.0000000000000000  0.0000000000000000
  0.0000000000000000  0.0000000000000000  0.0000000000000000
  0.0000000000000000  0.0000000000000000  0.0000000000000000
  0.0000000000000000  0.0000000000000000  0.0000000000000000
  0.0000000000000000  0.0000000000000000  0.0000000000000000
  0.0000000000000000  0.0000000000000000  0.0000000000000000
  0.0000000000000000  0.0000000000000000  0.0000000000000000
  0.0000000000000000  0.0000000000000000  0.0000000000000000
  0.0000000000000000  0.0000000000000000  0.0000000000000000
