C  N  H  Pb I                           
   1.0000000000000000     
     8.9515839677080429    0.0000000000000000    0.0000000000000000
     0.0000000000000000    8.9515839677080429    0.0000000000000000
     0.0000000000000000    0.0000000000000000    6.3289724258144924
  C               N               H               Pb              I             
     2     4    10     2     6
Direct
     0.4846708984316024    0.5368279919103216    0.4694627936834053
     0.0000007410375673    0.9999987646105950    0.5710173459562427
     0.6255163973472122    0.4992500860274873    0.4463089048464965
     0.3873965223128550    0.4697293313914130    0.5923979161285402
     0.0923596624104022    0.9076399465760616    0.4765807909973105
     0.9076407520067917    0.0923588334847736    0.4765810251555322
     0.4448959929403742    0.6323648491912905    0.3783976728313689
     0.6910312565455428    0.5595523323651648    0.3461444941786311
     0.6749235000307294    0.4121439602441868    0.5231476868551397
     0.4118070790911190    0.3795244546820271    0.6845721278294690
     0.2805701988962852    0.5086658303281553    0.5979664373127207
     0.0000003891983269    0.9999991386351894    0.7434028011510989
     0.1592037642541229    0.8407958108961822    0.5661101690442578
     0.1020541224786768    0.8979456517450188    0.3166108718828013
     0.8979457520127525    0.1020539951781174    0.3166116306627345
     0.8407959940430487    0.1592035362748234    0.5661129987487641
     0.9999996702832874    0.4999998411152120    0.9927896685767337
     0.4999997010236399    0.0000000324883942    0.9927896646371437
     0.9999999102034849    0.4999996263576136    0.4921929684839199
     0.4999999142446683    0.0000003677771616    0.4921929568124028
     0.2185734085131941    0.2185737368091125    0.9905351307177028
     0.2814254933831535    0.7185740284663780    0.9905345394682996
     0.7185734566697093    0.2814260629724075    0.9905349485405637
     0.7814255204687655    0.7814258469398112    0.9905345050794736

  0.00000000E+00  0.00000000E+00  0.00000000E+00
  0.00000000E+00  0.00000000E+00  0.00000000E+00
  0.00000000E+00  0.00000000E+00  0.00000000E+00
  0.00000000E+00  0.00000000E+00  0.00000000E+00
  0.00000000E+00  0.00000000E+00  0.00000000E+00
  0.00000000E+00  0.00000000E+00  0.00000000E+00
  0.00000000E+00  0.00000000E+00  0.00000000E+00
  0.00000000E+00  0.00000000E+00  0.00000000E+00
  0.00000000E+00  0.00000000E+00  0.00000000E+00
  0.00000000E+00  0.00000000E+00  0.00000000E+00
  0.00000000E+00  0.00000000E+00  0.00000000E+00
  0.00000000E+00  0.00000000E+00  0.00000000E+00
  0.00000000E+00  0.00000000E+00  0.00000000E+00
  0.00000000E+00  0.00000000E+00  0.00000000E+00
  0.00000000E+00  0.00000000E+00  0.00000000E+00
  0.00000000E+00  0.00000000E+00  0.00000000E+00
  0.00000000E+00  0.00000000E+00  0.00000000E+00
  0.00000000E+00  0.00000000E+00  0.00000000E+00
  0.00000000E+00  0.00000000E+00  0.00000000E+00
  0.00000000E+00  0.00000000E+00  0.00000000E+00
  0.00000000E+00  0.00000000E+00  0.00000000E+00
  0.00000000E+00  0.00000000E+00  0.00000000E+00
  0.00000000E+00  0.00000000E+00  0.00000000E+00
  0.00000000E+00  0.00000000E+00  0.00000000E+00
