tetragonal FAPbI3;P4/mbm                
   1.0000000000000000     
     8.9710000000000001    0.0000000000000000    0.0000000000000000
     0.0000000000000000    8.9710000000000001    0.0000000000000000
     0.0000000000000000    0.0000000000000000    6.3426999999999998
  C               N               H               Pb              I             
     2     4    10     2     6
Direct
     0.5000018554397698    0.5000022537173052    0.5710373615609139
     0.0000007410375673    0.9999987646105950    0.5710366231252901
     0.5921648551774155    0.5921652680699907    0.4768110169080605
     0.4078339986813599    0.4078343883100838    0.4768118234426401
     0.0921664140924199    0.9078331948940459    0.4768114975054393
     0.9078340003247760    0.0921655851667913    0.4768117316636610
     0.5000002811686741    0.5000006754111794    0.7430604171203991
     0.6588626807834334    0.6588630812761497    0.5661671939595595
     0.6018556832786472    0.6018560279797540    0.3171900967947627
     0.3981444185638864    0.3981447406588913    0.3171912979672149
     0.3411379746752436    0.3411383442498154    0.5661688260580408
     0.0000003891983269    0.9999991386351894    0.7430600312293075
     0.1588621226632590    0.8411374524870493    0.5661656062833361
     0.1018557874975300    0.8981439867261714    0.3171891589752482
     0.8981440869939050    0.1018556601969706    0.3171899177551813
     0.8411376356339159    0.1588618946839596    0.5661684359878424
     0.9999996702832874    0.4999998411152120    0.9923527994758882
     0.4999997010236399    0.0000000324883942    0.9923527955363053
     0.9999999102034849    0.4999996263576136    0.4918606146281177
     0.4999999142446683    0.0000003677771616    0.4918606029566006
     0.2193616127415562    0.2193619410374746    0.9902170577327563
     0.2806372891547882    0.7193622326947439    0.9902164664833530
     0.7193616608980752    0.2806378587440422    0.9902168755556171
     0.7806373162403996    0.7806376427114453    0.9902164320945270

  0.00000000E+00  0.00000000E+00  0.00000000E+00
  0.00000000E+00  0.00000000E+00  0.00000000E+00
  0.00000000E+00  0.00000000E+00  0.00000000E+00
  0.00000000E+00  0.00000000E+00  0.00000000E+00
  0.00000000E+00  0.00000000E+00  0.00000000E+00
  0.00000000E+00  0.00000000E+00  0.00000000E+00
  0.00000000E+00  0.00000000E+00  0.00000000E+00
  0.00000000E+00  0.00000000E+00  0.00000000E+00
  0.00000000E+00  0.00000000E+00  0.00000000E+00
  0.00000000E+00  0.00000000E+00  0.00000000E+00
  0.00000000E+00  0.00000000E+00  0.00000000E+00
  0.00000000E+00  0.00000000E+00  0.00000000E+00
  0.00000000E+00  0.00000000E+00  0.00000000E+00
  0.00000000E+00  0.00000000E+00  0.00000000E+00
  0.00000000E+00  0.00000000E+00  0.00000000E+00
  0.00000000E+00  0.00000000E+00  0.00000000E+00
  0.00000000E+00  0.00000000E+00  0.00000000E+00
  0.00000000E+00  0.00000000E+00  0.00000000E+00
  0.00000000E+00  0.00000000E+00  0.00000000E+00
  0.00000000E+00  0.00000000E+00  0.00000000E+00
  0.00000000E+00  0.00000000E+00  0.00000000E+00
  0.00000000E+00  0.00000000E+00  0.00000000E+00
  0.00000000E+00  0.00000000E+00  0.00000000E+00
  0.00000000E+00  0.00000000E+00  0.00000000E+00
