tetragonal FAPbI3;P4/mbm                
   1.0000000000000000     
     8.9710000000000001    0.0000000000000000    0.0000000000000000
     0.0000000000000000    8.9710000000000001    0.0000000000000000
     0.0000000000000000    0.0000000000000000    6.3426999999999998
  C               N               H               Pb              I             
     2     4    10     2     6
Direct
     0.5000018554397698    0.5000022537173052    0.5723590321970670
     0.0000007410375673    0.9999987646105950    0.5723582937614432
     0.5920945222001904    0.5920949350927657    0.4778153587383686
     0.4079043316585441    0.4079047212872680    0.4778161652729482
     0.0920960811152213    0.9079035278712709    0.4778158393357474
     0.9079043333020010    0.0920952521895927    0.4778160734939691
     0.5000002811686741    0.5000006754111794    0.7445587095618483
     0.6588781025196969    0.6588785030124132    0.5668730876481177
     0.6016822472186936    0.6016825919198003    0.3181738466407204
     0.3983178546238585    0.3983181767188634    0.3181750478131726
     0.3411225529390091    0.3411229225135809    0.5668747197465990
     0.0000003891983269    0.9999991386351894    0.7445583236707568
     0.1588775443994836    0.8411220307507857    0.5668714999718943
     0.1016823514375637    0.8983174227861250    0.3181729088212059
     0.8983175230538587    0.1016822241370043    0.3181736676011390
     0.8411222138976523    0.1588773164201842    0.5668743296764006
     0.9999996702832874    0.4999998411152120    0.9916901271723738
     0.4999997010236399    0.0000000324883942    0.9916901232327909
     0.9999999102034849    0.4999996263576136    0.4890828707702246
     0.4999999142446683    0.0000003677771616    0.4890828590987075
     0.2199300508583834    0.2199303791543018    0.9878332989098161
     0.2800688510379570    0.7199306708115601    0.9878327076604129
     0.7199300990148915    0.2800694206272110    0.9878331167326769
     0.7800688781235833    0.7800692045946290    0.9878326732715869

  0.00000000E+00  0.00000000E+00  0.00000000E+00
  0.00000000E+00  0.00000000E+00  0.00000000E+00
  0.00000000E+00  0.00000000E+00  0.00000000E+00
  0.00000000E+00  0.00000000E+00  0.00000000E+00
  0.00000000E+00  0.00000000E+00  0.00000000E+00
  0.00000000E+00  0.00000000E+00  0.00000000E+00
  0.00000000E+00  0.00000000E+00  0.00000000E+00
  0.00000000E+00  0.00000000E+00  0.00000000E+00
  0.00000000E+00  0.00000000E+00  0.00000000E+00
  0.00000000E+00  0.00000000E+00  0.00000000E+00
  0.00000000E+00  0.00000000E+00  0.00000000E+00
  0.00000000E+00  0.00000000E+00  0.00000000E+00
  0.00000000E+00  0.00000000E+00  0.00000000E+00
  0.00000000E+00  0.00000000E+00  0.00000000E+00
  0.00000000E+00  0.00000000E+00  0.00000000E+00
  0.00000000E+00  0.00000000E+00  0.00000000E+00
  0.00000000E+00  0.00000000E+00  0.00000000E+00
  0.00000000E+00  0.00000000E+00  0.00000000E+00
  0.00000000E+00  0.00000000E+00  0.00000000E+00
  0.00000000E+00  0.00000000E+00  0.00000000E+00
  0.00000000E+00  0.00000000E+00  0.00000000E+00
  0.00000000E+00  0.00000000E+00  0.00000000E+00
  0.00000000E+00  0.00000000E+00  0.00000000E+00
  0.00000000E+00  0.00000000E+00  0.00000000E+00
