C  N  H  Pb I                           
   1.0000000000000000     
     8.9515839677080429    0.0000000000000000    0.0000000000000000
     0.0000000000000000    8.9515839677080429    0.0000000000000000
     0.0000000000000000    0.0000000000000000    6.3289724258144924
  C               N               H               Pb              I             
     2     4    10     2     6
Direct
     0.5001194186581301    0.4984220673029043    0.5658438380705419
     0.9999649861202187    0.9977686471548139    0.5683016402845311
     0.5914065976888239    0.5898000030280599    0.4780839416330949
     0.4091744801610915    0.4131003698605014    0.4736963899822371
     0.0942957220178471    0.9101505898833935    0.4791785457431104
     0.9095446394652527    0.0948175837858756    0.4775939720231008
     0.5012773496618408    0.4983731416929800    0.7458844679436893
     0.6594978895325312    0.6612623306209642    0.5627847705823754
     0.5993287281235524    0.6012041262208001    0.3211281050122636
     0.3969051913331825    0.3948942752297668    0.3175188254489285
     0.3460337715712782    0.3417162811882548    0.5634936734774598
     0.0011394778012033    0.0014590376264465    0.7424541424402875
     0.1598062684047932    0.8400266113540198    0.5622939644643168
     0.1030607280272520    0.9018367677786188    0.3166015860886446
     0.8966079333299390    0.1009394142387379    0.3139243590347007
     0.8452337804979422    0.1593549171101856    0.5639732145011962
     0.0031038674317827    0.5021499573049013    0.9938340677482813
     0.4998364246474694    0.9999303407240276    0.9903630702875148
     0.0002845085579324    0.5005714444296032    0.4903844950230507
     0.4958770805044281    0.0047864822089991    0.4952961167207022
     0.2214100705173294    0.2204618590607410    0.9865807026249840
     0.2821438543603989    0.7148878462192485    0.9977059504883243
     0.7211728792325189    0.2800574253785939    0.9922140900227987
     0.7807053770774601    0.7837983831412032    0.9879150689029998

  0.00000000E+00  0.00000000E+00  0.00000000E+00
  0.00000000E+00  0.00000000E+00  0.00000000E+00
  0.00000000E+00  0.00000000E+00  0.00000000E+00
  0.00000000E+00  0.00000000E+00  0.00000000E+00
  0.00000000E+00  0.00000000E+00  0.00000000E+00
  0.00000000E+00  0.00000000E+00  0.00000000E+00
  0.00000000E+00  0.00000000E+00  0.00000000E+00
  0.00000000E+00  0.00000000E+00  0.00000000E+00
  0.00000000E+00  0.00000000E+00  0.00000000E+00
  0.00000000E+00  0.00000000E+00  0.00000000E+00
  0.00000000E+00  0.00000000E+00  0.00000000E+00
  0.00000000E+00  0.00000000E+00  0.00000000E+00
  0.00000000E+00  0.00000000E+00  0.00000000E+00
  0.00000000E+00  0.00000000E+00  0.00000000E+00
  0.00000000E+00  0.00000000E+00  0.00000000E+00
  0.00000000E+00  0.00000000E+00  0.00000000E+00
  0.00000000E+00  0.00000000E+00  0.00000000E+00
  0.00000000E+00  0.00000000E+00  0.00000000E+00
  0.00000000E+00  0.00000000E+00  0.00000000E+00
  0.00000000E+00  0.00000000E+00  0.00000000E+00
  0.00000000E+00  0.00000000E+00  0.00000000E+00
  0.00000000E+00  0.00000000E+00  0.00000000E+00
  0.00000000E+00  0.00000000E+00  0.00000000E+00
  0.00000000E+00  0.00000000E+00  0.00000000E+00
