C  N  H  Pb I 
 1.0000000000000000
     8.9515839677080429    0.0000000000000000    0.0000000000000000
     0.0000000000000000    8.9515839677080429    0.0000000000000000
     0.0000000000000000    0.0000000000000000    6.3289724258144924
 C   N   H   Pb  I  
   2   4  10   2   6
Direct
  0.5001194186581307  0.4984220673029076  0.5658438380705441
  0.9999649861202167  0.9977686471548162  0.5683016402845330
  0.5914065976888262  0.5898000030280585  0.4780839416330922
  0.4091744801610886  0.4131003698604983  0.4736963899822401
  0.0942957220178474  0.9101505898833928  0.4791785457431119
  0.9095446394652493  0.0948175837858774  0.4775939720231038
  0.5012773496618439  0.4983731416929780  0.7458844679436927
  0.6594978895325297  0.6612623306209624  0.5627847705823780
  0.5993287281235524  0.6012041262207972  0.3211281050122620
  0.3969051913331811  0.3948942752297692  0.3175188254489310
  0.3460337715712770  0.3417162811882549  0.5634936734774594
  0.0011394778012030  0.0014590376264470  0.7424541424402874
  0.1598062684047926  0.8400266113540222  0.5622939644643145
  0.1030607280272509  0.9018367677786211  0.3166015860886423
  0.8966079333299377  0.1009394142387357  0.3139243590346986
  0.8452337804979415  0.1593549171101875  0.5639732145011993
  0.0031038674317841  0.5021499573048988  0.9938340677482841
  0.4998364246474705  0.9999303407240271  0.9903630702875119
  0.0002845085579329  0.5005714444296032  0.4903844950230503
  0.4958770805044276  0.0047864822090010  0.4952961167206992
  0.2214100705173295  0.2204618590607393  0.9865807026249873
  0.2821438543604008  0.7148878462192511  0.9977059504883277
  0.7211728792325216  0.2800574253785914  0.9922140900227995
  0.7807053770774578  0.7837983831412003  0.9879150689029981
Cartesian
  0.0000000000000000  0.0000000000000000  0.0000000000000000
  0.0000000000000000  0.0000000000000000  0.0000000000000000
  0.0000000000000000  0.0000000000000000  0.0000000000000000
  0.0000000000000000  0.0000000000000000  0.0000000000000000
  0.0000000000000000  0.0000000000000000  0.0000000000000000
  0.0000000000000000  0.0000000000000000  0.0000000000000000
  0.0000000000000000  0.0000000000000000  0.0000000000000000
  0.0000000000000000  0.0000000000000000  0.0000000000000000
  0.0000000000000000  0.0000000000000000  0.0000000000000000
  0.0000000000000000  0.0000000000000000  0.0000000000000000
  0.0000000000000000  0.0000000000000000  0.0000000000000000
  0.0000000000000000  0.0000000000000000  0.0000000000000000
  0.0000000000000000  0.0000000000000000  0.0000000000000000
  0.0000000000000000  0.0000000000000000  0.0000000000000000
  0.0000000000000000  0.0000000000000000  0.0000000000000000
  0.0000000000000000  0.0000000000000000  0.0000000000000000
  0.0000000000000000  0.0000000000000000  0.0000000000000000
  0.0000000000000000  0.0000000000000000  0.0000000000000000
  0.0000000000000000  0.0000000000000000  0.0000000000000000
  0.0000000000000000  0.0000000000000000  0.0000000000000000
  0.0000000000000000  0.0000000000000000  0.0000000000000000
  0.0000000000000000  0.0000000000000000  0.0000000000000000
  0.0000000000000000  0.0000000000000000  0.0000000000000000
  0.0000000000000000  0.0000000000000000  0.0000000000000000
