C  N  H  Pb I                           
   1.0000000000000000     
     8.9515839677080429    0.0000000000000000    0.0000000000000000
     0.0000000000000000    8.9515839677080429    0.0000000000000000
     0.0000000000000000    0.0000000000000000    6.3289724258144924
  C               N               H               Pb              I             
     2     4    10     2     6
Direct
     0.5022950501660262    0.5049653159551610    0.5844320068062316
     0.0053285674162140    0.0037573398065121    0.5725843194935010
     0.6036887005915332    0.5880174149663304    0.4620540686972561
     0.4059430871589029    0.4073550259934891    0.4645565172896085
     0.0961945013154804    0.9115721081907964    0.4787391492352526
     0.9179522404755716    0.0959993312036502    0.4816804121496929
     0.4993603870616283    0.4959003443450172    0.7417409013933423
     0.6644449423081085    0.6711238731183329    0.5579101861985549
     0.5894816588058944    0.6043796476452599    0.3233202695038599
     0.4040832822517615    0.4073131334111864    0.3145588619011477
     0.3352733264415235    0.3367990049905885    0.5636482542146410
     0.9943665325490372    0.9997949053166693    0.7461992834099789
     0.1624630228698081    0.8434915319217922    0.5561476052566690
     0.1067802872606265    0.8959815960835797    0.3085407243552254
     0.9038220742275911    0.0997143899681419    0.3185022253309029
     0.8534018080953274    0.1571079190058455    0.5600328322422499
     0.9986952538235485    0.4957510284331121    0.0077032845753138
     0.4983481421143878    0.0158828666163586    0.9879320724796870
     0.0005399404057727    0.4979073266345324    0.4767948990039486
     0.4985214466044852    0.0050360232213151    0.4924938911270189
     0.2156264952676707    0.2099423204200903    0.9841403014159056
     0.2804819766889395    0.7229900286338875    0.0047010792991458
     0.7125058811104026    0.2723506707212167    0.9965870729751458
     0.7896024238937756    0.7763062852509321    0.0003588746916563

  0.00000000E+00  0.00000000E+00  0.00000000E+00
  0.00000000E+00  0.00000000E+00  0.00000000E+00
  0.00000000E+00  0.00000000E+00  0.00000000E+00
  0.00000000E+00  0.00000000E+00  0.00000000E+00
  0.00000000E+00  0.00000000E+00  0.00000000E+00
  0.00000000E+00  0.00000000E+00  0.00000000E+00
  0.00000000E+00  0.00000000E+00  0.00000000E+00
  0.00000000E+00  0.00000000E+00  0.00000000E+00
  0.00000000E+00  0.00000000E+00  0.00000000E+00
  0.00000000E+00  0.00000000E+00  0.00000000E+00
  0.00000000E+00  0.00000000E+00  0.00000000E+00
  0.00000000E+00  0.00000000E+00  0.00000000E+00
  0.00000000E+00  0.00000000E+00  0.00000000E+00
  0.00000000E+00  0.00000000E+00  0.00000000E+00
  0.00000000E+00  0.00000000E+00  0.00000000E+00
  0.00000000E+00  0.00000000E+00  0.00000000E+00
  0.00000000E+00  0.00000000E+00  0.00000000E+00
  0.00000000E+00  0.00000000E+00  0.00000000E+00
  0.00000000E+00  0.00000000E+00  0.00000000E+00
  0.00000000E+00  0.00000000E+00  0.00000000E+00
  0.00000000E+00  0.00000000E+00  0.00000000E+00
  0.00000000E+00  0.00000000E+00  0.00000000E+00
  0.00000000E+00  0.00000000E+00  0.00000000E+00
  0.00000000E+00  0.00000000E+00  0.00000000E+00
