C  N  H  Pb I 
 1.0000000000000000
     8.9515839677080429    0.0000000000000000    0.0000000000000000
     0.0000000000000000    8.9515839677080429    0.0000000000000000
     0.0000000000000000    0.0000000000000000    6.3289724258144924
 C   N   H   Pb  I  
   2   4  10   2   6
Direct
  0.5022950501660265  0.5049653159551594  0.5844320068062347
  0.0053285674162110  0.0037573398065103  0.5725843194935021
  0.6036887005915332  0.5880174149663339  0.4620540686972550
  0.4059430871589056  0.4073550259934898  0.4645565172896088
  0.0961945013154768  0.9115721081907968  0.4787391492352536
  0.9179522404755730  0.0959993312036520  0.4816804121496915
  0.4993603870616258  0.4959003443450157  0.7417409013933447
  0.6644449423081099  0.6711238731183318  0.5579101861985516
  0.5894816588058962  0.6043796476452586  0.3233202695038586
  0.4040832822517612  0.4073131334111862  0.3145588619011448
  0.3352733264415249  0.3367990049905910  0.5636482542146432
  0.9943665325490336  0.9997949053166671  0.7461992834099778
  0.1624630228698109  0.8434915319217908  0.5561476052566656
  0.1067802872606252  0.8959815960835826  0.3085407243552288
  0.9038220742275904  0.0997143899681390  0.3185022253309060
  0.8534018080953243  0.1571079190058489  0.5600328322422465
  0.9986952538235467  0.4957510284331116  0.0077032845753103
  0.4983481421143892  0.0158828666163576  0.9879320724796840
  0.0005399404057720  0.4979073266345312  0.4767948990039502
  0.4985214466044873  0.0050360232213150  0.4924938911270201
  0.2156264952676686  0.2099423204200903  0.9841403014159080
  0.2804819766889363  0.7229900286338906  0.0047010792991456
  0.7125058811103999  0.2723506707212197  0.9965870729751442
  0.7896024238937724  0.7763062852509315  0.0003588746916528
Cartesian
  0.0000000000000000  0.0000000000000000  0.0000000000000000
  0.0000000000000000  0.0000000000000000  0.0000000000000000
  0.0000000000000000  0.0000000000000000  0.0000000000000000
  0.0000000000000000  0.0000000000000000  0.0000000000000000
  0.0000000000000000  0.0000000000000000  0.0000000000000000
  0.0000000000000000  0.0000000000000000  0.0000000000000000
  0.0000000000000000  0.0000000000000000  0.0000000000000000
  0.0000000000000000  0.0000000000000000  0.0000000000000000
  0.0000000000000000  0.0000000000000000  0.0000000000000000
  0.0000000000000000  0.0000000000000000  0.0000000000000000
  0.0000000000000000  0.0000000000000000  0.0000000000000000
  0.0000000000000000  0.0000000000000000  0.0000000000000000
  0.0000000000000000  0.0000000000000000  0.0000000000000000
  0.0000000000000000  0.0000000000000000  0.0000000000000000
  0.0000000000000000  0.0000000000000000  0.0000000000000000
  0.0000000000000000  0.0000000000000000  0.0000000000000000
  0.0000000000000000  0.0000000000000000  0.0000000000000000
  0.0000000000000000  0.0000000000000000  0.0000000000000000
  0.0000000000000000  0.0000000000000000  0.0000000000000000
  0.0000000000000000  0.0000000000000000  0.0000000000000000
  0.0000000000000000  0.0000000000000000  0.0000000000000000
  0.0000000000000000  0.0000000000000000  0.0000000000000000
  0.0000000000000000  0.0000000000000000  0.0000000000000000
  0.0000000000000000  0.0000000000000000  0.0000000000000000
