C  N  H  Pb I 
 1.0000000000000000
     9.0321970652498127   -0.0511097443901911   -0.0559891421521517
    -0.0511097443901911    8.9266655029536111   -0.0247179235576442
    -0.0395855904501675   -0.0174761312840341    6.2977249174615588
 C   N   H   Pb  I  
   2   4  10   2   6
Direct
  0.5000018554397698  0.5000022537173053  0.5710180843918637
  0.0000007410375673  0.9999987646105950  0.5710173459562402
  0.5923581034953976  0.5923585163879728  0.4765803103999293
  0.4076407503633792  0.4076411399921032  0.4765811169345088
  0.0923596624104001  0.9076399465760638  0.4765807909973080
  0.9076407520067941  0.0923588334847715  0.4765810251555299
  0.5000002811686741  0.5000006754111794  0.7434031870421927
  0.6592043223742974  0.6592047228670138  0.5661117567204835
  0.6020540182598020  0.6020543629609088  0.3166118097023156
  0.3979460835827361  0.3979464056777410  0.3166130108747678
  0.3407963330843803  0.3407967026589522  0.5661133888189649
  0.0000003891983269  0.9999991386351895  0.7434028011511010
  0.1592037642541199  0.8407958108961855  0.5661101690442603
  0.1020541224786791  0.8979456517450168  0.3166108718828012
  0.8979457520127503  0.1020539951781196  0.3166116306627342
  0.8407959940430518  0.1592035362748206  0.5661129987487665
  0.9997419242682237  0.5001533546842315  0.9960469259647103
  0.4989113388626149  0.9988470941063785  0.9966642379958447
  0.9998129862098039  0.5020770279045833  0.4919566675024235
  0.4999033181448107  0.9997789781103770  0.4917149768035635
  0.2166048920943884  0.2175852298480969  0.9900571921288882
  0.2791800021579284  0.7198489826969857  0.9933346110538844
  0.7166528425674267  0.2790306370140678  0.9912569169150097
  0.7834123052719275  0.7803079984525436  0.9929314392794485
Cartesian
  0.0000000000000000  0.0000000000000000  0.0000000000000000
  0.0000000000000000  0.0000000000000000  0.0000000000000000
  0.0000000000000000  0.0000000000000000  0.0000000000000000
  0.0000000000000000  0.0000000000000000  0.0000000000000000
  0.0000000000000000  0.0000000000000000  0.0000000000000000
  0.0000000000000000  0.0000000000000000  0.0000000000000000
  0.0000000000000000  0.0000000000000000  0.0000000000000000
  0.0000000000000000  0.0000000000000000  0.0000000000000000
  0.0000000000000000  0.0000000000000000  0.0000000000000000
  0.0000000000000000  0.0000000000000000  0.0000000000000000
  0.0000000000000000  0.0000000000000000  0.0000000000000000
  0.0000000000000000  0.0000000000000000  0.0000000000000000
  0.0000000000000000  0.0000000000000000  0.0000000000000000
  0.0000000000000000  0.0000000000000000  0.0000000000000000
  0.0000000000000000  0.0000000000000000  0.0000000000000000
  0.0000000000000000  0.0000000000000000  0.0000000000000000
  0.0000000000000000  0.0000000000000000  0.0000000000000000
  0.0000000000000000  0.0000000000000000  0.0000000000000000
  0.0000000000000000  0.0000000000000000  0.0000000000000000
  0.0000000000000000  0.0000000000000000  0.0000000000000000
  0.0000000000000000  0.0000000000000000  0.0000000000000000
  0.0000000000000000  0.0000000000000000  0.0000000000000000
  0.0000000000000000  0.0000000000000000  0.0000000000000000
  0.0000000000000000  0.0000000000000000  0.0000000000000000
