C  N  H  Pb I                           
   1.0000000000000000     
     9.0193899931757802    0.0000000000000000    0.0000000000000000
     0.0000000000000000    8.7777678445653162    0.0000000000000000
     0.0000000000000000    0.0000000000000000   12.7961868062944486
  C               N               H               Pb              I             
     4     8    20     4    12
Direct
     0.5079545620594885    0.0406959883747646    0.2475946235704427
     0.0060435674855626    0.4536430899610266    0.7457452768173383
     0.9933244558299990    0.5459967015735501    0.2455878173257844
     0.4906700071739891    0.9579326132809243    0.7460992674004174
     0.5705946771768495    0.9354362274290722    0.1897252141182122
     0.0797871847817788    0.5489184444978221    0.6862585228223637
     0.1383100641552559    0.5578415049409173    0.2505343082041520
     0.6279044593171292    0.9095861335278244    0.7373003445554716
     0.3689663406760957    0.0838994856595292    0.2399588837149906
     0.8613981533869079    0.4364660645591982    0.7449711224622106
     0.9210301702557260    0.4570807897781890    0.1808189083876712
     0.4336927894418778    0.0722307982106898    0.6936434801604889
     0.5763163080256462    0.0964013618091926    0.3070350010383294
     0.0695842680021102    0.3835359420537259    0.8004854202590863
     0.9281289389367657    0.6151399219743254    0.2999367326922027
     0.4187850627346279    0.8986490628067614    0.8017236005514974
     0.6816203964682259    0.9153350004290033    0.1981420696355372
     0.1930871191716861    0.5483420071508078    0.6889716847925484
     0.1857850901627955    0.6246693223319610    0.3068093161578247
     0.6652347070298603    0.8241470399580635    0.7848483574970047
     0.5137159496301180    0.8799864858485265    0.1317994637689637
     0.0276282389803839    0.6166359408602347    0.6324061873222746
     0.2073254105093199    0.4963948592563838    0.2036543296666409
     0.7026475580219724    0.9592785051327155    0.6882762711310306
     0.2972319239003340    0.0368550498131768    0.1875867509889702
     0.7937720076095260    0.4982967716805220    0.6973291090226468
     0.9748787109430168    0.3906928109993544    0.1270138337967524
     0.4940627505894213    0.1315973279196498    0.6394178947286306
     0.3272559576570444    0.1618424731988952    0.2915835925839971
     0.8122682898448517    0.3646313899851208    0.7975141210696677
     0.8077688638470306    0.4616897837372704    0.1794514992150269
     0.3234238447138154    0.0962318643672475    0.7021941651389980
     0.5023441722619779    0.4879288203356396    0.9810849892003191
     0.0023441785924945    0.0120711836670608    0.4810849868122489
     0.9976558244282359    0.9879288178551917    0.9810849914872719
     0.4976558298475950    0.5120711849063113    0.4810849885500943
     0.7958928941106862    0.7105293335369609    0.5032699314851357
     0.9606598229172718    0.9944623124655507    0.2320592544955247
     0.7060293635732506    0.1956508126848462    0.9614522052702341
     0.2041070863312058    0.2894707010478257    0.0032699320500740
     0.2060293779368507    0.3043491755398549    0.4614522129329686
     0.2939706246777973    0.8043491828284957    0.4614522154174097
     0.7939706408800902    0.6956508110307098    0.9614522100061293
     0.7041071043942750    0.2105293303375291    0.5032699287679776
     0.4606598128207438    0.5055376617516671    0.7320592563212429
     0.0393401777688851    0.0055376740307977    0.7320592521911493
     0.2958929104798855    0.7894706933117490    0.0032699289927791
     0.5393401671427824    0.4944623109760684    0.2320592517272502

  0.00000000E+00  0.00000000E+00  0.00000000E+00
  0.00000000E+00  0.00000000E+00  0.00000000E+00
  0.00000000E+00  0.00000000E+00  0.00000000E+00
  0.00000000E+00  0.00000000E+00  0.00000000E+00
  0.00000000E+00  0.00000000E+00  0.00000000E+00
  0.00000000E+00  0.00000000E+00  0.00000000E+00
  0.00000000E+00  0.00000000E+00  0.00000000E+00
  0.00000000E+00  0.00000000E+00  0.00000000E+00
  0.00000000E+00  0.00000000E+00  0.00000000E+00
  0.00000000E+00  0.00000000E+00  0.00000000E+00
  0.00000000E+00  0.00000000E+00  0.00000000E+00
  0.00000000E+00  0.00000000E+00  0.00000000E+00
  0.00000000E+00  0.00000000E+00  0.00000000E+00
  0.00000000E+00  0.00000000E+00  0.00000000E+00
  0.00000000E+00  0.00000000E+00  0.00000000E+00
  0.00000000E+00  0.00000000E+00  0.00000000E+00
  0.00000000E+00  0.00000000E+00  0.00000000E+00
  0.00000000E+00  0.00000000E+00  0.00000000E+00
  0.00000000E+00  0.00000000E+00  0.00000000E+00
  0.00000000E+00  0.00000000E+00  0.00000000E+00
  0.00000000E+00  0.00000000E+00  0.00000000E+00
  0.00000000E+00  0.00000000E+00  0.00000000E+00
  0.00000000E+00  0.00000000E+00  0.00000000E+00
  0.00000000E+00  0.00000000E+00  0.00000000E+00
  0.00000000E+00  0.00000000E+00  0.00000000E+00
  0.00000000E+00  0.00000000E+00  0.00000000E+00
  0.00000000E+00  0.00000000E+00  0.00000000E+00
  0.00000000E+00  0.00000000E+00  0.00000000E+00
  0.00000000E+00  0.00000000E+00  0.00000000E+00
  0.00000000E+00  0.00000000E+00  0.00000000E+00
  0.00000000E+00  0.00000000E+00  0.00000000E+00
  0.00000000E+00  0.00000000E+00  0.00000000E+00
  0.00000000E+00  0.00000000E+00  0.00000000E+00
  0.00000000E+00  0.00000000E+00  0.00000000E+00
  0.00000000E+00  0.00000000E+00  0.00000000E+00
  0.00000000E+00  0.00000000E+00  0.00000000E+00
  0.00000000E+00  0.00000000E+00  0.00000000E+00
  0.00000000E+00  0.00000000E+00  0.00000000E+00
  0.00000000E+00  0.00000000E+00  0.00000000E+00
  0.00000000E+00  0.00000000E+00  0.00000000E+00
  0.00000000E+00  0.00000000E+00  0.00000000E+00
  0.00000000E+00  0.00000000E+00  0.00000000E+00
  0.00000000E+00  0.00000000E+00  0.00000000E+00
  0.00000000E+00  0.00000000E+00  0.00000000E+00
  0.00000000E+00  0.00000000E+00  0.00000000E+00
  0.00000000E+00  0.00000000E+00  0.00000000E+00
  0.00000000E+00  0.00000000E+00  0.00000000E+00
  0.00000000E+00  0.00000000E+00  0.00000000E+00
