C  N  H  Pb I 
 1.0000000000000000
     9.0193899931757802    0.0000000000000000    0.0000000000000000
     0.0000000000000000    8.7777678445653162    0.0000000000000000
     0.0000000000000000    0.0000000000000000   12.7961868062944486
 C   N   H   Pb  I  
   4   8  20   4  12
Direct
  0.5079545620594851  0.0406959883747638  0.2475946235704422
  0.0060435674855597  0.4536430899610263  0.7457452768173407
  0.9933244558299955  0.5459967015735533  0.2455878173257866
  0.4906700071739913  0.9579326132809224  0.7460992674004169
  0.5705946771768488  0.9354362274290704  0.1897252141182125
  0.0797871847817776  0.5489184444978255  0.6862585228223664
  0.1383100641552549  0.5578415049409146  0.2505343082041523
  0.6279044593171322  0.9095861335278268  0.7373003445554740
  0.3689663406760989  0.0838994856595276  0.2399588837149887
  0.8613981533869091  0.4364660645592001  0.7449711224622079
  0.9210301702557229  0.4570807897781913  0.1808189083876720
  0.4336927894418777  0.0722307982106872  0.6936434801604909
  0.5763163080256496  0.0964013618091920  0.3070350010383274
  0.0695842680021118  0.3835359420537233  0.8004854202590846
  0.9281289389367676  0.6151399219743278  0.2999367326922062
  0.4187850627346255  0.8986490628067595  0.8017236005514943
  0.6816203964682235  0.9153350004290041  0.1981420696355345
  0.1930871191716889  0.5483420071508101  0.6889716847925456
  0.1857850901627985  0.6246693223319598  0.3068093161578225
  0.6652347070298581  0.8241470399580599  0.7848483574970028
  0.5137159496301194  0.8799864858485240  0.1317994637689628
  0.0276282389803821  0.6166359408602371  0.6324061873222715
  0.2073254105093217  0.4963948592563808  0.2036543296666424
  0.7026475580219742  0.9592785051327160  0.6882762711310318
  0.2972319239003343  0.0368550498131778  0.1875867509889692
  0.7937720076095239  0.4982967716805197  0.6973291090226446
  0.9748787109430180  0.3906928109993535  0.1270138337967500
  0.4940627505894191  0.1315973279196517  0.6394178947286330
  0.3272559576570426  0.1618424731988938  0.2915835925839973
  0.8122682898448518  0.3646313899851220  0.7975141210696707
  0.8077688638470299  0.4616897837372717  0.1794514992150294
  0.3234238447138145  0.0962318643672480  0.7021941651389980
  0.5023441722619808  0.4879288203356366  0.9810849892003165
  0.0023441785924915  0.0120711836670638  0.4810849868122521
  0.9976558244282330  0.9879288178551918  0.9810849914872694
  0.4976558298475982  0.5120711849063111  0.4810849885500975
  0.7958928941106866  0.7105293335369601  0.5032699314851331
  0.9606598229172731  0.9944623124655482  0.2320592544955259
  0.7060293635732524  0.1956508126848427  0.9614522052702348
  0.2041070863312036  0.2894707010478275  0.0032699320500760
  0.2060293779368493  0.3043491755398582  0.4614522129329701
  0.2939706246777947  0.8043491828284943  0.4614522154174112
  0.7939706408800884  0.6956508110307111  0.9614522100061302
  0.7041071043942746  0.2105293303375289  0.5032699287679750
  0.4606598128207440  0.5055376617516696  0.7320592563212425
  0.0393401777688836  0.0055376740307987  0.7320592521911489
  0.2958929104798871  0.7894706933117497  0.0032699289927811
  0.5393401671427811  0.4944623109760681  0.2320592517272514
Cartesian
  0.0000000000000000  0.0000000000000000  0.0000000000000000
  0.0000000000000000  0.0000000000000000  0.0000000000000000
  0.0000000000000000  0.0000000000000000  0.0000000000000000
  0.0000000000000000  0.0000000000000000  0.0000000000000000
  0.0000000000000000  0.0000000000000000  0.0000000000000000
  0.0000000000000000  0.0000000000000000  0.0000000000000000
  0.0000000000000000  0.0000000000000000  0.0000000000000000
  0.0000000000000000  0.0000000000000000  0.0000000000000000
  0.0000000000000000  0.0000000000000000  0.0000000000000000
  0.0000000000000000  0.0000000000000000  0.0000000000000000
  0.0000000000000000  0.0000000000000000  0.0000000000000000
  0.0000000000000000  0.0000000000000000  0.0000000000000000
  0.0000000000000000  0.0000000000000000  0.0000000000000000
  0.0000000000000000  0.0000000000000000  0.0000000000000000
  0.0000000000000000  0.0000000000000000  0.0000000000000000
  0.0000000000000000  0.0000000000000000  0.0000000000000000
  0.0000000000000000  0.0000000000000000  0.0000000000000000
  0.0000000000000000  0.0000000000000000  0.0000000000000000
  0.0000000000000000  0.0000000000000000  0.0000000000000000
  0.0000000000000000  0.0000000000000000  0.0000000000000000
  0.0000000000000000  0.0000000000000000  0.0000000000000000
  0.0000000000000000  0.0000000000000000  0.0000000000000000
  0.0000000000000000  0.0000000000000000  0.0000000000000000
  0.0000000000000000  0.0000000000000000  0.0000000000000000
  0.0000000000000000  0.0000000000000000  0.0000000000000000
  0.0000000000000000  0.0000000000000000  0.0000000000000000
  0.0000000000000000  0.0000000000000000  0.0000000000000000
  0.0000000000000000  0.0000000000000000  0.0000000000000000
  0.0000000000000000  0.0000000000000000  0.0000000000000000
  0.0000000000000000  0.0000000000000000  0.0000000000000000
  0.0000000000000000  0.0000000000000000  0.0000000000000000
  0.0000000000000000  0.0000000000000000  0.0000000000000000
  0.0000000000000000  0.0000000000000000  0.0000000000000000
  0.0000000000000000  0.0000000000000000  0.0000000000000000
  0.0000000000000000  0.0000000000000000  0.0000000000000000
  0.0000000000000000  0.0000000000000000  0.0000000000000000
  0.0000000000000000  0.0000000000000000  0.0000000000000000
  0.0000000000000000  0.0000000000000000  0.0000000000000000
  0.0000000000000000  0.0000000000000000  0.0000000000000000
  0.0000000000000000  0.0000000000000000  0.0000000000000000
  0.0000000000000000  0.0000000000000000  0.0000000000000000
  0.0000000000000000  0.0000000000000000  0.0000000000000000
  0.0000000000000000  0.0000000000000000  0.0000000000000000
  0.0000000000000000  0.0000000000000000  0.0000000000000000
  0.0000000000000000  0.0000000000000000  0.0000000000000000
  0.0000000000000000  0.0000000000000000  0.0000000000000000
  0.0000000000000000  0.0000000000000000  0.0000000000000000
  0.0000000000000000  0.0000000000000000  0.0000000000000000
