C  N  H  Pb I                           
   1.0000000000000000     
     9.0193899931757802    0.0000000000000000    0.0000000000000000
     0.0000000000000000    8.7777678445653162    0.0000000000000000
     0.0000000000000000    0.0000000000000000   12.7961868062944486
  C               N               H               Pb              I             
     4     8    20     4    12
Direct
     0.5050460524365121    0.0406559542641602    0.2463767758149231
     0.0117718409404759    0.4553161601647844    0.7490694461668994
     0.9920729220201565    0.5398475868015780    0.2476282515901289
     0.4933177730535974    0.9577697967918510    0.7475243055104812
     0.5753219401388421    0.9335352824949510    0.1894784804927099
     0.0640233944819002    0.5564308456157931    0.6852140905259247
     0.1327512785422016    0.5863382925071079    0.2381187053042169
     0.6290180277558974    0.9147829156514646    0.7397137988547300
     0.3715328218870297    0.0817833181564893    0.2449098416128379
     0.8693750854277909    0.4127080564759638    0.7378346199148851
     0.9320219047153060    0.4362515926260002    0.1917852362804169
     0.4276852289711996    0.0632694398545794    0.6889379864071259
     0.5824817600255798    0.0939021435070941    0.3042449777925356
     0.0729877372821690    0.4126535109794034    0.8072967679478111
     0.9260754198319390    0.5970014738459639    0.3061192092507028
     0.4204776369711496    0.9000160242131159    0.8069770056345433
     0.6829997211492014    0.9166472791497782    0.1972159535156734
     0.1825323772240779    0.5856839096234552    0.7022651472342503
     0.1764567567272834    0.6550593151808215    0.2980937927831775
     0.6728762262903842    0.8376807081106747    0.7946746236632549
     0.5167493908747218    0.8823125787937656    0.1300497529854496
     0.0120858832511601    0.6189169038494029    0.6305870063843386
     0.2042881551287081    0.5342655785770489    0.1885939303090822
     0.7054319696072184    0.9590887764169480    0.6903030279434574
     0.2935161847919474    0.0376570370560145    0.1876254868583374
     0.7915610732566307    0.4647767900900419    0.6892800188659862
     0.9857092589716814    0.3802000162160155    0.1341614127592337
     0.4820891965290599    0.1166614069046901    0.6303740474099584
     0.3254278298738527    0.1672436700801114    0.2923413120124749
     0.8281946647210461    0.3355303634820999    0.7861146663950223
     0.8235087276261766    0.4169345987361410    0.1975662929372035
     0.3115562549431701    0.0808380019331949    0.7002175999559057
     0.5044721204050475    0.4875617979453608    0.9828087291232563
     0.9951446355097104    0.0181066924022915    0.4789146366603134
     0.9978193628455472    0.9853084906500484    0.9826484299247653
     0.5012762660580066    0.5153630572840200    0.4808965250632937
     0.7971577145876765    0.7077422792891639    0.5062309420938220
     0.9609438948905122    0.9979689033954102    0.2323446327069973
     0.7024640865091740    0.2002313238852622    0.9622129113390727
     0.2033647718334706    0.2905161502736036    0.0017547891614385
     0.2080597093005352    0.3067706833696491    0.4633996057366474
     0.2903503271972809    0.7979997649647075    0.4609317487350424
     0.7945820798725194    0.6941913920113976    0.9574424236944594
     0.7061418262175252    0.2127193995736718    0.5049657611710714
     0.4644419641766078    0.5036590753730721    0.7357746143410537
     0.0415479920604227    0.0033455110942811    0.7306459763764721
     0.2916232145052362    0.7879253636392178    0.0055402913534550
     0.5443212838393237    0.4960616051090909    0.2297370230885249

  0.00000000E+00  0.00000000E+00  0.00000000E+00
  0.00000000E+00  0.00000000E+00  0.00000000E+00
  0.00000000E+00  0.00000000E+00  0.00000000E+00
  0.00000000E+00  0.00000000E+00  0.00000000E+00
  0.00000000E+00  0.00000000E+00  0.00000000E+00
  0.00000000E+00  0.00000000E+00  0.00000000E+00
  0.00000000E+00  0.00000000E+00  0.00000000E+00
  0.00000000E+00  0.00000000E+00  0.00000000E+00
  0.00000000E+00  0.00000000E+00  0.00000000E+00
  0.00000000E+00  0.00000000E+00  0.00000000E+00
  0.00000000E+00  0.00000000E+00  0.00000000E+00
  0.00000000E+00  0.00000000E+00  0.00000000E+00
  0.00000000E+00  0.00000000E+00  0.00000000E+00
  0.00000000E+00  0.00000000E+00  0.00000000E+00
  0.00000000E+00  0.00000000E+00  0.00000000E+00
  0.00000000E+00  0.00000000E+00  0.00000000E+00
  0.00000000E+00  0.00000000E+00  0.00000000E+00
  0.00000000E+00  0.00000000E+00  0.00000000E+00
  0.00000000E+00  0.00000000E+00  0.00000000E+00
  0.00000000E+00  0.00000000E+00  0.00000000E+00
  0.00000000E+00  0.00000000E+00  0.00000000E+00
  0.00000000E+00  0.00000000E+00  0.00000000E+00
  0.00000000E+00  0.00000000E+00  0.00000000E+00
  0.00000000E+00  0.00000000E+00  0.00000000E+00
  0.00000000E+00  0.00000000E+00  0.00000000E+00
  0.00000000E+00  0.00000000E+00  0.00000000E+00
  0.00000000E+00  0.00000000E+00  0.00000000E+00
  0.00000000E+00  0.00000000E+00  0.00000000E+00
  0.00000000E+00  0.00000000E+00  0.00000000E+00
  0.00000000E+00  0.00000000E+00  0.00000000E+00
  0.00000000E+00  0.00000000E+00  0.00000000E+00
  0.00000000E+00  0.00000000E+00  0.00000000E+00
  0.00000000E+00  0.00000000E+00  0.00000000E+00
  0.00000000E+00  0.00000000E+00  0.00000000E+00
  0.00000000E+00  0.00000000E+00  0.00000000E+00
  0.00000000E+00  0.00000000E+00  0.00000000E+00
  0.00000000E+00  0.00000000E+00  0.00000000E+00
  0.00000000E+00  0.00000000E+00  0.00000000E+00
  0.00000000E+00  0.00000000E+00  0.00000000E+00
  0.00000000E+00  0.00000000E+00  0.00000000E+00
  0.00000000E+00  0.00000000E+00  0.00000000E+00
  0.00000000E+00  0.00000000E+00  0.00000000E+00
  0.00000000E+00  0.00000000E+00  0.00000000E+00
  0.00000000E+00  0.00000000E+00  0.00000000E+00
  0.00000000E+00  0.00000000E+00  0.00000000E+00
  0.00000000E+00  0.00000000E+00  0.00000000E+00
  0.00000000E+00  0.00000000E+00  0.00000000E+00
  0.00000000E+00  0.00000000E+00  0.00000000E+00
