C  N  H  Pb I 
 1.0000000000000000
     9.0193899931757802    0.0000000000000000    0.0000000000000000
     0.0000000000000000    8.7777678445653162    0.0000000000000000
     0.0000000000000000    0.0000000000000000   12.7961868062944486
 C   N   H   Pb  I  
   4   8  20   4  12
Direct
  0.5050460524365132  0.0406559542641573  0.2463767758149228
  0.0117718409404767  0.4553161601647822  0.7490694461668963
  0.9920729220201551  0.5398475868015790  0.2476282515901285
  0.4933177730535966  0.9577697967918529  0.7475243055104813
  0.5753219401388436  0.9335352824949511  0.1894784804927086
  0.0640233944819019  0.5564308456157916  0.6852140905259234
  0.1327512785421991  0.5863382925071071  0.2381187053042183
  0.6290180277558957  0.9147829156514631  0.7397137988547290
  0.3715328218870263  0.0817833181564916  0.2449098416128368
  0.8693750854277884  0.4127080564759608  0.7378346199148867
  0.9320219047153043  0.4362515926259993  0.1917852362804152
  0.4276852289711984  0.0632694398545818  0.6889379864071259
  0.5824817600255829  0.0939021435070910  0.3042449777925366
  0.0729877372821681  0.4126535109794057  0.8072967679478132
  0.9260754198319359  0.5970014738459639  0.3061192092507059
  0.4204776369711469  0.9000160242131144  0.8069770056345436
  0.6829997211491994  0.9166472791497779  0.1972159535156741
  0.1825323772240761  0.5856839096234527  0.7022651472342470
  0.1764567567272851  0.6550593151808246  0.2980937927831765
  0.6728762262903831  0.8376807081106772  0.7946746236632544
  0.5167493908747227  0.8823125787937633  0.1300497529854484
  0.0120858832511601  0.6189169038494003  0.6305870063843354
  0.2042881551287052  0.5342655785770497  0.1885939303090794
  0.7054319696072214  0.9590887764169457  0.6903030279434588
  0.2935161847919479  0.0376570370560139  0.1876254868583375
  0.7915610732566321  0.4647767900900420  0.6892800188659846
  0.9857092589716820  0.3802000162160159  0.1341614127592305
  0.4820891965290623  0.1166614069046931  0.6303740474099603
  0.3254278298738557  0.1672436700801088  0.2923413120124726
  0.8281946647210426  0.3355303634820998  0.7861146663950219
  0.8235087276261793  0.4169345987361391  0.1975662929372015
  0.3115562549431728  0.0808380019331963  0.7002175999559056
  0.5044721204050495  0.4875617979453591  0.9828087291232532
  0.9951446355097138  0.0181066924022889  0.4789146366603101
  0.9978193628455491  0.9853084906500500  0.9826484299247631
  0.5012762660580066  0.5153630572840203  0.4808965250632946
  0.7971577145876769  0.7077422792891604  0.5062309420938196
  0.9609438948905139  0.9979689033954096  0.2323446327070003
  0.7024640865091767  0.2002313238852589  0.9622129113390718
  0.2033647718334730  0.2905161502736045  0.0017547891614394
  0.2080597093005377  0.3067706833696525  0.4633996057366470
  0.2903503271972788  0.7979997649647084  0.4609317487350438
  0.7945820798725211  0.6941913920113996  0.9574424236944611
  0.7061418262175267  0.2127193995736709  0.5049657611710713
  0.4644419641766080  0.5036590753730744  0.7357746143410532
  0.0415479920604223  0.0033455110942805  0.7306459763764716
  0.2916232145052393  0.7879253636392195  0.0055402913534563
  0.5443212838393218  0.4960616051090916  0.2297370230885270
Cartesian
  0.0000000000000000  0.0000000000000000  0.0000000000000000
  0.0000000000000000  0.0000000000000000  0.0000000000000000
  0.0000000000000000  0.0000000000000000  0.0000000000000000
  0.0000000000000000  0.0000000000000000  0.0000000000000000
  0.0000000000000000  0.0000000000000000  0.0000000000000000
  0.0000000000000000  0.0000000000000000  0.0000000000000000
  0.0000000000000000  0.0000000000000000  0.0000000000000000
  0.0000000000000000  0.0000000000000000  0.0000000000000000
  0.0000000000000000  0.0000000000000000  0.0000000000000000
  0.0000000000000000  0.0000000000000000  0.0000000000000000
  0.0000000000000000  0.0000000000000000  0.0000000000000000
  0.0000000000000000  0.0000000000000000  0.0000000000000000
  0.0000000000000000  0.0000000000000000  0.0000000000000000
  0.0000000000000000  0.0000000000000000  0.0000000000000000
  0.0000000000000000  0.0000000000000000  0.0000000000000000
  0.0000000000000000  0.0000000000000000  0.0000000000000000
  0.0000000000000000  0.0000000000000000  0.0000000000000000
  0.0000000000000000  0.0000000000000000  0.0000000000000000
  0.0000000000000000  0.0000000000000000  0.0000000000000000
  0.0000000000000000  0.0000000000000000  0.0000000000000000
  0.0000000000000000  0.0000000000000000  0.0000000000000000
  0.0000000000000000  0.0000000000000000  0.0000000000000000
  0.0000000000000000  0.0000000000000000  0.0000000000000000
  0.0000000000000000  0.0000000000000000  0.0000000000000000
  0.0000000000000000  0.0000000000000000  0.0000000000000000
  0.0000000000000000  0.0000000000000000  0.0000000000000000
  0.0000000000000000  0.0000000000000000  0.0000000000000000
  0.0000000000000000  0.0000000000000000  0.0000000000000000
  0.0000000000000000  0.0000000000000000  0.0000000000000000
  0.0000000000000000  0.0000000000000000  0.0000000000000000
  0.0000000000000000  0.0000000000000000  0.0000000000000000
  0.0000000000000000  0.0000000000000000  0.0000000000000000
  0.0000000000000000  0.0000000000000000  0.0000000000000000
  0.0000000000000000  0.0000000000000000  0.0000000000000000
  0.0000000000000000  0.0000000000000000  0.0000000000000000
  0.0000000000000000  0.0000000000000000  0.0000000000000000
  0.0000000000000000  0.0000000000000000  0.0000000000000000
  0.0000000000000000  0.0000000000000000  0.0000000000000000
  0.0000000000000000  0.0000000000000000  0.0000000000000000
  0.0000000000000000  0.0000000000000000  0.0000000000000000
  0.0000000000000000  0.0000000000000000  0.0000000000000000
  0.0000000000000000  0.0000000000000000  0.0000000000000000
  0.0000000000000000  0.0000000000000000  0.0000000000000000
  0.0000000000000000  0.0000000000000000  0.0000000000000000
  0.0000000000000000  0.0000000000000000  0.0000000000000000
  0.0000000000000000  0.0000000000000000  0.0000000000000000
  0.0000000000000000  0.0000000000000000  0.0000000000000000
  0.0000000000000000  0.0000000000000000  0.0000000000000000
