C  N  H  Pb I                           
   1.0000000000000000     
     9.0193899931757802    0.0000000000000000    0.0000000000000000
     0.0000000000000000    8.7777678445653162    0.0000000000000000
     0.0000000000000000    0.0000000000000000   12.7961868062944486
  C               N               H               Pb              I             
     4     8    20     4    12
Direct
     0.5095623094821349    0.0372633091086385    0.2480367745987593
     0.0079545554343809    0.4593040156808073    0.7475946208954554
     0.9877392038496495    0.5424441797247681    0.2437733208598800
     0.4920454478785175    0.9593040127881096    0.7475946256013870
     0.5656743424168056    0.9346076768307654    0.1848799490861524
     0.0705946740239369    0.5645637727658510    0.6897252201605895
     0.1266157563168164    0.5871349241763610    0.2472675828025075
     0.6310336640152769    0.9161005167449332    0.7399588856927721
     0.3725331032818389    0.0875985939971073    0.2444259108620912
     0.8689663414621833    0.4161005194902572    0.7399588873068410
     0.9374318900013137    0.4307351877635739    0.1856142720178795
     0.4294053329446612    0.0645637684645806    0.6897252229388684
     0.5820434344828982    0.0841793490218876    0.3086118503095676
     0.0763163041439370    0.4035986538439502    0.8070350065760294
     0.9082837562430939    0.6026689770130389    0.2934917709687852
     0.4236837047439721    0.9035986570811900    0.8070350168177995
     0.6758625214841487    0.9085560871041807    0.1906821179572447
     0.1816203953774504    0.5846650008662735    0.6981420678013563
     0.1575651615284244    0.6706310629498802    0.2985678419972899
     0.6727440483713281    0.8381575300147404    0.7915835946568777
     0.5047148863928399    0.8872664210379142    0.1256457784764322
     0.0137159530701183    0.6200135182310191    0.6317994618654623
     0.2080059073678768    0.5362968823580871    0.2044475235907015
     0.7027680811919126    0.9631449364772280    0.6875867437071861
     0.2972779574661573    0.0488358029244864    0.1913211107828516
     0.7972319185576211    0.4631449498156996    0.6875867489999621
     0.0052182792933309    0.3707202913391257    0.1363011009457509
     0.4862840485959765    0.1200135117898071    0.6317994631872494
     0.3358933537837174    0.1625966082438595    0.2998734233205340
     0.8272559591671822    0.3381575261065066    0.7915835908767335
     0.8259525438475848    0.4096378022121385    0.1844367214312754
     0.3183796102733396    0.0846649986020438    0.6981420736952373
     0.5023441722619779    0.4879288203356396    0.9810849892003191
     0.0023441785924945    0.0120711836670608    0.4810849868122489
     0.9976558244282359    0.9879288178551917    0.9810849914872719
     0.4976558298475950    0.5120711849063113    0.4810849885500943
     0.7958928941106862    0.7105293335369609    0.5032699314851357
     0.9606598229172718    0.9944623124655507    0.2320592544955247
     0.7060293635732506    0.1956508126848462    0.9614522052702341
     0.2041070863312058    0.2894707010478257    0.0032699320500740
     0.2060293779368507    0.3043491755398549    0.4614522129329686
     0.2939706246777973    0.8043491828284957    0.4614522154174097
     0.7939706408800902    0.6956508110307098    0.9614522100061293
     0.7041071043942750    0.2105293303375291    0.5032699287679776
     0.4606598128207438    0.5055376617516671    0.7320592563212429
     0.0393401777688851    0.0055376740307977    0.7320592521911493
     0.2958929104798855    0.7894706933117490    0.0032699289927791
     0.5393401671427824    0.4944623109760684    0.2320592517272502

  0.00000000E+00  0.00000000E+00  0.00000000E+00
  0.00000000E+00  0.00000000E+00  0.00000000E+00
  0.00000000E+00  0.00000000E+00  0.00000000E+00
  0.00000000E+00  0.00000000E+00  0.00000000E+00
  0.00000000E+00  0.00000000E+00  0.00000000E+00
  0.00000000E+00  0.00000000E+00  0.00000000E+00
  0.00000000E+00  0.00000000E+00  0.00000000E+00
  0.00000000E+00  0.00000000E+00  0.00000000E+00
  0.00000000E+00  0.00000000E+00  0.00000000E+00
  0.00000000E+00  0.00000000E+00  0.00000000E+00
  0.00000000E+00  0.00000000E+00  0.00000000E+00
  0.00000000E+00  0.00000000E+00  0.00000000E+00
  0.00000000E+00  0.00000000E+00  0.00000000E+00
  0.00000000E+00  0.00000000E+00  0.00000000E+00
  0.00000000E+00  0.00000000E+00  0.00000000E+00
  0.00000000E+00  0.00000000E+00  0.00000000E+00
  0.00000000E+00  0.00000000E+00  0.00000000E+00
  0.00000000E+00  0.00000000E+00  0.00000000E+00
  0.00000000E+00  0.00000000E+00  0.00000000E+00
  0.00000000E+00  0.00000000E+00  0.00000000E+00
  0.00000000E+00  0.00000000E+00  0.00000000E+00
  0.00000000E+00  0.00000000E+00  0.00000000E+00
  0.00000000E+00  0.00000000E+00  0.00000000E+00
  0.00000000E+00  0.00000000E+00  0.00000000E+00
  0.00000000E+00  0.00000000E+00  0.00000000E+00
  0.00000000E+00  0.00000000E+00  0.00000000E+00
  0.00000000E+00  0.00000000E+00  0.00000000E+00
  0.00000000E+00  0.00000000E+00  0.00000000E+00
  0.00000000E+00  0.00000000E+00  0.00000000E+00
  0.00000000E+00  0.00000000E+00  0.00000000E+00
  0.00000000E+00  0.00000000E+00  0.00000000E+00
  0.00000000E+00  0.00000000E+00  0.00000000E+00
  0.00000000E+00  0.00000000E+00  0.00000000E+00
  0.00000000E+00  0.00000000E+00  0.00000000E+00
  0.00000000E+00  0.00000000E+00  0.00000000E+00
  0.00000000E+00  0.00000000E+00  0.00000000E+00
  0.00000000E+00  0.00000000E+00  0.00000000E+00
  0.00000000E+00  0.00000000E+00  0.00000000E+00
  0.00000000E+00  0.00000000E+00  0.00000000E+00
  0.00000000E+00  0.00000000E+00  0.00000000E+00
  0.00000000E+00  0.00000000E+00  0.00000000E+00
  0.00000000E+00  0.00000000E+00  0.00000000E+00
  0.00000000E+00  0.00000000E+00  0.00000000E+00
  0.00000000E+00  0.00000000E+00  0.00000000E+00
  0.00000000E+00  0.00000000E+00  0.00000000E+00
  0.00000000E+00  0.00000000E+00  0.00000000E+00
  0.00000000E+00  0.00000000E+00  0.00000000E+00
  0.00000000E+00  0.00000000E+00  0.00000000E+00
