C  N  H  Pb I                           
   1.0000000000000000     
     8.9220450773716973    0.0639996053161156   -0.0070575934188204
     0.0622851077549278    8.8645189052533180   -0.0616762647747116
    -0.0100129037394358   -0.0899113555458552   12.7973762814419452
  C               N               H               Pb              I             
     4     8    20     4    12
Direct
     0.5107752793822442    0.0396852056910006    0.2512691542721868
     0.9936773415873290    0.4504804741767146    0.7483632022634552
     0.9967841903569479    0.5538721128788211    0.2403105785498028
     0.4892891351764632    0.9653185812231371    0.7474858300347762
     0.5700348368530896    0.9361315825857304    0.1877663451069793
     0.0955096600729917    0.4905940270054643    0.6771678334740230
     0.1291536929574448    0.5810202544336818    0.2279582475974422
     0.6281874154101885    0.9207716149967311    0.7409680923941764
     0.3716628051043571    0.0823640600445117    0.2368430558947310
     0.8588046483970828    0.5040536949893237    0.7546189084218042
     0.9297580008473929    0.4239800954353115    0.2065404474158328
     0.4304329502018334    0.0600072012923860    0.6879981462165148
     0.5760834201629805    0.0989433118968535    0.3052955855786976
     0.0241878164095866    0.3620457940142927    0.8048787639496382
     0.9274429596944316    0.6292133078116890    0.2961399983826425
     0.4181905622757895    0.9006444366379753    0.8072432438585864
     0.6889892205436396    0.9166346508144585    0.2000179604050558
     0.1948456056136081    0.4224139362192219    0.6713582927460422
     0.1779725582947123    0.6756892858519663    0.2644075653102647
     0.6688661195912147    0.8350326519039228    0.7894934589534870
     0.5171503218978373    0.8756297709733332    0.1308788039553974
     0.0746664699861341    0.5592854859308076    0.6213626577010700
     0.1933319748169282    0.5168115132437592    0.1867404545939237
     0.7033522893348092    0.9655568597122652    0.6931527527604473
     0.2944954797974333    0.0330852287326096    0.1871012806389416
     0.8197678143681344    0.5804801250194842    0.7028215109286577
     0.9821224970064790    0.3567636370864875    0.1596326304868185
     0.4845745702288724    0.1197774470095965    0.6326386273191247
     0.3279843540250553    0.1605458922354686    0.2892349523528779
     0.7952872191638960    0.4785438462639178    0.8178692154982699
     0.8165550050752088    0.4113409715083591    0.2135895850842573
     0.3185016157907015    0.0853382810064929    0.7000158279929209
     0.4988908968260901    0.4827696041431153    0.9778581172178136
     0.9952029313282864    0.0081311279939555    0.4848261931353406
     0.9969338159052796    0.9847007102571936    0.9828790497723503
     0.4963507821391389    0.5119181694617367    0.4829068327796335
     0.7960424982369645    0.7101815640478009    0.5043394601335294
     0.9587545922995773    0.9947384654609763    0.2332564879575472
     0.7094219901192602    0.1965024851466879    0.9607030939310164
     0.2018585093216032    0.2889174196894118    0.0025942475618521
     0.2059423074701456    0.3017628024481169    0.4599784574403074
     0.2965899580547031    0.8068697935548812    0.4603424581263980
     0.7958907807530125    0.6918782365306058    0.9601383495368196
     0.7020636335797619    0.2114534782552937    0.5043468348996143
     0.4572993010179403    0.5017706932393367    0.7304176968421103
     0.0371209740885590    0.0107235394166878    0.7339721641488808
     0.2922237994739874    0.7841601994972933    0.0014818285472558
     0.5376502422983549    0.4975554086017340    0.2323005062596764

  0.00000000E+00  0.00000000E+00  0.00000000E+00
  0.00000000E+00  0.00000000E+00  0.00000000E+00
  0.00000000E+00  0.00000000E+00  0.00000000E+00
  0.00000000E+00  0.00000000E+00  0.00000000E+00
  0.00000000E+00  0.00000000E+00  0.00000000E+00
  0.00000000E+00  0.00000000E+00  0.00000000E+00
  0.00000000E+00  0.00000000E+00  0.00000000E+00
  0.00000000E+00  0.00000000E+00  0.00000000E+00
  0.00000000E+00  0.00000000E+00  0.00000000E+00
  0.00000000E+00  0.00000000E+00  0.00000000E+00
  0.00000000E+00  0.00000000E+00  0.00000000E+00
  0.00000000E+00  0.00000000E+00  0.00000000E+00
  0.00000000E+00  0.00000000E+00  0.00000000E+00
  0.00000000E+00  0.00000000E+00  0.00000000E+00
  0.00000000E+00  0.00000000E+00  0.00000000E+00
  0.00000000E+00  0.00000000E+00  0.00000000E+00
  0.00000000E+00  0.00000000E+00  0.00000000E+00
  0.00000000E+00  0.00000000E+00  0.00000000E+00
  0.00000000E+00  0.00000000E+00  0.00000000E+00
  0.00000000E+00  0.00000000E+00  0.00000000E+00
  0.00000000E+00  0.00000000E+00  0.00000000E+00
  0.00000000E+00  0.00000000E+00  0.00000000E+00
  0.00000000E+00  0.00000000E+00  0.00000000E+00
  0.00000000E+00  0.00000000E+00  0.00000000E+00
  0.00000000E+00  0.00000000E+00  0.00000000E+00
  0.00000000E+00  0.00000000E+00  0.00000000E+00
  0.00000000E+00  0.00000000E+00  0.00000000E+00
  0.00000000E+00  0.00000000E+00  0.00000000E+00
  0.00000000E+00  0.00000000E+00  0.00000000E+00
  0.00000000E+00  0.00000000E+00  0.00000000E+00
  0.00000000E+00  0.00000000E+00  0.00000000E+00
  0.00000000E+00  0.00000000E+00  0.00000000E+00
  0.00000000E+00  0.00000000E+00  0.00000000E+00
  0.00000000E+00  0.00000000E+00  0.00000000E+00
  0.00000000E+00  0.00000000E+00  0.00000000E+00
  0.00000000E+00  0.00000000E+00  0.00000000E+00
  0.00000000E+00  0.00000000E+00  0.00000000E+00
  0.00000000E+00  0.00000000E+00  0.00000000E+00
  0.00000000E+00  0.00000000E+00  0.00000000E+00
  0.00000000E+00  0.00000000E+00  0.00000000E+00
  0.00000000E+00  0.00000000E+00  0.00000000E+00
  0.00000000E+00  0.00000000E+00  0.00000000E+00
  0.00000000E+00  0.00000000E+00  0.00000000E+00
  0.00000000E+00  0.00000000E+00  0.00000000E+00
  0.00000000E+00  0.00000000E+00  0.00000000E+00
  0.00000000E+00  0.00000000E+00  0.00000000E+00
  0.00000000E+00  0.00000000E+00  0.00000000E+00
  0.00000000E+00  0.00000000E+00  0.00000000E+00
