C  N  H  Pb I 
 1.0000000000000000
     8.9220450773716973    0.0639996053161156   -0.0070575934188204
     0.0622851077549278    8.8645189052533180   -0.0616762647747116
    -0.0100129037394358   -0.0899113555458552   12.7973762814419452
 C   N   H   Pb  I  
   4   8  20   4  12
Direct
  0.5107752793822454  0.0396852056909973  0.2512691542721834
  0.9936773415873256  0.4504804741767162  0.7483632022634581
  0.9967841903569507  0.5538721128788185  0.2403105785498013
  0.4892891351764646  0.9653185812231384  0.7474858300347754
  0.5700348368530913  0.9361315825857328  0.1877663451069814
  0.0955096600729947  0.4905940270054623  0.6771678334740225
  0.1291536929574469  0.5810202544336827  0.2279582475974437
  0.6281874154101894  0.9207716149967334  0.7409680923941796
  0.3716628051043579  0.0823640600445114  0.2368430558947280
  0.8588046483970798  0.5040536949893213  0.7546189084218077
  0.9297580008473919  0.4239800954353105  0.2065404474158353
  0.4304329502018318  0.0600072012923864  0.6879981462165136
  0.5760834201629835  0.0989433118968535  0.3052955855786961
  0.0241878164095873  0.3620457940142929  0.8048787639496403
  0.9274429596944284  0.6292133078116882  0.2961399983826433
  0.4181905622757928  0.9006444366379789  0.8072432438585893
  0.6889892205436369  0.9166346508144558  0.2000179604050534
  0.1948456056136105  0.4224139362192246  0.6713582927460426
  0.1779725582947136  0.6756892858519657  0.2644075653102680
  0.6688661195912112  0.8350326519039253  0.7894934589534847
  0.5171503218978366  0.8756297709733311  0.1308788039554009
  0.0746664699861317  0.5592854859308097  0.6213626577010698
  0.1933319748169314  0.5168115132437592  0.1867404545939216
  0.7033522893348119  0.9655568597122650  0.6931527527604442
  0.2944954797974366  0.0330852287326093  0.1871012806389391
  0.8197678143681310  0.5804801250194818  0.7028215109286569
  0.9821224970064761  0.3567636370864895  0.1596326304868177
  0.4845745702288689  0.1197774470095934  0.6326386273191240
  0.3279843540250572  0.1605458922354713  0.2892349523528765
  0.7952872191638936  0.4785438462639193  0.8178692154982665
  0.8165550050752065  0.4113409715083584  0.2135895850842601
  0.3185016157907029  0.0853382810064898  0.7000158279929206
  0.4988908968260882  0.4827696041431161  0.9778581172178160
  0.9952029313282842  0.0081311279939527  0.4848261931353380
  0.9969338159052827  0.9847007102571911  0.9828790497723487
  0.4963507821391386  0.5119181694617332  0.4829068327796301
  0.7960424982369655  0.7101815640478025  0.5043394601335293
  0.9587545922995767  0.9947384654609752  0.2332564879575454
  0.7094219901192605  0.1965024851466906  0.9607030939310173
  0.2018585093216014  0.2889174196894095  0.0025942475618537
  0.2059423074701460  0.3017628024481196  0.4599784574403080
  0.2965899580547030  0.8068697935548832  0.4603424581263945
  0.7958907807530122  0.6918782365306071  0.9601383495368208
  0.7020636335797630  0.2114534782552910  0.5043468348996145
  0.4572993010179402  0.5017706932393344  0.7304176968421094
  0.0371209740885620  0.0107235394166858  0.7339721641488796
  0.2922237994739881  0.7841601994972952  0.0014818285472571
  0.5376502422983584  0.4975554086017319  0.2323005062596767
Cartesian
  0.0000000000000000  0.0000000000000000  0.0000000000000000
  0.0000000000000000  0.0000000000000000  0.0000000000000000
  0.0000000000000000  0.0000000000000000  0.0000000000000000
  0.0000000000000000  0.0000000000000000  0.0000000000000000
  0.0000000000000000  0.0000000000000000  0.0000000000000000
  0.0000000000000000  0.0000000000000000  0.0000000000000000
  0.0000000000000000  0.0000000000000000  0.0000000000000000
  0.0000000000000000  0.0000000000000000  0.0000000000000000
  0.0000000000000000  0.0000000000000000  0.0000000000000000
  0.0000000000000000  0.0000000000000000  0.0000000000000000
  0.0000000000000000  0.0000000000000000  0.0000000000000000
  0.0000000000000000  0.0000000000000000  0.0000000000000000
  0.0000000000000000  0.0000000000000000  0.0000000000000000
  0.0000000000000000  0.0000000000000000  0.0000000000000000
  0.0000000000000000  0.0000000000000000  0.0000000000000000
  0.0000000000000000  0.0000000000000000  0.0000000000000000
  0.0000000000000000  0.0000000000000000  0.0000000000000000
  0.0000000000000000  0.0000000000000000  0.0000000000000000
  0.0000000000000000  0.0000000000000000  0.0000000000000000
  0.0000000000000000  0.0000000000000000  0.0000000000000000
  0.0000000000000000  0.0000000000000000  0.0000000000000000
  0.0000000000000000  0.0000000000000000  0.0000000000000000
  0.0000000000000000  0.0000000000000000  0.0000000000000000
  0.0000000000000000  0.0000000000000000  0.0000000000000000
  0.0000000000000000  0.0000000000000000  0.0000000000000000
  0.0000000000000000  0.0000000000000000  0.0000000000000000
  0.0000000000000000  0.0000000000000000  0.0000000000000000
  0.0000000000000000  0.0000000000000000  0.0000000000000000
  0.0000000000000000  0.0000000000000000  0.0000000000000000
  0.0000000000000000  0.0000000000000000  0.0000000000000000
  0.0000000000000000  0.0000000000000000  0.0000000000000000
  0.0000000000000000  0.0000000000000000  0.0000000000000000
  0.0000000000000000  0.0000000000000000  0.0000000000000000
  0.0000000000000000  0.0000000000000000  0.0000000000000000
  0.0000000000000000  0.0000000000000000  0.0000000000000000
  0.0000000000000000  0.0000000000000000  0.0000000000000000
  0.0000000000000000  0.0000000000000000  0.0000000000000000
  0.0000000000000000  0.0000000000000000  0.0000000000000000
  0.0000000000000000  0.0000000000000000  0.0000000000000000
  0.0000000000000000  0.0000000000000000  0.0000000000000000
  0.0000000000000000  0.0000000000000000  0.0000000000000000
  0.0000000000000000  0.0000000000000000  0.0000000000000000
  0.0000000000000000  0.0000000000000000  0.0000000000000000
  0.0000000000000000  0.0000000000000000  0.0000000000000000
  0.0000000000000000  0.0000000000000000  0.0000000000000000
  0.0000000000000000  0.0000000000000000  0.0000000000000000
  0.0000000000000000  0.0000000000000000  0.0000000000000000
  0.0000000000000000  0.0000000000000000  0.0000000000000000
