C  N  H  Pb I                           
   1.0000000000000000     
     8.9515839677080429    0.0000000000000000    0.0000000000000000
     0.0000000000000000    8.9515839677080429    0.0000000000000000
     0.0000000000000000    0.0000000000000000    6.3289724258144924
  C               N               H               Pb              I             
     2     4    10     2     6
Direct
     0.4998157853641985    0.4898754958600975    0.5814952169516516
     0.9914970602407536    0.9974338928424729    0.5719776199711433
     0.5911999315916390    0.6004983145865666    0.4667927604670936
     0.4007606537891633    0.4131245648600483    0.4686621912053965
     0.0832487250252782    0.9026496566786903    0.4770882863312877
     0.9152798709687815    0.0886763330678662    0.4982313334604456
     0.4878134401392202    0.4963904933925534    0.7408109050317080
     0.6557358273026210    0.6690691086349787    0.5498348026721729
     0.6055405781568624    0.5943164229150923    0.3051322202585638
     0.4038731378114804    0.3949354753664878    0.3181160543108206
     0.3394296651719131    0.3411588640326499    0.5512044049197655
     0.9966225710622751    0.9876964900672789    0.7268069340597947
     0.1597764039191816    0.8415595408647647    0.5455233305021707
     0.0958806490137079    0.8977953847202471    0.3164127534132462
     0.9094058170804828    0.1024492827986307    0.3090243280437477
     0.8350875682992793    0.1482014902913278    0.5613814074975423
     0.0039018842612037    0.5024968043923650    0.9890832394657352
     0.5075005675736080    0.0084711523480721    0.9993050573032249
     0.0008541362900729    0.4953444702561995    0.5009907567756784
     0.4976164093687174    0.9997098358257333    0.4908810863851372
     0.2098518653814665    0.2157072395548667    0.9984116494569122
     0.2862354832076335    0.7085578837312312    0.9761624038853043
     0.7140339986227460    0.2924856248601557    0.9778101708445348
     0.7800227184877571    0.7750319270135790    0.9671447577029824

  0.00000000E+00  0.00000000E+00  0.00000000E+00
  0.00000000E+00  0.00000000E+00  0.00000000E+00
  0.00000000E+00  0.00000000E+00  0.00000000E+00
  0.00000000E+00  0.00000000E+00  0.00000000E+00
  0.00000000E+00  0.00000000E+00  0.00000000E+00
  0.00000000E+00  0.00000000E+00  0.00000000E+00
  0.00000000E+00  0.00000000E+00  0.00000000E+00
  0.00000000E+00  0.00000000E+00  0.00000000E+00
  0.00000000E+00  0.00000000E+00  0.00000000E+00
  0.00000000E+00  0.00000000E+00  0.00000000E+00
  0.00000000E+00  0.00000000E+00  0.00000000E+00
  0.00000000E+00  0.00000000E+00  0.00000000E+00
  0.00000000E+00  0.00000000E+00  0.00000000E+00
  0.00000000E+00  0.00000000E+00  0.00000000E+00
  0.00000000E+00  0.00000000E+00  0.00000000E+00
  0.00000000E+00  0.00000000E+00  0.00000000E+00
  0.00000000E+00  0.00000000E+00  0.00000000E+00
  0.00000000E+00  0.00000000E+00  0.00000000E+00
  0.00000000E+00  0.00000000E+00  0.00000000E+00
  0.00000000E+00  0.00000000E+00  0.00000000E+00
  0.00000000E+00  0.00000000E+00  0.00000000E+00
  0.00000000E+00  0.00000000E+00  0.00000000E+00
  0.00000000E+00  0.00000000E+00  0.00000000E+00
  0.00000000E+00  0.00000000E+00  0.00000000E+00
