C  N  H  Pb I 
 1.0000000000000000
     8.9515839677080429    0.0000000000000000    0.0000000000000000
     0.0000000000000000    8.9515839677080429    0.0000000000000000
     0.0000000000000000    0.0000000000000000    6.3289724258144924
 C   N   H   Pb  I  
   2   4  10   2   6
Direct
  0.4998157853642007  0.4898754958600991  0.5814952169516487
  0.9914970602407510  0.9974338928424717  0.5719776199711440
  0.5911999315916394  0.6004983145865679  0.4667927604670928
  0.4007606537891630  0.4131245648600498  0.4686621912053987
  0.0832487250252799  0.9026496566786896  0.4770882863312867
  0.9152798709687840  0.0886763330678627  0.4982313334604465
  0.4878134401392192  0.4963904933925504  0.7408109050317050
  0.6557358273026213  0.6690691086349784  0.5498348026721717
  0.6055405781568649  0.5943164229150920  0.3051322202585628
  0.4038731378114790  0.3949354753664912  0.3181160543108192
  0.3394296651719139  0.3411588640326484  0.5512044049197652
  0.9966225710622756  0.9876964900672786  0.7268069340597944
  0.1597764039191834  0.8415595408647641  0.5455233305021736
  0.0958806490137094  0.8977953847202496  0.3164127534132471
  0.9094058170804848  0.1024492827986281  0.3090243280437500
  0.8350875682992825  0.1482014902913245  0.5613814074975453
  0.0039018842612043  0.5024968043923662  0.9890832394657362
  0.5075005675736052  0.0084711523480719  0.9993050573032228
  0.0008541362900739  0.4953444702562026  0.5009907567756798
  0.4976164093687198  0.9997098358257366  0.4908810863851338
  0.2098518653814692  0.2157072395548655  0.9984116494569115
  0.2862354832076335  0.7085578837312299  0.9761624038853032
  0.7140339986227434  0.2924856248601562  0.9778101708445336
  0.7800227184877586  0.7750319270135806  0.9671447577029801
Cartesian
  0.0000000000000000  0.0000000000000000  0.0000000000000000
  0.0000000000000000  0.0000000000000000  0.0000000000000000
  0.0000000000000000  0.0000000000000000  0.0000000000000000
  0.0000000000000000  0.0000000000000000  0.0000000000000000
  0.0000000000000000  0.0000000000000000  0.0000000000000000
  0.0000000000000000  0.0000000000000000  0.0000000000000000
  0.0000000000000000  0.0000000000000000  0.0000000000000000
  0.0000000000000000  0.0000000000000000  0.0000000000000000
  0.0000000000000000  0.0000000000000000  0.0000000000000000
  0.0000000000000000  0.0000000000000000  0.0000000000000000
  0.0000000000000000  0.0000000000000000  0.0000000000000000
  0.0000000000000000  0.0000000000000000  0.0000000000000000
  0.0000000000000000  0.0000000000000000  0.0000000000000000
  0.0000000000000000  0.0000000000000000  0.0000000000000000
  0.0000000000000000  0.0000000000000000  0.0000000000000000
  0.0000000000000000  0.0000000000000000  0.0000000000000000
  0.0000000000000000  0.0000000000000000  0.0000000000000000
  0.0000000000000000  0.0000000000000000  0.0000000000000000
  0.0000000000000000  0.0000000000000000  0.0000000000000000
  0.0000000000000000  0.0000000000000000  0.0000000000000000
  0.0000000000000000  0.0000000000000000  0.0000000000000000
  0.0000000000000000  0.0000000000000000  0.0000000000000000
  0.0000000000000000  0.0000000000000000  0.0000000000000000
  0.0000000000000000  0.0000000000000000  0.0000000000000000
