C  N  H  Pb I                           
   1.0000000000000000     
     8.9515839677080429    0.0000000000000000    0.0000000000000000
     0.0000000000000000    8.9515839677080429    0.0000000000000000
     0.0000000000000000    0.0000000000000000    6.3289724258144924
  C               N               H               Pb              I             
     2     4    10     2     6
Direct
     0.4990956888929290    0.4959365186780218    0.5906202851164863
     0.9973014949332679    0.9967602158784885    0.5645673945229817
     0.5896735513001303    0.5903805789987970    0.4786976754426533
     0.3993531676670727    0.4158872949761232    0.4870231587374576
     0.0899242319163989    0.9126273590295284    0.4823607430438344
     0.9057664254714766    0.0943850714711516    0.4740017363302371
     0.4977679968045763    0.5037608827775557    0.7400323448158659
     0.6676152177041104    0.6552050848564761    0.5554066820923111
     0.6106309235834857    0.6006954129524331    0.3226504887582209
     0.3949786492431926    0.3816502958244001    0.3179143716927229
     0.3477222639986621    0.3468781958225691    0.5729831818918569
     0.9848314757589662    0.0050884663466277    0.7369133551901328
     0.1624798804170453    0.8360733773695515    0.5623781045368688
     0.0960522691137342    0.8976208859952521    0.3104738646618372
     0.8896067833436234    0.1005805402366065    0.3078977835540684
     0.8414019490413054    0.1470371403681980    0.5558410858488685
     0.9985733156803036    0.5050462142202150    0.9765988121184677
     0.5080886118919281    0.9927401134528608    0.9952337659635262
     0.9955070958247560    0.5063432990051879    0.4929288563891916
     0.5049089830455600    0.9995413611313708    0.4892191662452348
     0.2177500008022051    0.2187315891273798    0.9789621558050570
     0.2842659488918002    0.7298326412630232    0.9924128139850055
     0.7170874649736518    0.2793461716628016    0.9843161713576691
     0.7905974148070740    0.7833056365926865    0.0071303741078736

  0.00000000E+00  0.00000000E+00  0.00000000E+00
  0.00000000E+00  0.00000000E+00  0.00000000E+00
  0.00000000E+00  0.00000000E+00  0.00000000E+00
  0.00000000E+00  0.00000000E+00  0.00000000E+00
  0.00000000E+00  0.00000000E+00  0.00000000E+00
  0.00000000E+00  0.00000000E+00  0.00000000E+00
  0.00000000E+00  0.00000000E+00  0.00000000E+00
  0.00000000E+00  0.00000000E+00  0.00000000E+00
  0.00000000E+00  0.00000000E+00  0.00000000E+00
  0.00000000E+00  0.00000000E+00  0.00000000E+00
  0.00000000E+00  0.00000000E+00  0.00000000E+00
  0.00000000E+00  0.00000000E+00  0.00000000E+00
  0.00000000E+00  0.00000000E+00  0.00000000E+00
  0.00000000E+00  0.00000000E+00  0.00000000E+00
  0.00000000E+00  0.00000000E+00  0.00000000E+00
  0.00000000E+00  0.00000000E+00  0.00000000E+00
  0.00000000E+00  0.00000000E+00  0.00000000E+00
  0.00000000E+00  0.00000000E+00  0.00000000E+00
  0.00000000E+00  0.00000000E+00  0.00000000E+00
  0.00000000E+00  0.00000000E+00  0.00000000E+00
  0.00000000E+00  0.00000000E+00  0.00000000E+00
  0.00000000E+00  0.00000000E+00  0.00000000E+00
  0.00000000E+00  0.00000000E+00  0.00000000E+00
  0.00000000E+00  0.00000000E+00  0.00000000E+00
