C  N  H  Pb I 
 1.0000000000000000
     8.9515839677080429    0.0000000000000000    0.0000000000000000
     0.0000000000000000    8.9515839677080429    0.0000000000000000
     0.0000000000000000    0.0000000000000000    6.3289724258144924
 C   N   H   Pb  I  
   2   4  10   2   6
Direct
  0.4990956888929275  0.4959365186780219  0.5906202851164877
  0.9973014949332687  0.9967602158784905  0.5645673945229792
  0.5896735513001309  0.5903805789987948  0.4786976754426536
  0.3993531676670751  0.4158872949761235  0.4870231587374574
  0.0899242319163960  0.9126273590295281  0.4823607430438323
  0.9057664254714748  0.0943850714711532  0.4740017363302378
  0.4977679968045765  0.5037608827775522  0.7400323448158677
  0.6676152177041077  0.6552050848564758  0.5554066820923113
  0.6106309235834880  0.6006954129524353  0.3226504887582197
  0.3949786492431956  0.3816502958243997  0.3179143716927261
  0.3477222639986650  0.3468781958225675  0.5729831818918605
  0.9848314757589680  0.0050884663466294  0.7369133551901349
  0.1624798804170426  0.8360733773695501  0.5623781045368669
  0.0960522691137329  0.8976208859952535  0.3104738646618356
  0.8896067833436203  0.1005805402366092  0.3078977835540694
  0.8414019490413034  0.1470371403681980  0.5558410858488706
  0.9985733156803029  0.5050462142202115  0.9765988121184677
  0.5080886118919289  0.9927401134528615  0.9952337659635232
  0.9955070958247570  0.5063432990051911  0.4929288563891929
  0.5049089830455593  0.9995413611313699  0.4892191662452326
  0.2177500008022083  0.2187315891273833  0.9789621558050564
  0.2842659488918000  0.7298326412630216  0.9924128139850037
  0.7170874649736488  0.2793461716628003  0.9843161713576658
  0.7905974148070725  0.7833056365926887  0.0071303741078750
Cartesian
  0.0000000000000000  0.0000000000000000  0.0000000000000000
  0.0000000000000000  0.0000000000000000  0.0000000000000000
  0.0000000000000000  0.0000000000000000  0.0000000000000000
  0.0000000000000000  0.0000000000000000  0.0000000000000000
  0.0000000000000000  0.0000000000000000  0.0000000000000000
  0.0000000000000000  0.0000000000000000  0.0000000000000000
  0.0000000000000000  0.0000000000000000  0.0000000000000000
  0.0000000000000000  0.0000000000000000  0.0000000000000000
  0.0000000000000000  0.0000000000000000  0.0000000000000000
  0.0000000000000000  0.0000000000000000  0.0000000000000000
  0.0000000000000000  0.0000000000000000  0.0000000000000000
  0.0000000000000000  0.0000000000000000  0.0000000000000000
  0.0000000000000000  0.0000000000000000  0.0000000000000000
  0.0000000000000000  0.0000000000000000  0.0000000000000000
  0.0000000000000000  0.0000000000000000  0.0000000000000000
  0.0000000000000000  0.0000000000000000  0.0000000000000000
  0.0000000000000000  0.0000000000000000  0.0000000000000000
  0.0000000000000000  0.0000000000000000  0.0000000000000000
  0.0000000000000000  0.0000000000000000  0.0000000000000000
  0.0000000000000000  0.0000000000000000  0.0000000000000000
  0.0000000000000000  0.0000000000000000  0.0000000000000000
  0.0000000000000000  0.0000000000000000  0.0000000000000000
  0.0000000000000000  0.0000000000000000  0.0000000000000000
  0.0000000000000000  0.0000000000000000  0.0000000000000000
