C  N  H  Pb I                           
   1.0000000000000000     
     9.0193899931757802    0.0000000000000000    0.0000000000000000
     0.0000000000000000    8.7777678445653162    0.0000000000000000
     0.0000000000000000    0.0000000000000000   12.7961868062944486
  C               N               H               Pb              I             
     4     8    20     4    12
Direct
     0.4779584451016419    0.0068055676778869    0.2568255604992942
     0.0104321415449320    0.4498444537571729    0.7395831119196288
     0.0629347852082915    0.5328510430733431    0.2163728470474098
     0.5403754563243410    0.9643516239027434    0.6969780535613381
     0.3726714621902403    0.9580640957788233    0.1944834907003923
     0.0149437748055661    0.4567008654877682    0.6372134336245523
     0.9672275584121479    0.5139746393510762    0.1401134301710698
     0.5993346996322231    0.0831136309475440    0.7435617449103589
     0.5917321599104710    0.0897874290350131    0.2274534529918171
     0.9225439360036845    0.5317479047214420    0.7990794632121236
     0.0339989115415520    0.5120051234536547    0.3158280245135643
     0.4206557415758709    0.8930100590239647    0.7285395309176010
     0.4702926698744037    0.9766886893123825    0.3396452158313323
     0.0859203283719623    0.3704091538840686    0.7785042618680365
     0.1753909008502532    0.5680261676954643    0.1951597490591865
     0.5957896861041547    0.9214757938321227    0.6268034257729340
     0.2926634538460746    0.8876032537547545    0.2239562792334624
     0.0820337768643000    0.3826271239684047    0.5976283389884784
     0.0010749469982514    0.5257512944393028    0.0642605281956605
     0.6969096328280386    0.1274054797511184    0.7164528991165824
     0.3737636015417323    0.9804218793201329    0.1159108341480675
     0.9461929761942613    0.5271175015833904    0.5956446146525991
     0.8607794260928543    0.4797846273319166    0.1528107373245433
     0.5558786181270250    0.1292780883552567    0.8098923817185764
     0.6065417737191723    0.1243053585387059    0.1521464139363857
     0.8500847288595850    0.6095811455565041    0.7693855759308335
     0.9306888572514893    0.4808834567536806    0.3413474509563201
     0.3622157121683287    0.9280664499923219    0.7928392256619858
     0.6650943175355053    0.1289774482629653    0.2821484568907593
     0.9311969063705874    0.5243899774184158    0.8786119831057917
     0.1140380345854055    0.5371278076053088    0.3697292668734136
     0.3792475790415537    0.8063034851303925    0.6838676759194300
     0.5023441722619779    0.4879288203356396    0.9810849892003191
     0.0023441785924945    0.0120711836670608    0.4810849868122489
     0.9976558244282359    0.9879288178551917    0.9810849914872719
     0.4976558298475950    0.5120711849063113    0.4810849885500943
     0.7958928941106862    0.7105293335369609    0.5032699314851357
     0.9606598229172718    0.9944623124655507    0.2320592544955247
     0.7060293635732506    0.1956508126848462    0.9614522052702341
     0.2041070863312058    0.2894707010478257    0.0032699320500740
     0.2060293779368507    0.3043491755398549    0.4614522129329686
     0.2939706246777973    0.8043491828284957    0.4614522154174097
     0.7939706408800902    0.6956508110307098    0.9614522100061293
     0.7041071043942750    0.2105293303375291    0.5032699287679776
     0.4606598128207438    0.5055376617516671    0.7320592563212429
     0.0393401777688851    0.0055376740307977    0.7320592521911493
     0.2958929104798855    0.7894706933117490    0.0032699289927791
     0.5393401671427824    0.4944623109760684    0.2320592517272502

  0.00000000E+00  0.00000000E+00  0.00000000E+00
  0.00000000E+00  0.00000000E+00  0.00000000E+00
  0.00000000E+00  0.00000000E+00  0.00000000E+00
  0.00000000E+00  0.00000000E+00  0.00000000E+00
  0.00000000E+00  0.00000000E+00  0.00000000E+00
  0.00000000E+00  0.00000000E+00  0.00000000E+00
  0.00000000E+00  0.00000000E+00  0.00000000E+00
  0.00000000E+00  0.00000000E+00  0.00000000E+00
  0.00000000E+00  0.00000000E+00  0.00000000E+00
  0.00000000E+00  0.00000000E+00  0.00000000E+00
  0.00000000E+00  0.00000000E+00  0.00000000E+00
  0.00000000E+00  0.00000000E+00  0.00000000E+00
  0.00000000E+00  0.00000000E+00  0.00000000E+00
  0.00000000E+00  0.00000000E+00  0.00000000E+00
  0.00000000E+00  0.00000000E+00  0.00000000E+00
  0.00000000E+00  0.00000000E+00  0.00000000E+00
  0.00000000E+00  0.00000000E+00  0.00000000E+00
  0.00000000E+00  0.00000000E+00  0.00000000E+00
  0.00000000E+00  0.00000000E+00  0.00000000E+00
  0.00000000E+00  0.00000000E+00  0.00000000E+00
  0.00000000E+00  0.00000000E+00  0.00000000E+00
  0.00000000E+00  0.00000000E+00  0.00000000E+00
  0.00000000E+00  0.00000000E+00  0.00000000E+00
  0.00000000E+00  0.00000000E+00  0.00000000E+00
  0.00000000E+00  0.00000000E+00  0.00000000E+00
  0.00000000E+00  0.00000000E+00  0.00000000E+00
  0.00000000E+00  0.00000000E+00  0.00000000E+00
  0.00000000E+00  0.00000000E+00  0.00000000E+00
  0.00000000E+00  0.00000000E+00  0.00000000E+00
  0.00000000E+00  0.00000000E+00  0.00000000E+00
  0.00000000E+00  0.00000000E+00  0.00000000E+00
  0.00000000E+00  0.00000000E+00  0.00000000E+00
  0.00000000E+00  0.00000000E+00  0.00000000E+00
  0.00000000E+00  0.00000000E+00  0.00000000E+00
  0.00000000E+00  0.00000000E+00  0.00000000E+00
  0.00000000E+00  0.00000000E+00  0.00000000E+00
  0.00000000E+00  0.00000000E+00  0.00000000E+00
  0.00000000E+00  0.00000000E+00  0.00000000E+00
  0.00000000E+00  0.00000000E+00  0.00000000E+00
  0.00000000E+00  0.00000000E+00  0.00000000E+00
  0.00000000E+00  0.00000000E+00  0.00000000E+00
  0.00000000E+00  0.00000000E+00  0.00000000E+00
  0.00000000E+00  0.00000000E+00  0.00000000E+00
  0.00000000E+00  0.00000000E+00  0.00000000E+00
  0.00000000E+00  0.00000000E+00  0.00000000E+00
  0.00000000E+00  0.00000000E+00  0.00000000E+00
  0.00000000E+00  0.00000000E+00  0.00000000E+00
  0.00000000E+00  0.00000000E+00  0.00000000E+00
