C  N  H  Pb I 
 1.0000000000000000
     9.0193899931757802    0.0000000000000000    0.0000000000000000
     0.0000000000000000    8.7777678445653162    0.0000000000000000
     0.0000000000000000    0.0000000000000000   12.7961868062944486
 C   N   H   Pb  I  
   4   8  20   4  12
Direct
  0.4779584451016430  0.0068055676778864  0.2568255604992974
  0.0104321415449338  0.4498444537571749  0.7395831119196258
  0.0629347852082947  0.5328510430733449  0.2163728470474075
  0.5403754563243428  0.9643516239027431  0.6969780535613367
  0.3726714621902433  0.9580640957788199  0.1944834907003903
  0.0149437748055634  0.4567008654877664  0.6372134336245506
  0.9672275584121501  0.5139746393510778  0.1401134301710665
  0.5993346996322222  0.0831136309475414  0.7435617449103621
  0.5917321599104686  0.0897874290350105  0.2274534529918180
  0.9225439360036823  0.5317479047214440  0.7990794632121260
  0.0339989115415489  0.5120051234536579  0.3158280245135608
  0.4206557415758691  0.8930100590239646  0.7285395309175978
  0.4702926698744036  0.9766886893123791  0.3396452158313326
  0.0859203283719616  0.3704091538840658  0.7785042618680358
  0.1753909008502522  0.5680261676954671  0.1951597490591899
  0.5957896861041535  0.9214757938321255  0.6268034257729338
  0.2926634538460753  0.8876032537547536  0.2239562792334646
  0.0820337768642967  0.3826271239684065  0.5976283389884768
  0.0010749469982517  0.5257512944393020  0.0642605281956572
  0.6969096328280395  0.1274054797511162  0.7164528991165792
  0.3737636015417357  0.9804218793201325  0.1159108341480678
  0.9461929761942623  0.5271175015833878  0.5956446146525992
  0.8607794260928576  0.4797846273319152  0.1528107373245459
  0.5558786181270279  0.1292780883552543  0.8098923817185757
  0.6065417737191701  0.1243053585387049  0.1521464139363832
  0.8500847288595823  0.6095811455565019  0.7693855759308367
  0.9306888572514860  0.4808834567536819  0.3413474509563185
  0.3622157121683296  0.9280664499923207  0.7928392256619868
  0.6650943175355083  0.1289774482629649  0.2821484568907573
  0.9311969063705854  0.5243899774184151  0.8786119831057941
  0.1140380345854038  0.5371278076053057  0.3697292668734151
  0.3792475790415527  0.8063034851303935  0.6838676759194265
  0.5023441722619808  0.4879288203356366  0.9810849892003165
  0.0023441785924915  0.0120711836670638  0.4810849868122521
  0.9976558244282330  0.9879288178551918  0.9810849914872694
  0.4976558298475982  0.5120711849063111  0.4810849885500975
  0.7958928941106866  0.7105293335369601  0.5032699314851331
  0.9606598229172731  0.9944623124655482  0.2320592544955259
  0.7060293635732524  0.1956508126848427  0.9614522052702348
  0.2041070863312036  0.2894707010478275  0.0032699320500760
  0.2060293779368493  0.3043491755398582  0.4614522129329701
  0.2939706246777947  0.8043491828284943  0.4614522154174112
  0.7939706408800884  0.6956508110307111  0.9614522100061302
  0.7041071043942746  0.2105293303375289  0.5032699287679750
  0.4606598128207440  0.5055376617516696  0.7320592563212425
  0.0393401777688836  0.0055376740307987  0.7320592521911489
  0.2958929104798871  0.7894706933117497  0.0032699289927811
  0.5393401671427811  0.4944623109760681  0.2320592517272514
Cartesian
  0.0000000000000000  0.0000000000000000  0.0000000000000000
  0.0000000000000000  0.0000000000000000  0.0000000000000000
  0.0000000000000000  0.0000000000000000  0.0000000000000000
  0.0000000000000000  0.0000000000000000  0.0000000000000000
  0.0000000000000000  0.0000000000000000  0.0000000000000000
  0.0000000000000000  0.0000000000000000  0.0000000000000000
  0.0000000000000000  0.0000000000000000  0.0000000000000000
  0.0000000000000000  0.0000000000000000  0.0000000000000000
  0.0000000000000000  0.0000000000000000  0.0000000000000000
  0.0000000000000000  0.0000000000000000  0.0000000000000000
  0.0000000000000000  0.0000000000000000  0.0000000000000000
  0.0000000000000000  0.0000000000000000  0.0000000000000000
  0.0000000000000000  0.0000000000000000  0.0000000000000000
  0.0000000000000000  0.0000000000000000  0.0000000000000000
  0.0000000000000000  0.0000000000000000  0.0000000000000000
  0.0000000000000000  0.0000000000000000  0.0000000000000000
  0.0000000000000000  0.0000000000000000  0.0000000000000000
  0.0000000000000000  0.0000000000000000  0.0000000000000000
  0.0000000000000000  0.0000000000000000  0.0000000000000000
  0.0000000000000000  0.0000000000000000  0.0000000000000000
  0.0000000000000000  0.0000000000000000  0.0000000000000000
  0.0000000000000000  0.0000000000000000  0.0000000000000000
  0.0000000000000000  0.0000000000000000  0.0000000000000000
  0.0000000000000000  0.0000000000000000  0.0000000000000000
  0.0000000000000000  0.0000000000000000  0.0000000000000000
  0.0000000000000000  0.0000000000000000  0.0000000000000000
  0.0000000000000000  0.0000000000000000  0.0000000000000000
  0.0000000000000000  0.0000000000000000  0.0000000000000000
  0.0000000000000000  0.0000000000000000  0.0000000000000000
  0.0000000000000000  0.0000000000000000  0.0000000000000000
  0.0000000000000000  0.0000000000000000  0.0000000000000000
  0.0000000000000000  0.0000000000000000  0.0000000000000000
  0.0000000000000000  0.0000000000000000  0.0000000000000000
  0.0000000000000000  0.0000000000000000  0.0000000000000000
  0.0000000000000000  0.0000000000000000  0.0000000000000000
  0.0000000000000000  0.0000000000000000  0.0000000000000000
  0.0000000000000000  0.0000000000000000  0.0000000000000000
  0.0000000000000000  0.0000000000000000  0.0000000000000000
  0.0000000000000000  0.0000000000000000  0.0000000000000000
  0.0000000000000000  0.0000000000000000  0.0000000000000000
  0.0000000000000000  0.0000000000000000  0.0000000000000000
  0.0000000000000000  0.0000000000000000  0.0000000000000000
  0.0000000000000000  0.0000000000000000  0.0000000000000000
  0.0000000000000000  0.0000000000000000  0.0000000000000000
  0.0000000000000000  0.0000000000000000  0.0000000000000000
  0.0000000000000000  0.0000000000000000  0.0000000000000000
  0.0000000000000000  0.0000000000000000  0.0000000000000000
  0.0000000000000000  0.0000000000000000  0.0000000000000000
