C  N  H  Pb I 
 1.0000000000000000
     8.9515839677080429    0.0000000000000000    0.0000000000000000
     0.0000000000000000    8.9515839677080429    0.0000000000000000
     0.0000000000000000    0.0000000000000000    6.3289724258144924
 C   N   H   Pb  I  
   2   4  10   2   6
Direct
  0.5032790201631063  0.5021393254826730  0.5707870001205494
  0.0000007410375673  0.9999987646105949  0.5710173459562399
  0.5901350637882803  0.5916850921270975  0.4616399239861483
  0.4071032618512035  0.4065143959796477  0.4917161639951636
  0.0923596624104001  0.9076399465760637  0.4765807909973080
  0.9076407520067939  0.0923588334847715  0.4765810251555297
  0.5117791281921474  0.5076817287111143  0.7425735958112877
  0.6607868246968321  0.6615747302109398  0.5399765791652636
  0.5918531981845624  0.5962600734577217  0.3006483872729156
  0.3896077695869166  0.3916512194485582  0.3338821693126820
  0.3452843293924047  0.3423853042858657  0.5918209746739486
  0.0000003891983269  0.9999991386351894  0.7434028011511010
  0.1592037642541199  0.8407958108961853  0.5661101690442600
  0.1020541224786791  0.8979456517450166  0.3166108718828011
  0.8979457520127502  0.1020539951781196  0.3166116306627342
  0.8407959940430518  0.1592035362748205  0.5661129987487663
  0.9999996702832874  0.4999998411152120  0.9927896685767361
  0.4999997010236399  0.0000000324883942  0.9927896646371461
 -0.0000000897965151  0.4999996263576136  0.4921929684839212
  0.4999999142446682  0.0000003677771616  0.4921929568124041
  0.2185734085131937  0.2185737368091121  0.9905351307177016
  0.2814254933831534  0.7185740284663772  0.9905345394682984
  0.7185734566697085  0.2814260629724074  0.9905349485405626
  0.7814255204687662  0.7814258469398120  0.9905345050794724
Cartesian
  0.0000000000000000  0.0000000000000000  0.0000000000000000
  0.0000000000000000  0.0000000000000000  0.0000000000000000
  0.0000000000000000  0.0000000000000000  0.0000000000000000
  0.0000000000000000  0.0000000000000000  0.0000000000000000
  0.0000000000000000  0.0000000000000000  0.0000000000000000
  0.0000000000000000  0.0000000000000000  0.0000000000000000
  0.0000000000000000  0.0000000000000000  0.0000000000000000
  0.0000000000000000  0.0000000000000000  0.0000000000000000
  0.0000000000000000  0.0000000000000000  0.0000000000000000
  0.0000000000000000  0.0000000000000000  0.0000000000000000
  0.0000000000000000  0.0000000000000000  0.0000000000000000
  0.0000000000000000  0.0000000000000000  0.0000000000000000
  0.0000000000000000  0.0000000000000000  0.0000000000000000
  0.0000000000000000  0.0000000000000000  0.0000000000000000
  0.0000000000000000  0.0000000000000000  0.0000000000000000
  0.0000000000000000  0.0000000000000000  0.0000000000000000
  0.0000000000000000  0.0000000000000000  0.0000000000000000
  0.0000000000000000  0.0000000000000000  0.0000000000000000
  0.0000000000000000  0.0000000000000000  0.0000000000000000
  0.0000000000000000  0.0000000000000000  0.0000000000000000
  0.0000000000000000  0.0000000000000000  0.0000000000000000
  0.0000000000000000  0.0000000000000000  0.0000000000000000
  0.0000000000000000  0.0000000000000000  0.0000000000000000
  0.0000000000000000  0.0000000000000000  0.0000000000000000
