C  N  H  Pb I                           
   1.0000000000000000     
     9.0193899931757802    0.0000000000000000    0.0000000000000000
     0.0000000000000000    8.7777678445653162    0.0000000000000000
     0.0000000000000000    0.0000000000000000   12.7961868062944486
  C               N               H               Pb              I             
     4     8    20     4    12
Direct
     0.5079545620594885    0.0406959883747646    0.2475946235704427
     0.0079545554343809    0.4593040156808073    0.7475946208954554
     0.9920454334685047    0.5406959860585872    0.2475946299923706
     0.4920454478785175    0.9593040127881096    0.7475946256013870
     0.5705946771768495    0.9354362274290722    0.1897252141182122
     0.0705946740239369    0.5645637727658510    0.6897252201605895
     0.1310336582348199    0.5838994807281068    0.2399588818968326
     0.6310336640152769    0.9161005167449332    0.7399588856927721
     0.3689663406760957    0.0838994856595292    0.2399588837149906
     0.8689663414621833    0.4161005194902572    0.7399588873068410
     0.9294053217315223    0.4354362199708675    0.1897252216917167
     0.4294053329446612    0.0645637684645806    0.6897252229388684
     0.5763163080256462    0.0964013618091926    0.3070350010383294
     0.0763163041439370    0.4035986538439502    0.8070350065760294
     0.9236836942065167    0.5964013535599975    0.3070350101048547
     0.4236837047439721    0.9035986570811900    0.8070350168177995
     0.6816203964682259    0.9153350004290033    0.1981420696355372
     0.1816203953774504    0.5846650008662735    0.6981420678013563
     0.1727440398663802    0.6618424652955213    0.2915835922463330
     0.6727440483713281    0.8381575300147404    0.7915835946568777
     0.5137159496301180    0.8799864858485265    0.1317994637689637
     0.0137159530701183    0.6200135182310191    0.6317994618654623
     0.2027680669080070    0.5368550561063330    0.1875867459194609
     0.7027680811919126    0.9631449364772280    0.6875867437071861
     0.2972319239003340    0.0368550498131768    0.1875867509889702
     0.7972319185576211    0.4631449498156996    0.6875867489999621
     0.9862840415021594    0.3799864786952014    0.1317994707683496
     0.4862840485959765    0.1200135117898071    0.6317994631872494
     0.3272559576570444    0.1618424731988952    0.2915835925839971
     0.8272559591671822    0.3381575261065066    0.7915835908767335
     0.8183796010724720    0.4153349919539693    0.1981420818729518
     0.3183796102733396    0.0846649986020438    0.6981420736952373
     0.5009718696220560    0.4861475850378554    0.9845742514331803
     0.9982114130108997    0.0239211066305600    0.4789441223529494
     0.9849835376475724    0.9762896827316325    0.9793043903409639
     0.5011917278955167    0.5121437022126258    0.4813614783908875
     0.7908334768748304    0.7193178421272037    0.5079002955104812
     0.9733796517553870    0.0009032673807710    0.2343359626546047
     0.7133642316017443    0.1997566800362023    0.9575546534757464
     0.2104247144186289    0.2926207373648708    0.0010750989669077
     0.2153433349629310    0.3057106460338588    0.4660544591373252
     0.2923319635333712    0.8042488573118192    0.4587174616728333
     0.7868440545692579    0.6875159622196207    0.9645585475102365
     0.7095979447526375    0.1990367961438224    0.4981508348928045
     0.4543473639367122    0.5035280888079257    0.7282444565942612
     0.0304455190175901    0.0028164321527484    0.7252325306464584
     0.2963072391666088    0.7904366848407847    0.0119146999137953
     0.5405185133282870    0.4884466920953869    0.2318259276639694

  0.00000000E+00  0.00000000E+00  0.00000000E+00
  0.00000000E+00  0.00000000E+00  0.00000000E+00
  0.00000000E+00  0.00000000E+00  0.00000000E+00
  0.00000000E+00  0.00000000E+00  0.00000000E+00
  0.00000000E+00  0.00000000E+00  0.00000000E+00
  0.00000000E+00  0.00000000E+00  0.00000000E+00
  0.00000000E+00  0.00000000E+00  0.00000000E+00
  0.00000000E+00  0.00000000E+00  0.00000000E+00
  0.00000000E+00  0.00000000E+00  0.00000000E+00
  0.00000000E+00  0.00000000E+00  0.00000000E+00
  0.00000000E+00  0.00000000E+00  0.00000000E+00
  0.00000000E+00  0.00000000E+00  0.00000000E+00
  0.00000000E+00  0.00000000E+00  0.00000000E+00
  0.00000000E+00  0.00000000E+00  0.00000000E+00
  0.00000000E+00  0.00000000E+00  0.00000000E+00
  0.00000000E+00  0.00000000E+00  0.00000000E+00
  0.00000000E+00  0.00000000E+00  0.00000000E+00
  0.00000000E+00  0.00000000E+00  0.00000000E+00
  0.00000000E+00  0.00000000E+00  0.00000000E+00
  0.00000000E+00  0.00000000E+00  0.00000000E+00
  0.00000000E+00  0.00000000E+00  0.00000000E+00
  0.00000000E+00  0.00000000E+00  0.00000000E+00
  0.00000000E+00  0.00000000E+00  0.00000000E+00
  0.00000000E+00  0.00000000E+00  0.00000000E+00
  0.00000000E+00  0.00000000E+00  0.00000000E+00
  0.00000000E+00  0.00000000E+00  0.00000000E+00
  0.00000000E+00  0.00000000E+00  0.00000000E+00
  0.00000000E+00  0.00000000E+00  0.00000000E+00
  0.00000000E+00  0.00000000E+00  0.00000000E+00
  0.00000000E+00  0.00000000E+00  0.00000000E+00
  0.00000000E+00  0.00000000E+00  0.00000000E+00
  0.00000000E+00  0.00000000E+00  0.00000000E+00
  0.00000000E+00  0.00000000E+00  0.00000000E+00
  0.00000000E+00  0.00000000E+00  0.00000000E+00
  0.00000000E+00  0.00000000E+00  0.00000000E+00
  0.00000000E+00  0.00000000E+00  0.00000000E+00
  0.00000000E+00  0.00000000E+00  0.00000000E+00
  0.00000000E+00  0.00000000E+00  0.00000000E+00
  0.00000000E+00  0.00000000E+00  0.00000000E+00
  0.00000000E+00  0.00000000E+00  0.00000000E+00
  0.00000000E+00  0.00000000E+00  0.00000000E+00
  0.00000000E+00  0.00000000E+00  0.00000000E+00
  0.00000000E+00  0.00000000E+00  0.00000000E+00
  0.00000000E+00  0.00000000E+00  0.00000000E+00
  0.00000000E+00  0.00000000E+00  0.00000000E+00
  0.00000000E+00  0.00000000E+00  0.00000000E+00
  0.00000000E+00  0.00000000E+00  0.00000000E+00
  0.00000000E+00  0.00000000E+00  0.00000000E+00
