C  N  H  Pb I 
 1.0000000000000000
     8.7789123160606248   -0.0637311914176333   -0.0415792972018614
    -0.0637311914176333    8.7983715193210319    0.0743347240657074
    -0.0293975039975751    0.0525563319954924    6.3054327641021377
 C   N   H   Pb  I  
   2   4  10   2   6
Direct
  0.5000018554397699  0.5000022537173054  0.5710180843918636
  0.0000007410375673  0.9999987646105949  0.5710173459562399
  0.5923581034953977  0.5923585163879730  0.4765803103999293
  0.4076407503633793  0.4076411399921033  0.4765811169345088
  0.0923596624104001  0.9076399465760638  0.4765807909973080
  0.9076407520067941  0.0923588334847715  0.4765810251555297
  0.5000002811686741  0.5000006754111795  0.7434031870421925
  0.6592043223742976  0.6592047228670137  0.5661117567204834
  0.6020540182598020  0.6020543629609088  0.3166118097023156
  0.3979460835827361  0.3979464056777411  0.3166130108747678
  0.3407963330843803  0.3407967026589521  0.5661133888189647
  0.0000003891983269  0.9999991386351894  0.7434028011511009
  0.1592037642541199  0.8407958108961854  0.5661101690442601
  0.1020541224786791  0.8979456517450166  0.3166108718828011
  0.8979457520127503  0.1020539951781196  0.3166116306627342
  0.8407959940430521  0.1592035362748205  0.5661129987487664
  0.9976266350107234  0.5036044713848717  0.9951649050459602
  0.5014870878585622  0.9977942674243975  0.9975691545119580
  0.0008038837259586  0.4996440866743815  0.4978126722204083
  0.4991403714035975  0.0005905418657543  0.4902187343511459
  0.2182143736996227  0.2210006541257454  0.9939352273412821
  0.2818828870288460  0.7189120762505700  0.9890561241041318
  0.7178626557795916  0.2783452841486713  0.9904364970682955
  0.7803994271437382  0.7829443460255715  0.9907616750923328
Cartesian
  0.0000000000000000  0.0000000000000000  0.0000000000000000
  0.0000000000000000  0.0000000000000000  0.0000000000000000
  0.0000000000000000  0.0000000000000000  0.0000000000000000
  0.0000000000000000  0.0000000000000000  0.0000000000000000
  0.0000000000000000  0.0000000000000000  0.0000000000000000
  0.0000000000000000  0.0000000000000000  0.0000000000000000
  0.0000000000000000  0.0000000000000000  0.0000000000000000
  0.0000000000000000  0.0000000000000000  0.0000000000000000
  0.0000000000000000  0.0000000000000000  0.0000000000000000
  0.0000000000000000  0.0000000000000000  0.0000000000000000
  0.0000000000000000  0.0000000000000000  0.0000000000000000
  0.0000000000000000  0.0000000000000000  0.0000000000000000
  0.0000000000000000  0.0000000000000000  0.0000000000000000
  0.0000000000000000  0.0000000000000000  0.0000000000000000
  0.0000000000000000  0.0000000000000000  0.0000000000000000
  0.0000000000000000  0.0000000000000000  0.0000000000000000
  0.0000000000000000  0.0000000000000000  0.0000000000000000
  0.0000000000000000  0.0000000000000000  0.0000000000000000
  0.0000000000000000  0.0000000000000000  0.0000000000000000
  0.0000000000000000  0.0000000000000000  0.0000000000000000
  0.0000000000000000  0.0000000000000000  0.0000000000000000
  0.0000000000000000  0.0000000000000000  0.0000000000000000
  0.0000000000000000  0.0000000000000000  0.0000000000000000
  0.0000000000000000  0.0000000000000000  0.0000000000000000
