C  N  H  Pb I                           
   1.0000000000000000     
     8.9515839677080429    0.0000000000000000    0.0000000000000000
     0.0000000000000000    8.9515839677080429    0.0000000000000000
     0.0000000000000000    0.0000000000000000    6.3289724258144924
  C               N               H               Pb              I             
     2     4    10     2     6
Direct
     0.4982926190538919    0.4963069792104164    0.5738068324510550
     0.9928722313344167    0.0018029507626736    0.5661905372077243
     0.5987584288682442    0.5922692589269900    0.4810743399347928
     0.4072138497413107    0.4108901571257135    0.4745473342593982
     0.0870281175517178    0.9023244057054498    0.4767041528047571
     0.9043545154758732    0.0967079259434840    0.4577148367311707
     0.5014422627324535    0.5080402974851239    0.7462639263808057
     0.6617410062198275    0.6683582672594781    0.5788032813045234
     0.6100032597315987    0.5984186482625802    0.3214331320433104
     0.4051970071836877    0.4012501549271406    0.3124321916430546
     0.3393995757995967    0.3435539569960753    0.5744880462509911
     0.0019157139097317    0.0023679888367028    0.7402865067278270
     0.1569434435660071    0.8349902065384782    0.5537113390947539
     0.1075777685737478    0.8981442684086858    0.3206856066095582
     0.8931679585287924    0.1101329778278952    0.3082343672000150
     0.8355686106864724    0.1517350741850407    0.5522711986183779
     0.0019861173938125    0.4885400446329911    0.9968968522033208
     0.4988562031683159    0.0029918475713870    0.9801951640568234
     0.9956173588149184    0.4991836802174703    0.4970642723010741
     0.4930969837341337    0.9940899628002668    0.4837285112977554
     0.2104274946230476    0.2115397802066070    0.9909368295985033
     0.2848761963495150    0.7190290490175144    0.9884675498062805
     0.7086525678657409    0.2858975772526477    0.9821780907860003
     0.7726250733193751    0.7812714049094183    0.9887790522165290

  0.00000000E+00  0.00000000E+00  0.00000000E+00
  0.00000000E+00  0.00000000E+00  0.00000000E+00
  0.00000000E+00  0.00000000E+00  0.00000000E+00
  0.00000000E+00  0.00000000E+00  0.00000000E+00
  0.00000000E+00  0.00000000E+00  0.00000000E+00
  0.00000000E+00  0.00000000E+00  0.00000000E+00
  0.00000000E+00  0.00000000E+00  0.00000000E+00
  0.00000000E+00  0.00000000E+00  0.00000000E+00
  0.00000000E+00  0.00000000E+00  0.00000000E+00
  0.00000000E+00  0.00000000E+00  0.00000000E+00
  0.00000000E+00  0.00000000E+00  0.00000000E+00
  0.00000000E+00  0.00000000E+00  0.00000000E+00
  0.00000000E+00  0.00000000E+00  0.00000000E+00
  0.00000000E+00  0.00000000E+00  0.00000000E+00
  0.00000000E+00  0.00000000E+00  0.00000000E+00
  0.00000000E+00  0.00000000E+00  0.00000000E+00
  0.00000000E+00  0.00000000E+00  0.00000000E+00
  0.00000000E+00  0.00000000E+00  0.00000000E+00
  0.00000000E+00  0.00000000E+00  0.00000000E+00
  0.00000000E+00  0.00000000E+00  0.00000000E+00
  0.00000000E+00  0.00000000E+00  0.00000000E+00
  0.00000000E+00  0.00000000E+00  0.00000000E+00
  0.00000000E+00  0.00000000E+00  0.00000000E+00
  0.00000000E+00  0.00000000E+00  0.00000000E+00
