C  N  H  Pb I 
 1.0000000000000000
     8.9515839677080429    0.0000000000000000    0.0000000000000000
     0.0000000000000000    8.9515839677080429    0.0000000000000000
     0.0000000000000000    0.0000000000000000    6.3289724258144924
 C   N   H   Pb  I  
   2   4  10   2   6
Direct
  0.4982926190538945  0.4963069792104130  0.5738068324510586
  0.9928722313344146  0.0018029507626745  0.5661905372077272
  0.5987584288682447  0.5922692589269870  0.4810743399347911
  0.4072138497413075  0.4108901571257105  0.4745473342593993
  0.0870281175517170  0.9023244057054476  0.4767041528047538
  0.9043545154758702  0.0967079259434864  0.4577148367311731
  0.5014422627324566  0.5080402974851270  0.7462639263808030
  0.6617410062198286  0.6683582672594792  0.5788032813045239
  0.6100032597315982  0.5984186482625813  0.3214331320433103
  0.4051970071836875  0.4012501549271405  0.3124321916430512
  0.3393995757995936  0.3435539569960769  0.5744880462509924
  0.0019157139097332  0.0023679888367021  0.7402865067278263
  0.1569434435660103  0.8349902065384786  0.5537113390947535
  0.1075777685737501  0.8981442684086823  0.3206856066095571
  0.8931679585287940  0.1101329778278978  0.3082343672000133
  0.8355686106864725  0.1517350741850410  0.5522711986183804
  0.0019861173938119  0.4885400446329908  0.9968968522033218
  0.4988562031683188  0.0029918475713855  0.9801951640568199
  0.9956173588149160  0.4991836802174688  0.4970642723010761
  0.4930969837341321  0.9940899628002661  0.4837285112977542
  0.2104274946230479  0.2115397802066100  0.9909368295985033
  0.2848761963495169  0.7190290490175147  0.9884675498062785
  0.7086525678657382  0.2858975772526460  0.9821780907859968
  0.7726250733193747  0.7812714049094159  0.9887790522165316
Cartesian
  0.0000000000000000  0.0000000000000000  0.0000000000000000
  0.0000000000000000  0.0000000000000000  0.0000000000000000
  0.0000000000000000  0.0000000000000000  0.0000000000000000
  0.0000000000000000  0.0000000000000000  0.0000000000000000
  0.0000000000000000  0.0000000000000000  0.0000000000000000
  0.0000000000000000  0.0000000000000000  0.0000000000000000
  0.0000000000000000  0.0000000000000000  0.0000000000000000
  0.0000000000000000  0.0000000000000000  0.0000000000000000
  0.0000000000000000  0.0000000000000000  0.0000000000000000
  0.0000000000000000  0.0000000000000000  0.0000000000000000
  0.0000000000000000  0.0000000000000000  0.0000000000000000
  0.0000000000000000  0.0000000000000000  0.0000000000000000
  0.0000000000000000  0.0000000000000000  0.0000000000000000
  0.0000000000000000  0.0000000000000000  0.0000000000000000
  0.0000000000000000  0.0000000000000000  0.0000000000000000
  0.0000000000000000  0.0000000000000000  0.0000000000000000
  0.0000000000000000  0.0000000000000000  0.0000000000000000
  0.0000000000000000  0.0000000000000000  0.0000000000000000
  0.0000000000000000  0.0000000000000000  0.0000000000000000
  0.0000000000000000  0.0000000000000000  0.0000000000000000
  0.0000000000000000  0.0000000000000000  0.0000000000000000
  0.0000000000000000  0.0000000000000000  0.0000000000000000
  0.0000000000000000  0.0000000000000000  0.0000000000000000
  0.0000000000000000  0.0000000000000000  0.0000000000000000
