C  N  H  Pb I                           
   1.0000000000000000     
     9.0006143675101278   -0.0242517200652518    0.0644285284185619
    -0.0242517200652518    8.8340865894122711   -0.0517511824054061
     0.0455524275109143   -0.0365892570106754    6.3417011588057131
  C               N               H               Pb              I             
     2     4    10     2     6
Direct
     0.5180519299643791    0.5042630777129844    0.5574103214366062
     0.9994584539761178    0.0103699963694197    0.5778492431409390
     0.5269178775448751    0.6284959548447659    0.4511248374544934
     0.4651973970523713    0.3714534522419726    0.4979806290989615
     0.0953173690875246    0.9151135922335172    0.4734709893256976
     0.9097211102154574    0.0881673478699838    0.4777517582263968
     0.5563499498934164    0.5112693994088460    0.7333368889602312
     0.5675138732729152    0.7175746576927509    0.5260575130329599
     0.5002307721691466    0.6293649655158333    0.3066332619264358
     0.4298221544387886    0.3516730143112881    0.3609529923742585
     0.4507447593164997    0.2909146964923721    0.5995706890357013
     0.0036297549476032    0.9959785400860639    0.7461469408141213
     0.1611085823500176    0.8436430268243598    0.5647483612100288
     0.0989060407020617    0.8984503302194824    0.3151392042180348
     0.9040749847511620    0.1019571309444132    0.3178206272484658
     0.8387115357885193    0.1593389697650878    0.5715809446680282
     0.9990814697593251    0.4916788732651014    0.9931448192280996
     0.5039144074274162    0.9935166412870018    0.9860508400163894
     0.9978052110997879    0.5007980984778371    0.4842658255491088
     0.5066995862426111    0.0063667006544179    0.4911956255708034
     0.2176839009876375    0.2203697998905270    0.9889539872158295
     0.2826104009114232    0.7211441877940601    0.9815034013281121
     0.7179478979836631    0.2796035214618016    0.9939435947439677
     0.7828640936684366    0.7757049278985946    0.9864231307727991

  0.00000000E+00  0.00000000E+00  0.00000000E+00
  0.00000000E+00  0.00000000E+00  0.00000000E+00
  0.00000000E+00  0.00000000E+00  0.00000000E+00
  0.00000000E+00  0.00000000E+00  0.00000000E+00
  0.00000000E+00  0.00000000E+00  0.00000000E+00
  0.00000000E+00  0.00000000E+00  0.00000000E+00
  0.00000000E+00  0.00000000E+00  0.00000000E+00
  0.00000000E+00  0.00000000E+00  0.00000000E+00
  0.00000000E+00  0.00000000E+00  0.00000000E+00
  0.00000000E+00  0.00000000E+00  0.00000000E+00
  0.00000000E+00  0.00000000E+00  0.00000000E+00
  0.00000000E+00  0.00000000E+00  0.00000000E+00
  0.00000000E+00  0.00000000E+00  0.00000000E+00
  0.00000000E+00  0.00000000E+00  0.00000000E+00
  0.00000000E+00  0.00000000E+00  0.00000000E+00
  0.00000000E+00  0.00000000E+00  0.00000000E+00
  0.00000000E+00  0.00000000E+00  0.00000000E+00
  0.00000000E+00  0.00000000E+00  0.00000000E+00
  0.00000000E+00  0.00000000E+00  0.00000000E+00
  0.00000000E+00  0.00000000E+00  0.00000000E+00
  0.00000000E+00  0.00000000E+00  0.00000000E+00
  0.00000000E+00  0.00000000E+00  0.00000000E+00
  0.00000000E+00  0.00000000E+00  0.00000000E+00
  0.00000000E+00  0.00000000E+00  0.00000000E+00
