C  N  H  Pb I 
 1.0000000000000000
     9.0006143675101278   -0.0242517200652518    0.0644285284185619
    -0.0242517200652518    8.8340865894122711   -0.0517511824054061
     0.0455524275109143   -0.0365892570106754    6.3417011588057131
 C   N   H   Pb  I  
   2   4  10   2   6
Direct
  0.5180519299643810  0.5042630777129877  0.5574103214366090
  0.9994584539761168  0.0103699963694215  0.5778492431409405
  0.5269178775448746  0.6284959548447659  0.4511248374544967
  0.4651973970523681  0.3714534522419698  0.4979806290989624
  0.0953173690875267  0.9151135922335195  0.4734709893257000
  0.9097211102154539  0.0881673478699817  0.4777517582263933
  0.5563499498934189  0.5112693994088477  0.7333368889602341
  0.5675138732729176  0.7175746576927530  0.5260575130329609
  0.5002307721691494  0.6293649655158322  0.3066332619264333
  0.4298221544387916  0.3516730143112893  0.3609529923742609
  0.4507447593165014  0.2909146964923752  0.5995706890357025
  0.0036297549476004  0.9959785400860641  0.7461469408141221
  0.1611085823500180  0.8436430268243573  0.5647483612100256
  0.0989060407020604  0.8984503302194855  0.3151392042180374
  0.9040749847511639  0.1019571309444115  0.3178206272484687
  0.8387115357885158  0.1593389697650874  0.5715809446680307
  0.9990814697593259  0.4916788732651018  0.9931448192281006
  0.5039144074274136  0.9935166412870020  0.9860508400163872
  0.9978052110997887  0.5007980984778367  0.4842658255491114
  0.5066995862426078  0.0063667006544180  0.4911956255708066
  0.2176839009876398  0.2203697998905252  0.9889539872158268
  0.2826104009114263  0.7211441877940610  0.9815034013281153
  0.7179478979836629  0.2796035214617987  0.9939435947439679
  0.7828640936684362  0.7757049278985921  0.9864231307728006
Cartesian
  0.0000000000000000  0.0000000000000000  0.0000000000000000
  0.0000000000000000  0.0000000000000000  0.0000000000000000
  0.0000000000000000  0.0000000000000000  0.0000000000000000
  0.0000000000000000  0.0000000000000000  0.0000000000000000
  0.0000000000000000  0.0000000000000000  0.0000000000000000
  0.0000000000000000  0.0000000000000000  0.0000000000000000
  0.0000000000000000  0.0000000000000000  0.0000000000000000
  0.0000000000000000  0.0000000000000000  0.0000000000000000
  0.0000000000000000  0.0000000000000000  0.0000000000000000
  0.0000000000000000  0.0000000000000000  0.0000000000000000
  0.0000000000000000  0.0000000000000000  0.0000000000000000
  0.0000000000000000  0.0000000000000000  0.0000000000000000
  0.0000000000000000  0.0000000000000000  0.0000000000000000
  0.0000000000000000  0.0000000000000000  0.0000000000000000
  0.0000000000000000  0.0000000000000000  0.0000000000000000
  0.0000000000000000  0.0000000000000000  0.0000000000000000
  0.0000000000000000  0.0000000000000000  0.0000000000000000
  0.0000000000000000  0.0000000000000000  0.0000000000000000
  0.0000000000000000  0.0000000000000000  0.0000000000000000
  0.0000000000000000  0.0000000000000000  0.0000000000000000
  0.0000000000000000  0.0000000000000000  0.0000000000000000
  0.0000000000000000  0.0000000000000000  0.0000000000000000
  0.0000000000000000  0.0000000000000000  0.0000000000000000
  0.0000000000000000  0.0000000000000000  0.0000000000000000
