C  N  H  Pb I 
 1.0000000000000000
     8.8967014446767347    0.0563821931516256    0.0798526473519315
     0.0563821931516256    8.9454796519786104    0.0291445728749863
     0.0564576286210117    0.0206058725196941    6.2751177346112046
 C   N   H   Pb  I  
   2   4  10   2   6
Direct
  0.5000018554397698  0.5000022537173052  0.5710180843918639
  0.0000007410375673  0.9999987646105949  0.5710173459562401
  0.5923581034953975  0.5923585163879728  0.4765803103999294
  0.4076407503633792  0.4076411399921032  0.4765811169345089
  0.0923596624104001  0.9076399465760637  0.4765807909973082
  0.9076407520067939  0.0923588334847715  0.4765810251555297
  0.5000002811686741  0.5000006754111797  0.7434031870421929
  0.6592043223742974  0.6592047228670139  0.5661117567204836
  0.6020540182598020  0.6020543629609088  0.3166118097023157
  0.3979460835827361  0.3979464056777410  0.3166130108747679
  0.3407963330843803  0.3407967026589522  0.5661133888189648
  0.0000003891983269  0.9999991386351894  0.7434028011511010
  0.1592037642541199  0.8407958108961855  0.5661101690442603
  0.1020541224786791  0.8979456517450171  0.3166108718828012
  0.8979457520127503  0.1020539951781196  0.3166116306627343
  0.8407959940430518  0.1592035362748205  0.5661129987487665
  0.0024087853102975  0.5011826999172054  0.9957299530604375
  0.5003363893067253  0.9991688910963469  0.9944672377801080
  0.0012016165014571  0.5006202905591418  0.4911593736747129
  0.5006051244864343  0.9984012801571508  0.4932148618848321
  0.2185375655830594  0.2220211453825708  0.9938258719858224
  0.2823748791379380  0.7164581332053930  0.9911366061226777
  0.7178065610672786  0.2827951637449832  0.9922809892449604
  0.7823108564331138  0.7815853596943031  0.9896530911682513
Cartesian
  0.0000000000000000  0.0000000000000000  0.0000000000000000
  0.0000000000000000  0.0000000000000000  0.0000000000000000
  0.0000000000000000  0.0000000000000000  0.0000000000000000
  0.0000000000000000  0.0000000000000000  0.0000000000000000
  0.0000000000000000  0.0000000000000000  0.0000000000000000
  0.0000000000000000  0.0000000000000000  0.0000000000000000
  0.0000000000000000  0.0000000000000000  0.0000000000000000
  0.0000000000000000  0.0000000000000000  0.0000000000000000
  0.0000000000000000  0.0000000000000000  0.0000000000000000
  0.0000000000000000  0.0000000000000000  0.0000000000000000
  0.0000000000000000  0.0000000000000000  0.0000000000000000
  0.0000000000000000  0.0000000000000000  0.0000000000000000
  0.0000000000000000  0.0000000000000000  0.0000000000000000
  0.0000000000000000  0.0000000000000000  0.0000000000000000
  0.0000000000000000  0.0000000000000000  0.0000000000000000
  0.0000000000000000  0.0000000000000000  0.0000000000000000
  0.0000000000000000  0.0000000000000000  0.0000000000000000
  0.0000000000000000  0.0000000000000000  0.0000000000000000
  0.0000000000000000  0.0000000000000000  0.0000000000000000
  0.0000000000000000  0.0000000000000000  0.0000000000000000
  0.0000000000000000  0.0000000000000000  0.0000000000000000
  0.0000000000000000  0.0000000000000000  0.0000000000000000
  0.0000000000000000  0.0000000000000000  0.0000000000000000
  0.0000000000000000  0.0000000000000000  0.0000000000000000
