C  N  H  Pb I                           
   1.0000000000000000     
     8.8210828611654915   -0.0607325960440300    0.0115852557261720
    -0.0607325960440300    8.9057588503519547    0.0622457142428702
     0.0081910379550096    0.0440091284949563    6.3236640767186021
  C               N               H               Pb              I             
     2     4    10     2     6
Direct
     0.5060099580697823    0.4981326712514260    0.5698996253918835
     0.0087594130255155    0.0079756973678826    0.5674958015493488
     0.5888058508334666    0.5945043174381937    0.4690017500825547
     0.4048853689900156    0.4087590070301061    0.4857789561603880
     0.0838209668189407    0.8995721250707192    0.4707933399687718
     0.9110872158329428    0.0963937007951117    0.4834476834635879
     0.5154840780044836    0.4910513349542356    0.7474976019154553
     0.6657021816358082    0.6572465312823113    0.5550987990601470
     0.5888058689926225    0.6092157853841158    0.3095842616383067
     0.3846168184335284    0.4034506959036150    0.3224942381225162
     0.3476884945027194    0.3373864004243288    0.5787262078213473
     0.0342931896238241    0.0274432534758304    0.7332795813432611
     0.1584402304574368    0.8378063086228877    0.5598325583324240
     0.0679375420520287    0.8708761250970340    0.3204054496084012
     0.8785889124615025    0.0857690261804080    0.3309780451197923
     0.8595401185452332    0.1744414425058878    0.5665626293153352
     0.9990103850560175    0.4970403999821258    0.9925604483619779
     0.4990507345237845    0.0038638737670027    0.9895359479325805
     0.9994456839024934    0.4996078942885092    0.4897633600357665
     0.4974110184670053    0.9963550589613490    0.4968139712725588
     0.2185643216915665    0.2200440310475358    0.9910267486007101
     0.2824689869211596    0.7191412900718390    0.9898946401483641
     0.7189670987405776    0.2819802257056239    0.9897088116760600
     0.7822186820724468    0.7805115651324357    0.9965201683800871

  0.00000000E+00  0.00000000E+00  0.00000000E+00
  0.00000000E+00  0.00000000E+00  0.00000000E+00
  0.00000000E+00  0.00000000E+00  0.00000000E+00
  0.00000000E+00  0.00000000E+00  0.00000000E+00
  0.00000000E+00  0.00000000E+00  0.00000000E+00
  0.00000000E+00  0.00000000E+00  0.00000000E+00
  0.00000000E+00  0.00000000E+00  0.00000000E+00
  0.00000000E+00  0.00000000E+00  0.00000000E+00
  0.00000000E+00  0.00000000E+00  0.00000000E+00
  0.00000000E+00  0.00000000E+00  0.00000000E+00
  0.00000000E+00  0.00000000E+00  0.00000000E+00
  0.00000000E+00  0.00000000E+00  0.00000000E+00
  0.00000000E+00  0.00000000E+00  0.00000000E+00
  0.00000000E+00  0.00000000E+00  0.00000000E+00
  0.00000000E+00  0.00000000E+00  0.00000000E+00
  0.00000000E+00  0.00000000E+00  0.00000000E+00
  0.00000000E+00  0.00000000E+00  0.00000000E+00
  0.00000000E+00  0.00000000E+00  0.00000000E+00
  0.00000000E+00  0.00000000E+00  0.00000000E+00
  0.00000000E+00  0.00000000E+00  0.00000000E+00
  0.00000000E+00  0.00000000E+00  0.00000000E+00
  0.00000000E+00  0.00000000E+00  0.00000000E+00
  0.00000000E+00  0.00000000E+00  0.00000000E+00
  0.00000000E+00  0.00000000E+00  0.00000000E+00
