C  N  H  Pb I 
 1.0000000000000000
     8.8210828611654915   -0.0607325960440300    0.0115852557261720
    -0.0607325960440300    8.9057588503519547    0.0622457142428702
     0.0081910379550096    0.0440091284949563    6.3236640767186021
 C   N   H   Pb  I  
   2   4  10   2   6
Direct
  0.5060099580697841  0.4981326712514242  0.5698996253918851
  0.0087594130255168  0.0079756973678856  0.5674958015493458
  0.5888058508334679  0.5945043174381934  0.4690017500825512
  0.4048853689900176  0.4087590070301028  0.4857789561603875
  0.0838209668189428  0.8995721250707159  0.4707933399687725
  0.9110872158329451  0.0963937007951144  0.4834476834635846
  0.5154840780044865  0.4910513349542324  0.7474976019154564
  0.6657021816358099  0.6572465312823081  0.5550987990601458
  0.5888058689926260  0.6092157853841184  0.3095842616383065
  0.3846168184335310  0.4034506959036179  0.3224942381225142
  0.3476884945027184  0.3373864004243302  0.5787262078213505
  0.0342931896238206  0.0274432534758274  0.7332795813432619
  0.1584402304574342  0.8378063086228857  0.5598325583324251
  0.0679375420520263  0.8708761250970307  0.3204054496084026
  0.8785889124615024  0.0857690261804114  0.3309780451197898
  0.8595401185452350  0.1744414425058887  0.5665626293153381
  0.9990103850560158  0.4970403999821233  0.9925604483619803
  0.4990507345237835  0.0038638737670045  0.9895359479325836
  0.9994456839024920  0.4996078942885102  0.4897633600357683
  0.4974110184670085  0.9963550589613488  0.4968139712725615
  0.2185643216915693  0.2200440310475377  0.9910267486007110
  0.2824689869211575  0.7191412900718414  0.9898946401483633
  0.7189670987405780  0.2819802257056257  0.9897088116760605
  0.7822186820724498  0.7805115651324366  0.9965201683800893
Cartesian
  0.0000000000000000  0.0000000000000000  0.0000000000000000
  0.0000000000000000  0.0000000000000000  0.0000000000000000
  0.0000000000000000  0.0000000000000000  0.0000000000000000
  0.0000000000000000  0.0000000000000000  0.0000000000000000
  0.0000000000000000  0.0000000000000000  0.0000000000000000
  0.0000000000000000  0.0000000000000000  0.0000000000000000
  0.0000000000000000  0.0000000000000000  0.0000000000000000
  0.0000000000000000  0.0000000000000000  0.0000000000000000
  0.0000000000000000  0.0000000000000000  0.0000000000000000
  0.0000000000000000  0.0000000000000000  0.0000000000000000
  0.0000000000000000  0.0000000000000000  0.0000000000000000
  0.0000000000000000  0.0000000000000000  0.0000000000000000
  0.0000000000000000  0.0000000000000000  0.0000000000000000
  0.0000000000000000  0.0000000000000000  0.0000000000000000
  0.0000000000000000  0.0000000000000000  0.0000000000000000
  0.0000000000000000  0.0000000000000000  0.0000000000000000
  0.0000000000000000  0.0000000000000000  0.0000000000000000
  0.0000000000000000  0.0000000000000000  0.0000000000000000
  0.0000000000000000  0.0000000000000000  0.0000000000000000
  0.0000000000000000  0.0000000000000000  0.0000000000000000
  0.0000000000000000  0.0000000000000000  0.0000000000000000
  0.0000000000000000  0.0000000000000000  0.0000000000000000
  0.0000000000000000  0.0000000000000000  0.0000000000000000
  0.0000000000000000  0.0000000000000000  0.0000000000000000
