C  N  H  Pb I 
 1.0000000000000000
     9.0867753675327148    0.0177101703854078   -0.0621780172115294
     0.0177101703854078    9.0080582980353547   -0.0238886192417774
    -0.0439612651619181   -0.0168897943668288    6.2572816812357059
 C   N   H   Pb  I  
   2   4  10   2   6
Direct
  0.5000018554397699  0.5000022537173051  0.5710180843918636
  0.0000007410375673  0.9999987646105946  0.5710173459562400
  0.5923581034953975  0.5923585163879727  0.4765803103999294
  0.4076407503633792  0.4076411399921032  0.4765811169345089
  0.0923596624104001  0.9076399465760634  0.4765807909973081
  0.9076407520067939  0.0923588334847715  0.4765810251555298
  0.5000002811686741  0.5000006754111794  0.7434031870421928
  0.6592043223742974  0.6592047228670137  0.5661117567204835
  0.6020540182598020  0.6020543629609086  0.3166118097023157
  0.3979460835827361  0.3979464056777409  0.3166130108747679
  0.3407963330843803  0.3407967026589521  0.5661133888189648
  0.0000003891983269  0.9999991386351891  0.7434028011511011
  0.1592037642541199  0.8407958108961849  0.5661101690442601
  0.1020541224786791  0.8979456517450162  0.3166108718828012
  0.8979457520127502  0.1020539951781196  0.3166116306627343
  0.8407959940430518  0.1592035362748205  0.5661129987487665
  0.9984355895019629  0.5035610641207724  0.9895812376934870
  0.5038037298823942  0.9995839002456191  0.9916211515156097
  0.9975079833770567  0.4943159001342817  0.4841408659304021
  0.4985652496138538  0.9956078095219763  0.4909969981555889
  0.2167828010141585  0.2152733447257990  0.9908242874264667
  0.2814002312328158  0.7163379065743931  0.9815227627339552
  0.7151412937121894  0.2769876984355337  0.9934184682961025
  0.7784456117767939  0.7749355262517782  0.9995850672020787
Cartesian
  0.0000000000000000  0.0000000000000000  0.0000000000000000
  0.0000000000000000  0.0000000000000000  0.0000000000000000
  0.0000000000000000  0.0000000000000000  0.0000000000000000
  0.0000000000000000  0.0000000000000000  0.0000000000000000
  0.0000000000000000  0.0000000000000000  0.0000000000000000
  0.0000000000000000  0.0000000000000000  0.0000000000000000
  0.0000000000000000  0.0000000000000000  0.0000000000000000
  0.0000000000000000  0.0000000000000000  0.0000000000000000
  0.0000000000000000  0.0000000000000000  0.0000000000000000
  0.0000000000000000  0.0000000000000000  0.0000000000000000
  0.0000000000000000  0.0000000000000000  0.0000000000000000
  0.0000000000000000  0.0000000000000000  0.0000000000000000
  0.0000000000000000  0.0000000000000000  0.0000000000000000
  0.0000000000000000  0.0000000000000000  0.0000000000000000
  0.0000000000000000  0.0000000000000000  0.0000000000000000
  0.0000000000000000  0.0000000000000000  0.0000000000000000
  0.0000000000000000  0.0000000000000000  0.0000000000000000
  0.0000000000000000  0.0000000000000000  0.0000000000000000
  0.0000000000000000  0.0000000000000000  0.0000000000000000
  0.0000000000000000  0.0000000000000000  0.0000000000000000
  0.0000000000000000  0.0000000000000000  0.0000000000000000
  0.0000000000000000  0.0000000000000000  0.0000000000000000
  0.0000000000000000  0.0000000000000000  0.0000000000000000
  0.0000000000000000  0.0000000000000000  0.0000000000000000
