C  N  H  Pb I                           
   1.0000000000000000     
     8.9783305911802547   -0.0461654097119806    0.0219134399109906
    -0.0449286757982092    8.8386090287709536   -0.0611772500000095
     0.0310895161293287   -0.0891838942607927   12.9830611945427421
  C               N               H               Pb              I             
     4     8    20     4    12
Direct
     0.4886371940371177    0.0542030912293257    0.2465948853898254
     0.0050311602143580    0.4500583414979360    0.7481187628605852
     0.9902830134097584    0.5170331579777070    0.2503428157299652
     0.4863290868856467    0.9625267371794735    0.7488192492310120
     0.6084443681864755    0.9983347941172838    0.1874514935439464
     0.0639967388426399    0.5781389464835769    0.7130735326471154
     0.0877590794463217    0.6178721184966136    0.2643866733519573
     0.6102091229653723    0.8818408225369794    0.7361389840859474
     0.3552895384311014    0.0072630468507526    0.2422035114084338
     0.8783277726231660    0.4052278578401456    0.7134793143139717
     0.9790312839400883    0.4218063468369664    0.1634006036553899
     0.4559927271491375    0.0859330647980840    0.6876414213524953
     0.5272821169974762    0.1349701748961394    0.3060447256392322
     0.0745104779940533    0.3688009618548378    0.7909893354472786
     0.9093666377802521    0.4833143338168284    0.3051330217259718
     0.4101902977675635    0.9266720289673387    0.8054115937994268
     0.7040832584587875    0.0514410744337397    0.1925634250152157
     0.1764943894150335    0.6100687597051007    0.7394172281896942
     0.0768591322614611    0.6712951587026836    0.3351279391109330
     0.6335650938303630    0.8002493561924311    0.7916776329934336
     0.5802672113042320    0.9262862350533467    0.1281301160082506
     0.0159054777683991    0.6594602477624818    0.6703940043720422
     0.1605606041588814    0.6456462749760803    0.2195063519652862
     0.6925056238994785    0.9222612509010375    0.6912421540233993
     0.3195334584693370    0.9337301645934701    0.1882408496532904
     0.8064261351216118    0.4692162603941412    0.6756996278438265
     0.0570696000702782    0.4465491144316118    0.0982978987966803
     0.5240996734054235    0.1298327808397204    0.6357877323402548
     0.2747069269756111    0.0512695852320846    0.2970173000271856
     0.8334861811935355    0.2949916752055799    0.7459181645923110
     0.8915789108122709    0.3454661648022395    0.1563465885836095
     0.3522584429489797    0.1309260615746766    0.6914641925584135
     0.4952405907482245    0.4830719537795503    0.9810128104549847
     0.9950642442710063    0.0145619478948902    0.4819277737020826
     0.9966041627963946    0.9900718507684658    0.9814366743564662
     0.5020165087825603    0.5176637490677791    0.4797691186189965
     0.7988569345775289    0.7114140172611982    0.5083039665879951
     0.9627404239145321    0.9979837170381458    0.2349250127561078
     0.7001014396744623    0.1946721253636241    0.9580930645097752
     0.2039681003695080    0.2883653830630450    0.0044746100174251
     0.2104549734862147    0.2944249609168779    0.4638636724968848
     0.2954593204318883    0.8028677370953545    0.4559321850392806
     0.7967585332367548    0.6914510815770569    0.9684093784127299
     0.7054979126586787    0.2098849170975257    0.5070687022217726
     0.4615846256752434    0.5049808540479361    0.7285454564431433
     0.0390974676965641    0.9975336636870225    0.7316998378463637
     0.2905420861375347    0.7859633382432847    0.0068570855908305
     0.5391464861343067    0.4942125798821877    0.2287280798192697

  0.00000000E+00  0.00000000E+00  0.00000000E+00
  0.00000000E+00  0.00000000E+00  0.00000000E+00
  0.00000000E+00  0.00000000E+00  0.00000000E+00
  0.00000000E+00  0.00000000E+00  0.00000000E+00
  0.00000000E+00  0.00000000E+00  0.00000000E+00
  0.00000000E+00  0.00000000E+00  0.00000000E+00
  0.00000000E+00  0.00000000E+00  0.00000000E+00
  0.00000000E+00  0.00000000E+00  0.00000000E+00
  0.00000000E+00  0.00000000E+00  0.00000000E+00
  0.00000000E+00  0.00000000E+00  0.00000000E+00
  0.00000000E+00  0.00000000E+00  0.00000000E+00
  0.00000000E+00  0.00000000E+00  0.00000000E+00
  0.00000000E+00  0.00000000E+00  0.00000000E+00
  0.00000000E+00  0.00000000E+00  0.00000000E+00
  0.00000000E+00  0.00000000E+00  0.00000000E+00
  0.00000000E+00  0.00000000E+00  0.00000000E+00
  0.00000000E+00  0.00000000E+00  0.00000000E+00
  0.00000000E+00  0.00000000E+00  0.00000000E+00
  0.00000000E+00  0.00000000E+00  0.00000000E+00
  0.00000000E+00  0.00000000E+00  0.00000000E+00
  0.00000000E+00  0.00000000E+00  0.00000000E+00
  0.00000000E+00  0.00000000E+00  0.00000000E+00
  0.00000000E+00  0.00000000E+00  0.00000000E+00
  0.00000000E+00  0.00000000E+00  0.00000000E+00
  0.00000000E+00  0.00000000E+00  0.00000000E+00
  0.00000000E+00  0.00000000E+00  0.00000000E+00
  0.00000000E+00  0.00000000E+00  0.00000000E+00
  0.00000000E+00  0.00000000E+00  0.00000000E+00
  0.00000000E+00  0.00000000E+00  0.00000000E+00
  0.00000000E+00  0.00000000E+00  0.00000000E+00
  0.00000000E+00  0.00000000E+00  0.00000000E+00
  0.00000000E+00  0.00000000E+00  0.00000000E+00
  0.00000000E+00  0.00000000E+00  0.00000000E+00
  0.00000000E+00  0.00000000E+00  0.00000000E+00
  0.00000000E+00  0.00000000E+00  0.00000000E+00
  0.00000000E+00  0.00000000E+00  0.00000000E+00
  0.00000000E+00  0.00000000E+00  0.00000000E+00
  0.00000000E+00  0.00000000E+00  0.00000000E+00
  0.00000000E+00  0.00000000E+00  0.00000000E+00
  0.00000000E+00  0.00000000E+00  0.00000000E+00
  0.00000000E+00  0.00000000E+00  0.00000000E+00
  0.00000000E+00  0.00000000E+00  0.00000000E+00
  0.00000000E+00  0.00000000E+00  0.00000000E+00
  0.00000000E+00  0.00000000E+00  0.00000000E+00
  0.00000000E+00  0.00000000E+00  0.00000000E+00
  0.00000000E+00  0.00000000E+00  0.00000000E+00
  0.00000000E+00  0.00000000E+00  0.00000000E+00
  0.00000000E+00  0.00000000E+00  0.00000000E+00
