C  N  H  Pb I 
 1.0000000000000000
     8.9783305911802547   -0.0461654097119806    0.0219134399109906
    -0.0449286757982092    8.8386090287709536   -0.0611772500000095
     0.0310895161293287   -0.0891838942607927   12.9830611945427421
 C   N   H   Pb  I  
   4   8  20   4  12
Direct
  0.4886371940371198  0.0542030912293225  0.2465948853898249
  0.0050311602143600  0.4500583414979354  0.7481187628605839
  0.9902830134097586  0.5170331579777078  0.2503428157299655
  0.4863290868856491  0.9625267371794745  0.7488192492310140
  0.6084443681864748  0.9983347941172810  0.1874514935439465
  0.0639967388426412  0.5781389464835760  0.7130735326471118
  0.0877590794463235  0.6178721184966143  0.2643866733519569
  0.6102091229653747  0.8818408225369813  0.7361389840859505
  0.3552895384310984  0.0072630468507513  0.2422035114084358
  0.8783277726231637  0.4052278578401426  0.7134793143139748
  0.9790312839400865  0.4218063468369655  0.1634006036553930
  0.4559927271491383  0.0859330647980837  0.6876414213524942
  0.5272821169974770  0.1349701748961397  0.3060447256392327
  0.0745104779940521  0.3688009618548402  0.7909893354472813
  0.9093666377802520  0.4833143338168280  0.3051330217259745
  0.4101902977675670  0.9266720289673406  0.8054115937994252
  0.7040832584587857  0.0514410744337409  0.1925634250152128
  0.1764943894150323  0.6100687597050999  0.7394172281896929
  0.0768591322614632  0.6712951587026859  0.3351279391109339
  0.6335650938303664  0.8002493561924341  0.7916776329934351
  0.5802672113042304  0.9262862350533485  0.1281301160082527
  0.0159054777684007  0.6594602477624835  0.6703940043720454
  0.1605606041588784  0.6456462749760782  0.2195063519652873
  0.6925056238994771  0.9222612509010389  0.6912421540234012
  0.3195334584693336  0.9337301645934699  0.1882408496532886
  0.8064261351216114  0.4692162603941377  0.6756996278438289
  0.0570696000702813  0.4465491144316141  0.0982978987966831
  0.5240996734054223  0.1298327808397213  0.6357877323402537
  0.2747069269756089  0.0512695852320854  0.2970173000271859
  0.8334861811935355  0.2949916752055796  0.7459181645923145
  0.8915789108122738  0.3454661648022389  0.1563465885836125
  0.3522584429489823  0.1309260615746768  0.6914641925584140
  0.4952405907482250  0.4830719537795474  0.9810128104549865
  0.9950642442710030  0.0145619478948884  0.4819277737020815
  0.9966041627963954  0.9900718507684679  0.9814366743564642
  0.5020165087825574  0.5176637490677759  0.4797691186189977
  0.7988569345775322  0.7114140172612017  0.5083039665879944
  0.9627404239145321  0.9979837170381451  0.2349250127561077
  0.7001014396744615  0.1946721253636246  0.9580930645097774
  0.2039681003695108  0.2883653830630484  0.0044746100174229
  0.2104549734862182  0.2944249609168780  0.4638636724968833
  0.2954593204318902  0.8028677370953521  0.4559321850392775
  0.7967585332367536  0.6914510815770583  0.9684093784127334
  0.7054979126586761  0.2098849170975279  0.5070687022217700
  0.4615846256752418  0.5049808540479366  0.7285454564431423
  0.0390974676965661  0.9975336636870199  0.7316998378463609
  0.2905420861375364  0.7859633382432837  0.0068570855908325
  0.5391464861343090  0.4942125798821912  0.2287280798192665
Cartesian
  0.0000000000000000  0.0000000000000000  0.0000000000000000
  0.0000000000000000  0.0000000000000000  0.0000000000000000
  0.0000000000000000  0.0000000000000000  0.0000000000000000
  0.0000000000000000  0.0000000000000000  0.0000000000000000
  0.0000000000000000  0.0000000000000000  0.0000000000000000
  0.0000000000000000  0.0000000000000000  0.0000000000000000
  0.0000000000000000  0.0000000000000000  0.0000000000000000
  0.0000000000000000  0.0000000000000000  0.0000000000000000
  0.0000000000000000  0.0000000000000000  0.0000000000000000
  0.0000000000000000  0.0000000000000000  0.0000000000000000
  0.0000000000000000  0.0000000000000000  0.0000000000000000
  0.0000000000000000  0.0000000000000000  0.0000000000000000
  0.0000000000000000  0.0000000000000000  0.0000000000000000
  0.0000000000000000  0.0000000000000000  0.0000000000000000
  0.0000000000000000  0.0000000000000000  0.0000000000000000
  0.0000000000000000  0.0000000000000000  0.0000000000000000
  0.0000000000000000  0.0000000000000000  0.0000000000000000
  0.0000000000000000  0.0000000000000000  0.0000000000000000
  0.0000000000000000  0.0000000000000000  0.0000000000000000
  0.0000000000000000  0.0000000000000000  0.0000000000000000
  0.0000000000000000  0.0000000000000000  0.0000000000000000
  0.0000000000000000  0.0000000000000000  0.0000000000000000
  0.0000000000000000  0.0000000000000000  0.0000000000000000
  0.0000000000000000  0.0000000000000000  0.0000000000000000
  0.0000000000000000  0.0000000000000000  0.0000000000000000
  0.0000000000000000  0.0000000000000000  0.0000000000000000
  0.0000000000000000  0.0000000000000000  0.0000000000000000
  0.0000000000000000  0.0000000000000000  0.0000000000000000
  0.0000000000000000  0.0000000000000000  0.0000000000000000
  0.0000000000000000  0.0000000000000000  0.0000000000000000
  0.0000000000000000  0.0000000000000000  0.0000000000000000
  0.0000000000000000  0.0000000000000000  0.0000000000000000
  0.0000000000000000  0.0000000000000000  0.0000000000000000
  0.0000000000000000  0.0000000000000000  0.0000000000000000
  0.0000000000000000  0.0000000000000000  0.0000000000000000
  0.0000000000000000  0.0000000000000000  0.0000000000000000
  0.0000000000000000  0.0000000000000000  0.0000000000000000
  0.0000000000000000  0.0000000000000000  0.0000000000000000
  0.0000000000000000  0.0000000000000000  0.0000000000000000
  0.0000000000000000  0.0000000000000000  0.0000000000000000
  0.0000000000000000  0.0000000000000000  0.0000000000000000
  0.0000000000000000  0.0000000000000000  0.0000000000000000
  0.0000000000000000  0.0000000000000000  0.0000000000000000
  0.0000000000000000  0.0000000000000000  0.0000000000000000
  0.0000000000000000  0.0000000000000000  0.0000000000000000
  0.0000000000000000  0.0000000000000000  0.0000000000000000
  0.0000000000000000  0.0000000000000000  0.0000000000000000
  0.0000000000000000  0.0000000000000000  0.0000000000000000
