C  N  H  Pb I                           
   1.0000000000000000     
     8.9515839677080429    0.0000000000000000    0.0000000000000000
     0.0000000000000000    8.9515839677080429    0.0000000000000000
     0.0000000000000000    0.0000000000000000    6.3289724258144924
  C               N               H               Pb              I             
     2     4    10     2     6
Direct
     0.4956740220318636    0.4991643766587757    0.5663118195689165
     0.0000754738961604    0.0013336407032014    0.5740868083048341
     0.5888823409620443    0.5976212356475159    0.4810058145271157
     0.4079319187705153    0.4111930086909155    0.4761783796799577
     0.0947451015377112    0.9009932367876985    0.4692853041205254
     0.9092447707102451    0.0893265470416296    0.4697377974118524
     0.4968576668050204    0.5006320491215988    0.7466317447770479
     0.6575056142605575    0.6577964997319938    0.5634405454739095
     0.6005036614985215    0.6016916322584933    0.3177572044719881
     0.3996009612972244    0.4018710788278597    0.3192959167025649
     0.3410066128928264    0.3392968249525126    0.5668395172943477
     0.0022794912274762    0.9992859257959452    0.7396147154368364
     0.1554591616237815    0.8415759078527287    0.5667202111397884
     0.0969315880594763    0.9004552562052837    0.3173366036990899
     0.9007524640442952    0.1035807784553668    0.3141808048744963
     0.8422901435434298    0.1599933613785680    0.5713767734468078
     0.9967665731581050    0.4949014802800633    0.9946287775588090
     0.4975524272214713    0.9986839805875292    0.9914584061513025
     0.9962375983739662    0.5022682312461626    0.4814146332294840
     0.5056625127239087    0.0034375057513429    0.4921320663879811
     0.2153664752273485    0.2175008334060919    0.9954537396854164
     0.2806032150656250    0.7189992596250505    0.9872374685771277
     0.7190514112038002    0.2758940428134196    0.9900960506587424
     0.7779896051171207    0.7751985430295747    0.9907298658222814

  0.00000000E+00  0.00000000E+00  0.00000000E+00
  0.00000000E+00  0.00000000E+00  0.00000000E+00
  0.00000000E+00  0.00000000E+00  0.00000000E+00
  0.00000000E+00  0.00000000E+00  0.00000000E+00
  0.00000000E+00  0.00000000E+00  0.00000000E+00
  0.00000000E+00  0.00000000E+00  0.00000000E+00
  0.00000000E+00  0.00000000E+00  0.00000000E+00
  0.00000000E+00  0.00000000E+00  0.00000000E+00
  0.00000000E+00  0.00000000E+00  0.00000000E+00
  0.00000000E+00  0.00000000E+00  0.00000000E+00
  0.00000000E+00  0.00000000E+00  0.00000000E+00
  0.00000000E+00  0.00000000E+00  0.00000000E+00
  0.00000000E+00  0.00000000E+00  0.00000000E+00
  0.00000000E+00  0.00000000E+00  0.00000000E+00
  0.00000000E+00  0.00000000E+00  0.00000000E+00
  0.00000000E+00  0.00000000E+00  0.00000000E+00
  0.00000000E+00  0.00000000E+00  0.00000000E+00
  0.00000000E+00  0.00000000E+00  0.00000000E+00
  0.00000000E+00  0.00000000E+00  0.00000000E+00
  0.00000000E+00  0.00000000E+00  0.00000000E+00
  0.00000000E+00  0.00000000E+00  0.00000000E+00
  0.00000000E+00  0.00000000E+00  0.00000000E+00
  0.00000000E+00  0.00000000E+00  0.00000000E+00
  0.00000000E+00  0.00000000E+00  0.00000000E+00
