C  N  H  Pb I 
 1.0000000000000000
     8.9515839677080429    0.0000000000000000    0.0000000000000000
     0.0000000000000000    8.9515839677080429    0.0000000000000000
     0.0000000000000000    0.0000000000000000    6.3289724258144924
 C   N   H   Pb  I  
   2   4  10   2   6
Direct
  0.4956740220318611  0.4991643766587746  0.5663118195689155
  0.0000754738961595  0.0013336407032041  0.5740868083048373
  0.5888823409620418  0.5976212356475155  0.4810058145271179
  0.4079319187705175  0.4111930086909141  0.4761783796799593
  0.0947451015377119  0.9009932367876992  0.4692853041205250
  0.9092447707102485  0.0893265470416330  0.4697377974118533
  0.4968576668050239  0.5006320491215961  0.7466317447770496
  0.6575056142605546  0.6577964997319942  0.5634405454739114
  0.6005036614985206  0.6016916322584903  0.3177572044719891
  0.3996009612972231  0.4018710788278569  0.3192959167025641
  0.3410066128928244  0.3392968249525157  0.5668395172943486
  0.0022794912274734  0.9992859257959458  0.7396147154368359
  0.1554591616237788  0.8415759078527302  0.5667202111397851
  0.0969315880594735  0.9004552562052837  0.3173366036990913
  0.9007524640442933  0.1035807784553658  0.3141808048744936
  0.8422901435434302  0.1599933613785689  0.5713767734468103
  0.9967665731581026  0.4949014802800644  0.9946287775588124
  0.4975524272214710  0.9986839805875287  0.9914584061513012
  0.9962375983739667  0.5022682312461619  0.4814146332294861
  0.5056625127239088  0.0034375057513435  0.4921320663879845
  0.2153664752273468  0.2175008334060893  0.9954537396854192
  0.2806032150656266  0.7189992596250528  0.9872374685771261
  0.7190514112038017  0.2758940428134204  0.9900960506587403
  0.7779896051171206  0.7751985430295754  0.9907298658222827
Cartesian
  0.0000000000000000  0.0000000000000000  0.0000000000000000
  0.0000000000000000  0.0000000000000000  0.0000000000000000
  0.0000000000000000  0.0000000000000000  0.0000000000000000
  0.0000000000000000  0.0000000000000000  0.0000000000000000
  0.0000000000000000  0.0000000000000000  0.0000000000000000
  0.0000000000000000  0.0000000000000000  0.0000000000000000
  0.0000000000000000  0.0000000000000000  0.0000000000000000
  0.0000000000000000  0.0000000000000000  0.0000000000000000
  0.0000000000000000  0.0000000000000000  0.0000000000000000
  0.0000000000000000  0.0000000000000000  0.0000000000000000
  0.0000000000000000  0.0000000000000000  0.0000000000000000
  0.0000000000000000  0.0000000000000000  0.0000000000000000
  0.0000000000000000  0.0000000000000000  0.0000000000000000
  0.0000000000000000  0.0000000000000000  0.0000000000000000
  0.0000000000000000  0.0000000000000000  0.0000000000000000
  0.0000000000000000  0.0000000000000000  0.0000000000000000
  0.0000000000000000  0.0000000000000000  0.0000000000000000
  0.0000000000000000  0.0000000000000000  0.0000000000000000
  0.0000000000000000  0.0000000000000000  0.0000000000000000
  0.0000000000000000  0.0000000000000000  0.0000000000000000
  0.0000000000000000  0.0000000000000000  0.0000000000000000
  0.0000000000000000  0.0000000000000000  0.0000000000000000
  0.0000000000000000  0.0000000000000000  0.0000000000000000
  0.0000000000000000  0.0000000000000000  0.0000000000000000
