C  N  H  Pb I                           
   1.0000000000000000     
     8.9515839677080429    0.0000000000000000    0.0000000000000000
     0.0000000000000000    8.9515839677080429    0.0000000000000000
     0.0000000000000000    0.0000000000000000    6.3289724258144924
  C               N               H               Pb              I             
     2     4    10     2     6
Direct
     0.4891604166063459    0.4950653740941817    0.5773279953411290
     0.9930852358468698    0.9961678313762974    0.5596214954286864
     0.5864566178682438    0.5951071318282928    0.4769923522249897
     0.4053788883471654    0.4081834000370534    0.4855702278327314
     0.0969299656880480    0.9061755660876898    0.4702577655097002
     0.9130480497797038    0.0975638294530938    0.4741468497500776
     0.5010016413841925    0.4936053421115147    0.7405210715627248
     0.6528878263369577    0.6595271836074659    0.5552034367516896
     0.6013144241418189    0.6184112894185745    0.3349619800036692
     0.3940326632905879    0.4014954230029417    0.3086334040534311
     0.3440245481226754    0.3469699686477270    0.5762144920220038
     0.0018577012661964    0.0109305959545054    0.7409360506598901
     0.1609808304185734    0.8403907474582155    0.5549442562097155
     0.0984110200727599    0.8978240984724906    0.3190836058480286
     0.9042682777824993    0.1019622019042572    0.3222590982709121
     0.8446491724470064    0.1646205552269251    0.5722474447565062
     0.9972407348066881    0.5054265157496403    0.9971576337526002
     0.5042881871718237    0.9995843230521615    0.0013017774420305
     0.9921766351161168    0.5016262506403635    0.4968142317208759
     0.4876513739631463    0.9883183474968931    0.4883270731074987
     0.2218759536124608    0.2002440423110272    0.9942985157651023
     0.2881961570253324    0.7317804831947043    0.0113584214278575
     0.7239794188383470    0.2824755153616323    0.9755535236183519
     0.7807814259573576    0.7728883935946342    0.0010908655857023

  0.00000000E+00  0.00000000E+00  0.00000000E+00
  0.00000000E+00  0.00000000E+00  0.00000000E+00
  0.00000000E+00  0.00000000E+00  0.00000000E+00
  0.00000000E+00  0.00000000E+00  0.00000000E+00
  0.00000000E+00  0.00000000E+00  0.00000000E+00
  0.00000000E+00  0.00000000E+00  0.00000000E+00
  0.00000000E+00  0.00000000E+00  0.00000000E+00
  0.00000000E+00  0.00000000E+00  0.00000000E+00
  0.00000000E+00  0.00000000E+00  0.00000000E+00
  0.00000000E+00  0.00000000E+00  0.00000000E+00
  0.00000000E+00  0.00000000E+00  0.00000000E+00
  0.00000000E+00  0.00000000E+00  0.00000000E+00
  0.00000000E+00  0.00000000E+00  0.00000000E+00
  0.00000000E+00  0.00000000E+00  0.00000000E+00
  0.00000000E+00  0.00000000E+00  0.00000000E+00
  0.00000000E+00  0.00000000E+00  0.00000000E+00
  0.00000000E+00  0.00000000E+00  0.00000000E+00
  0.00000000E+00  0.00000000E+00  0.00000000E+00
  0.00000000E+00  0.00000000E+00  0.00000000E+00
  0.00000000E+00  0.00000000E+00  0.00000000E+00
  0.00000000E+00  0.00000000E+00  0.00000000E+00
  0.00000000E+00  0.00000000E+00  0.00000000E+00
  0.00000000E+00  0.00000000E+00  0.00000000E+00
  0.00000000E+00  0.00000000E+00  0.00000000E+00
