C  N  H  Pb I 
 1.0000000000000000
     8.9515839677080429    0.0000000000000000    0.0000000000000000
     0.0000000000000000    8.9515839677080429    0.0000000000000000
     0.0000000000000000    0.0000000000000000    6.3289724258144924
 C   N   H   Pb  I  
   2   4  10   2   6
Direct
  0.4891604166063427  0.4950653740941833  0.5773279953411320
  0.9930852358468724  0.9961678313763009  0.5596214954286892
  0.5864566178682414  0.5951071318282920  0.4769923522249929
  0.4053788883471687  0.4081834000370504  0.4855702278327347
  0.0969299656880504  0.9061755660876931  0.4702577655096998
  0.9130480497797040  0.0975638294530903  0.4741468497500798
  0.5010016413841916  0.4936053421115157  0.7405210715627275
  0.6528878263369592  0.6595271836074639  0.5552034367516868
  0.6013144241418219  0.6184112894185767  0.3349619800036687
  0.3940326632905909  0.4014954230029416  0.3086334040534292
  0.3440245481226768  0.3469699686477268  0.5762144920220015
  0.0018577012661993  0.0109305959545059  0.7409360506598910
  0.1609808304185721  0.8403907474582143  0.5549442562097187
  0.0984110200727577  0.8978240984724939  0.3190836058480296
  0.9042682777824980  0.1019622019042546  0.3222590982709128
  0.8446491724470044  0.1646205552269265  0.5722474447565086
  0.9972407348066898  0.5054265157496414  0.9971576337525974
  0.5042881871718222  0.9995843230521644  0.0013017774420295
  0.9921766351161165  0.5016262506403644  0.4968142317208790
  0.4876513739631465  0.9883183474968954  0.4883270731074967
  0.2218759536124597  0.2002440423110286  0.9942985157651035
  0.2881961570253307  0.7317804831947060  0.0113584214278547
  0.7239794188383442  0.2824755153616330  0.9755535236183500
  0.7807814259573560  0.7728883935946310  0.0010908655857028
Cartesian
  0.0000000000000000  0.0000000000000000  0.0000000000000000
  0.0000000000000000  0.0000000000000000  0.0000000000000000
  0.0000000000000000  0.0000000000000000  0.0000000000000000
  0.0000000000000000  0.0000000000000000  0.0000000000000000
  0.0000000000000000  0.0000000000000000  0.0000000000000000
  0.0000000000000000  0.0000000000000000  0.0000000000000000
  0.0000000000000000  0.0000000000000000  0.0000000000000000
  0.0000000000000000  0.0000000000000000  0.0000000000000000
  0.0000000000000000  0.0000000000000000  0.0000000000000000
  0.0000000000000000  0.0000000000000000  0.0000000000000000
  0.0000000000000000  0.0000000000000000  0.0000000000000000
  0.0000000000000000  0.0000000000000000  0.0000000000000000
  0.0000000000000000  0.0000000000000000  0.0000000000000000
  0.0000000000000000  0.0000000000000000  0.0000000000000000
  0.0000000000000000  0.0000000000000000  0.0000000000000000
  0.0000000000000000  0.0000000000000000  0.0000000000000000
  0.0000000000000000  0.0000000000000000  0.0000000000000000
  0.0000000000000000  0.0000000000000000  0.0000000000000000
  0.0000000000000000  0.0000000000000000  0.0000000000000000
  0.0000000000000000  0.0000000000000000  0.0000000000000000
  0.0000000000000000  0.0000000000000000  0.0000000000000000
  0.0000000000000000  0.0000000000000000  0.0000000000000000
  0.0000000000000000  0.0000000000000000  0.0000000000000000
  0.0000000000000000  0.0000000000000000  0.0000000000000000
