48
Lattice="9.01938999317578 0.0 0.0 0.0 8.777767844565316 0.0 0.0 0.0 12.796186806294449" Properties=species:S:1:pos:R:3:momenta:R:3 config_id=O-FAPI3_small_rotation_01 phase=O-FAPI3 mode=small_rotation seed=117086298 source=O-FAPI3/CONTCAR pbc="T T T"
C        4.59594120       0.32708868       3.17392490       0.00000000       0.00000000       0.00000000
C        0.07174524       4.03166402       9.56636042       0.00000000       0.00000000       0.00000000
C        8.90880509       4.76144908       3.11936895       0.00000000       0.00000000       0.00000000
C        4.43794979       8.42054792       9.56636048       0.00000000       0.00000000       0.00000000
N        5.10203750       8.20376921       2.36575837       0.00000000       0.00000000       0.00000000
N        0.63672090       4.95560973       8.82585276       0.00000000       0.00000000       0.00000000
N        1.14199689       5.15373406       3.16408218       0.00000000       0.00000000       0.00000000
N        5.69153871       8.04131766       9.46865213       0.00000000       0.00000000       0.00000000
N        3.36002134       0.76892012       3.12771962       0.00000000       0.00000000       0.00000000
N        7.83754632       3.65243376       9.46865215       0.00000000       0.00000000       0.00000000
N        8.45506381       3.78089348       2.37515490       0.00000000       0.00000000       0.00000000
N        3.87297416       0.56672577       8.82585280       0.00000000       0.00000000       0.00000000
H        5.24967673       0.73890678       3.94905489       0.00000000       0.00000000       0.00000000
H        0.68832651       3.54269529      10.32697070       0.00000000       0.00000000       0.00000000
H        8.19216542       5.29008837       3.75557553       0.00000000       0.00000000       0.00000000
H        3.82136857       7.93157924      10.32697083       0.00000000       0.00000000       0.00000000
H        6.09586766       7.97509441       2.44000400       0.00000000       0.00000000       0.00000000
H        1.63810518       5.13205364       8.93355632       0.00000000       0.00000000       0.00000000
H        1.42114164       5.88664378       3.82052988       0.00000000       0.00000000       0.00000000
H        6.06774094       7.35715222      10.12925155       0.00000000       0.00000000       0.00000000
H        4.55222040       7.78821866       1.60778685       0.00000000       0.00000000       0.00000000
H        0.12370953       5.44233472       8.08462394       0.00000000       0.00000000       0.00000000
H        1.87608640       4.70748953       2.61614870       0.00000000       0.00000000       0.00000000
H        6.33853940       8.45426265       8.79848842       0.00000000       0.00000000       0.00000000
H        2.68126583       0.42866934       2.44818067       0.00000000       0.00000000       0.00000000
H        7.19054559       4.06537885       8.79848849       0.00000000       0.00000000       0.00000000
H        0.04706570       3.25409665       1.74413435       0.00000000       0.00000000       0.00000000
H        4.38598548       1.05345074       8.08462396       0.00000000       0.00000000       0.00000000
H        3.02955315       1.42723528       3.83723634       0.00000000       0.00000000       0.00000000
H        7.46134412       2.96826826      10.12925150       0.00000000       0.00000000       0.00000000
H        7.44958811       3.59570553       2.36008674       0.00000000       0.00000000       0.00000000
H        2.87158987       0.74316970       8.93355639       0.00000000       0.00000000       0.00000000
Pb       4.53083800       4.28292591      12.55414679       0.00000000       0.00000000       0.00000000
Pb       0.02114306       0.10595805       6.15605336       0.00000000       0.00000000       0.00000000
Pb       8.99824696       8.67180981      12.55414682       0.00000000       0.00000000       0.00000000
Pb       4.48855201       4.49484198       6.15605338       0.00000000       0.00000000       0.00000000
I        7.17846840       6.23686154       6.43993606       0.00000000       0.00000000       0.00000000
I        8.66456559       8.72915931       2.96947357       0.00000000       0.00000000       0.00000000
I        6.36795418       1.71737741      12.30292202       0.00000000       0.00000000       0.00000000
I        1.84092141       2.54090661       0.04184266       0.00000000       0.00000000       0.00000000
I        1.85825931       2.67150641       5.90482872       0.00000000       0.00000000       0.00000000
I        2.65143571       7.06039039       5.90482875       0.00000000       0.00000000       0.00000000
I        7.16113085       6.10626132      12.30292208       0.00000000       0.00000000       0.00000000
I        6.35061657       1.84797759       6.43993602       0.00000000       0.00000000       0.00000000
I        4.15487051       4.43749223       9.36756700       0.00000000       0.00000000       0.00000000
I        0.35482441       0.04860842       9.36756694       0.00000000       0.00000000       0.00000000
I        2.66877356       6.92979047       0.04184262       0.00000000       0.00000000       0.00000000
I        4.86451931       4.34027537       2.96947354       0.00000000       0.00000000       0.00000000
48
Lattice="9.01938999317578 0.0 0.0 0.0 8.777767844565316 0.0 0.0 0.0 12.796186806294449" Properties=species:S:1:pos:R:3:momenta:R:3 config_id=O-FAPI3_small_rotation_02 phase=O-FAPI3 mode=small_rotation seed=3815716637 source=O-FAPI3/CONTCAR pbc="T T T"
C        4.58144029       0.35721994       3.16826706       0.00000000       0.00000000       0.00000000
C        0.07174524       4.03166402       9.56636042       0.00000000       0.00000000       0.00000000
C        8.94764466       4.74610384       3.16826714       0.00000000       0.00000000       0.00000000
C        4.43847572       8.41557483       9.56351309       0.00000000       0.00000000       0.00000000
N        5.14641592       8.21104204       2.42775928       0.00000000       0.00000000       0.00000000
N        0.63672090       4.95560973       8.82585276       0.00000000       0.00000000       0.00000000
N        1.18184367       5.12533409       3.07055868       0.00000000       0.00000000       0.00000000
N        5.69047589       8.03445170       9.45356558       0.00000000       0.00000000       0.00000000
N        3.32785132       0.73645021       3.07055870       0.00000000       0.00000000       0.00000000
N        7.83754632       3.65243376       9.46865215       0.00000000       0.00000000       0.00000000
N        8.38266906       3.82215805       2.42775938       0.00000000       0.00000000       0.00000000
N        3.87360066       0.57775957       8.84335336       0.00000000       0.00000000       0.00000000
H        5.19802154       0.84618877       3.92887723       0.00000000       0.00000000       0.00000000
H        0.68832651       3.54269529      10.32697070       0.00000000       0.00000000       0.00000000
H        8.33106347       5.23507262       3.92887735       0.00000000       0.00000000       0.00000000
H        3.82326163       7.91377225      10.31683685       0.00000000       0.00000000       0.00000000
H        6.14780018       8.03459813       2.53546294       0.00000000       0.00000000       0.00000000
H        1.63810518       5.13205364       8.93355632       0.00000000       0.00000000       0.00000000
H        1.55804586       5.80949951       3.73115812       0.00000000       0.00000000       0.00000000
H        6.06703320       7.33637416      10.09923918       0.00000000       0.00000000       0.00000000
H        4.63340450       7.72431708       1.68653056       0.00000000       0.00000000       0.00000000
H        0.12370953       5.44233472       8.08462394       0.00000000       0.00000000       0.00000000
H        1.82884427       4.71238905       2.40039504       0.00000000       0.00000000       0.00000000
H        6.33621416       8.45838750       8.78907075       0.00000000       0.00000000       0.00000000
H        2.68085064       0.32350507       2.40039511       0.00000000       0.00000000       0.00000000
H        7.19054559       4.06537885       8.79848849       0.00000000       0.00000000       0.00000000
H        8.89568041       3.33543309       1.68653065       0.00000000       0.00000000       0.00000000
H        4.38531309       1.07726081       8.10976567       0.00000000       0.00000000       0.00000000
H        2.95164911       1.42061566       3.73115812       0.00000000       0.00000000       0.00000000
H        7.46134412       2.96826826      10.12925150       0.00000000       0.00000000       0.00000000
H        7.38128478       3.64571414       2.53546309       0.00000000       0.00000000       0.00000000
H        2.87319857       0.75516190       8.95836255       0.00000000       0.00000000       0.00000000
Pb       4.53083800       4.28292591      12.55414679       0.00000000       0.00000000       0.00000000
Pb       0.02114306       0.10595805       6.15605336       0.00000000       0.00000000       0.00000000
Pb       8.99824696       8.67180981      12.55414682       0.00000000       0.00000000       0.00000000
Pb       4.48855201       4.49484198       6.15605338       0.00000000       0.00000000       0.00000000
I        7.17846840       6.23686154       6.43993606       0.00000000       0.00000000       0.00000000
I        8.66456559       8.72915931       2.96947357       0.00000000       0.00000000       0.00000000
I        6.36795418       1.71737741      12.30292202       0.00000000       0.00000000       0.00000000
I        1.84092141       2.54090661       0.04184266       0.00000000       0.00000000       0.00000000
I        1.85825931       2.67150641       5.90482872       0.00000000       0.00000000       0.00000000
I        2.65143571       7.06039039       5.90482875       0.00000000       0.00000000       0.00000000
I        7.16113085       6.10626132      12.30292208       0.00000000       0.00000000       0.00000000
I        6.35061657       1.84797759       6.43993602       0.00000000       0.00000000       0.00000000
I        4.15487051       4.43749223       9.36756700       0.00000000       0.00000000       0.00000000
I        0.35482441       0.04860842       9.36756694       0.00000000       0.00000000       0.00000000
I        2.66877356       6.92979047       0.04184262       0.00000000       0.00000000       0.00000000
I        4.86451931       4.34027537       2.96947354       0.00000000       0.00000000       0.00000000
48
Lattice="9.01938999317578 0.0 0.0 0.0 8.777767844565316 0.0 0.0 0.0 12.796186806294449" Properties=species:S:1:pos:R:3:momenta:R:3 config_id=O-FAPI3_small_rotation_03 phase=O-FAPI3 mode=small_rotation seed=2763444321 source=O-FAPI3/CONTCAR pbc="T T T"
C        4.59219426       0.34133223       3.16909602       0.00000000       0.00000000       0.00000000
C        0.05774418       3.96691747       9.52567467       0.00000000       0.00000000       0.00000000
C        8.94232806       4.74996359       3.16123448       0.00000000       0.00000000       0.00000000
C        4.51985202       8.34902155       9.56735203       0.00000000       0.00000000       0.00000000
N        5.11867193       8.20728359       2.38638477       0.00000000       0.00000000       0.00000000
N        0.69841386       4.92535659       8.89944661       0.00000000       0.00000000       0.00000000
N        1.17370174       5.13986821       3.06951467       0.00000000       0.00000000       0.00000000
N        5.80429017       8.26152622       9.30771591       0.00000000       0.00000000       0.00000000
N        3.34655560       0.75349402       3.11117524       0.00000000       0.00000000       0.00000000
N        7.78771551       3.73679776       9.42927925       0.00000000       0.00000000       0.00000000
N        8.39527716       3.80438192       2.43471152       0.00000000       0.00000000       0.00000000
N        3.69138045       0.40618313       8.98618731       0.00000000       0.00000000       0.00000000
H        5.23636838       0.78961465       3.93190227       0.00000000       0.00000000       0.00000000
H        0.63877713       3.31211028      10.18249971       0.00000000       0.00000000       0.00000000
H        8.31209789       5.24896576       3.90393057       0.00000000       0.00000000       0.00000000
H        4.11303207       7.67776288      10.33004476       0.00000000       0.00000000       0.00000000
H        6.11743847       8.00343085       2.46646241       0.00000000       0.00000000       0.00000000
H        1.71558864       4.98040505       8.98792334       0.00000000       0.00000000       0.00000000
H        1.53533571       5.84205941       3.71924572       0.00000000       0.00000000       0.00000000
H        6.39013625       7.62504991       9.85332047       0.00000000       0.00000000       0.00000000
H        4.57847345       7.75811620       1.64077348       0.00000000       0.00000000       0.00000000
H        0.22060047       5.56449634       8.25703180       0.00000000       0.00000000       0.00000000
H        1.83253649       4.71914577       2.41592298       0.00000000       0.00000000       0.00000000
H        6.26717547       0.08043836       8.62363765       0.00000000       0.00000000       0.00000000
H        2.67573743       0.37886244       2.44191672       0.00000000       0.00000000       0.00000000
H        7.17075229       4.30681390       8.85248558       0.00000000       0.00000000       0.00000000
H        8.92170265       3.30697763       1.71016543       0.00000000       0.00000000       0.00000000
H        4.00040511       1.05110592       8.25264769       0.00000000       0.00000000       0.00000000
H        3.00118176       1.42390211       3.80202397       0.00000000       0.00000000       0.00000000
H        7.35830999       3.00648852      10.00222021       0.00000000       0.00000000       0.00000000
H        7.39453566       3.62001877       2.53485992       0.00000000       0.00000000       0.00000000
H        2.69517557       0.35066681       9.20978695       0.00000000       0.00000000       0.00000000
Pb       4.53083800       4.28292591      12.55414679       0.00000000       0.00000000       0.00000000
Pb       0.02114306       0.10595805       6.15605336       0.00000000       0.00000000       0.00000000
Pb       8.99824696       8.67180981      12.55414682       0.00000000       0.00000000       0.00000000
Pb       4.48855201       4.49484198       6.15605338       0.00000000       0.00000000       0.00000000
I        7.17846840       6.23686154       6.43993606       0.00000000       0.00000000       0.00000000
I        8.66456559       8.72915931       2.96947357       0.00000000       0.00000000       0.00000000
I        6.36795418       1.71737741      12.30292202       0.00000000       0.00000000       0.00000000
I        1.84092141       2.54090661       0.04184266       0.00000000       0.00000000       0.00000000
I        1.85825931       2.67150641       5.90482872       0.00000000       0.00000000       0.00000000
I        2.65143571       7.06039039       5.90482875       0.00000000       0.00000000       0.00000000
I        7.16113085       6.10626132      12.30292208       0.00000000       0.00000000       0.00000000
I        6.35061657       1.84797759       6.43993602       0.00000000       0.00000000       0.00000000
I        4.15487051       4.43749223       9.36756700       0.00000000       0.00000000       0.00000000
I        0.35482441       0.04860842       9.36756694       0.00000000       0.00000000       0.00000000
I        2.66877356       6.92979047       0.04184262       0.00000000       0.00000000       0.00000000
I        4.86451931       4.34027537       2.96947354       0.00000000       0.00000000       0.00000000
48
Lattice="9.01938999317578 0.0 0.0 0.0 8.777767844565316 0.0 0.0 0.0 12.796186806294449" Properties=species:S:1:pos:R:3:momenta:R:3 config_id=O-FAPI3_small_rotation_04 phase=O-FAPI3 mode=small_rotation seed=343322148 source=O-FAPI3/CONTCAR pbc="T T T"
C        4.58144029       0.35721994       3.16826706       0.00000000       0.00000000       0.00000000
C        0.07174524       4.03166402       9.56636042       0.00000000       0.00000000       0.00000000
C        8.94764466       4.74610384       3.16826714       0.00000000       0.00000000       0.00000000
C        4.44456736       8.41243321       9.56635814       0.00000000       0.00000000       0.00000000
N        5.14641592       8.21104204       2.42775928       0.00000000       0.00000000       0.00000000
N        0.63672090       4.95560973       8.82585276       0.00000000       0.00000000       0.00000000
N        1.18184367       5.12533409       3.07055868       0.00000000       0.00000000       0.00000000
N        5.70720232       8.06698490       9.46021601       0.00000000       0.00000000       0.00000000
N        3.32785132       0.73645021       3.07055870       0.00000000       0.00000000       0.00000000
N        7.83754632       3.65243376       9.46865215       0.00000000       0.00000000       0.00000000
N        8.38266906       3.82215805       2.42775938       0.00000000       0.00000000       0.00000000
N        3.85173385       0.54782974       8.83430351       0.00000000       0.00000000       0.00000000
H        5.19802154       0.84618877       3.92887723       0.00000000       0.00000000       0.00000000
H        0.68832651       3.54269529      10.32697070       0.00000000       0.00000000       0.00000000
H        8.33106347       5.23507262       3.92887735       0.00000000       0.00000000       0.00000000
H        3.84491336       7.90280971      10.32694334       0.00000000       0.00000000       0.00000000
H        6.14780018       8.03459813       2.53546294       0.00000000       0.00000000       0.00000000
H        1.63810518       5.13205364       8.93355632       0.00000000       0.00000000       0.00000000
H        1.55804586       5.80949951       3.73115812       0.00000000       0.00000000       0.00000000
H        6.10461280       7.38901602      10.11475796       0.00000000       0.00000000       0.00000000
H        4.63340450       7.72431708       1.68653056       0.00000000       0.00000000       0.00000000
H        0.12370953       5.44233472       8.08462394       0.00000000       0.00000000       0.00000000
H        1.82884427       4.71238905       2.40039504       0.00000000       0.00000000       0.00000000
H        6.33972225       8.50087059       8.78945928       0.00000000       0.00000000       0.00000000
H        2.68085064       0.32350507       2.40039511       0.00000000       0.00000000       0.00000000
H        7.19054559       4.06537885       8.79848849       0.00000000       0.00000000       0.00000000
H        8.89568041       3.33543309       1.68653065       0.00000000       0.00000000       0.00000000
H        4.34801180       1.05236277       8.09358991       0.00000000       0.00000000       0.00000000
H        2.95164911       1.42061566       3.73115812       0.00000000       0.00000000       0.00000000
H        7.46134412       2.96826826      10.12925150       0.00000000       0.00000000       0.00000000
H        7.38128478       3.64571414       2.53546309       0.00000000       0.00000000       0.00000000
H        2.84660423       0.69715608       8.94796583       0.00000000       0.00000000       0.00000000
Pb       4.53083800       4.28292591      12.55414679       0.00000000       0.00000000       0.00000000
Pb       0.02114306       0.10595805       6.15605336       0.00000000       0.00000000       0.00000000
Pb       8.99824696       8.67180981      12.55414682       0.00000000       0.00000000       0.00000000
Pb       4.48855201       4.49484198       6.15605338       0.00000000       0.00000000       0.00000000
I        7.17846840       6.23686154       6.43993606       0.00000000       0.00000000       0.00000000
I        8.66456559       8.72915931       2.96947357       0.00000000       0.00000000       0.00000000
I        6.36795418       1.71737741      12.30292202       0.00000000       0.00000000       0.00000000
I        1.84092141       2.54090661       0.04184266       0.00000000       0.00000000       0.00000000
I        1.85825931       2.67150641       5.90482872       0.00000000       0.00000000       0.00000000
I        2.65143571       7.06039039       5.90482875       0.00000000       0.00000000       0.00000000
I        7.16113085       6.10626132      12.30292208       0.00000000       0.00000000       0.00000000
I        6.35061657       1.84797759       6.43993602       0.00000000       0.00000000       0.00000000
I        4.15487051       4.43749223       9.36756700       0.00000000       0.00000000       0.00000000
I        0.35482441       0.04860842       9.36756694       0.00000000       0.00000000       0.00000000
I        2.66877356       6.92979047       0.04184262       0.00000000       0.00000000       0.00000000
I        4.86451931       4.34027537       2.96947354       0.00000000       0.00000000       0.00000000
48
Lattice="9.01938999317578 0.0 0.0 0.0 8.777767844565316 0.0 0.0 0.0 12.796186806294449" Properties=species:S:1:pos:R:3:momenta:R:3 config_id=O-FAPI3_small_rotation_05 phase=O-FAPI3 mode=small_rotation seed=100293489 source=O-FAPI3/CONTCAR pbc="T T T"
C        4.58144029       0.35721994       3.16826706       0.00000000       0.00000000       0.00000000
C        0.08820744       4.01663007       9.54115498       0.00000000       0.00000000       0.00000000
C        8.94764466       4.74610384       3.16826714       0.00000000       0.00000000       0.00000000
C        4.43794979       8.42054792       9.56636048       0.00000000       0.00000000       0.00000000
N        5.14641592       8.21104204       2.42775928       0.00000000       0.00000000       0.00000000
N        0.62329391       4.93715690       8.77464497       0.00000000       0.00000000       0.00000000
N        1.18184367       5.12533409       3.07055868       0.00000000       0.00000000       0.00000000
N        5.69153871       8.04131766       9.46865213       0.00000000       0.00000000       0.00000000
N        3.32785132       0.73645021       3.07055870       0.00000000       0.00000000       0.00000000
N        7.83722939       3.68344453       9.54091843       0.00000000       0.00000000       0.00000000
N        8.38266906       3.82215805       2.42775938       0.00000000       0.00000000       0.00000000
N        3.87297416       0.56672577       8.82585280       0.00000000       0.00000000       0.00000000
H        5.19802154       0.84618877       3.92887723       0.00000000       0.00000000       0.00000000
H        0.74736401       3.48926446      10.23771009       0.00000000       0.00000000       0.00000000
H        8.33106347       5.23507262       3.92887735       0.00000000       0.00000000       0.00000000
H        3.82136857       7.93157924      10.32697083       0.00000000       0.00000000       0.00000000
H        6.14780018       8.03459813       2.53546294       0.00000000       0.00000000       0.00000000
H        1.63592220       5.07624928       8.80185261       0.00000000       0.00000000       0.00000000
H        1.55804586       5.80949951       3.73115812       0.00000000       0.00000000       0.00000000
H        6.06774094       7.35715222      10.12925155       0.00000000       0.00000000       0.00000000
H        4.63340450       7.72431708       1.68653056       0.00000000       0.00000000       0.00000000
H        0.06880479       5.45824441       8.08870644       0.00000000       0.00000000       0.00000000
H        1.82884427       4.71238905       2.40039504       0.00000000       0.00000000       0.00000000
H        6.33853940       8.45426265       8.79848842       0.00000000       0.00000000       0.00000000
H        2.68085064       0.32350507       2.40039511       0.00000000       0.00000000       0.00000000
H        7.15248906       4.13383395       8.93549875       0.00000000       0.00000000       0.00000000
H        8.89568041       3.33543309       1.68653065       0.00000000       0.00000000       0.00000000
H        4.38598548       1.05345074       8.08462396       0.00000000       0.00000000       0.00000000
H        2.95164911       1.42061566       3.73115812       0.00000000       0.00000000       0.00000000
H        7.49227585       2.99777527      10.21683762       0.00000000       0.00000000       0.00000000
H        7.38128478       3.64571414       2.53546309       0.00000000       0.00000000       0.00000000
H        2.87158987       0.74316970       8.93355639       0.00000000       0.00000000       0.00000000
Pb       4.53083800       4.28292591      12.55414679       0.00000000       0.00000000       0.00000000
Pb       0.02114306       0.10595805       6.15605336       0.00000000       0.00000000       0.00000000
Pb       8.99824696       8.67180981      12.55414682       0.00000000       0.00000000       0.00000000
Pb       4.48855201       4.49484198       6.15605338       0.00000000       0.00000000       0.00000000
I        7.17846840       6.23686154       6.43993606       0.00000000       0.00000000       0.00000000
I        8.66456559       8.72915931       2.96947357       0.00000000       0.00000000       0.00000000
I        6.36795418       1.71737741      12.30292202       0.00000000       0.00000000       0.00000000
I        1.84092141       2.54090661       0.04184266       0.00000000       0.00000000       0.00000000
I        1.85825931       2.67150641       5.90482872       0.00000000       0.00000000       0.00000000
I        2.65143571       7.06039039       5.90482875       0.00000000       0.00000000       0.00000000
I        7.16113085       6.10626132      12.30292208       0.00000000       0.00000000       0.00000000
I        6.35061657       1.84797759       6.43993602       0.00000000       0.00000000       0.00000000
I        4.15487051       4.43749223       9.36756700       0.00000000       0.00000000       0.00000000
I        0.35482441       0.04860842       9.36756694       0.00000000       0.00000000       0.00000000
I        2.66877356       6.92979047       0.04184262       0.00000000       0.00000000       0.00000000
I        4.86451931       4.34027537       2.96947354       0.00000000       0.00000000       0.00000000
48
Lattice="9.01938999317578 0.0 0.0 0.0 8.777767844565316 0.0 0.0 0.0 12.796186806294449" Properties=species:S:1:pos:R:3:momenta:R:3 config_id=O-FAPI3_small_rotation_06 phase=O-FAPI3 mode=small_rotation seed=1277882832 source=O-FAPI3/CONTCAR pbc="T T T"
C        4.58144029       0.35721994       3.16826706       0.00000000       0.00000000       0.00000000
C        0.08219886       3.98374520       9.51879454       0.00000000       0.00000000       0.00000000
C        8.96286875       4.83209662       3.10545676       0.00000000       0.00000000       0.00000000
C        4.43794979       8.42054792       9.56636048       0.00000000       0.00000000       0.00000000
N        5.14641592       8.21104204       2.42775928       0.00000000       0.00000000       0.00000000
N        0.61312697       5.04412350       8.95760120       0.00000000       0.00000000       0.00000000
N        1.23951153       5.02692617       3.02067217       0.00000000       0.00000000       0.00000000
N        5.69153871       8.04131766       9.46865213       0.00000000       0.00000000       0.00000000
N        3.32785132       0.73645021       3.07055870       0.00000000       0.00000000       0.00000000
N        7.85236283       3.60404937       9.37697398       0.00000000       0.00000000       0.00000000
N        8.31208463       3.84869648       2.53045313       0.00000000       0.00000000       0.00000000
N        3.87297416       0.56672577       8.82585280       0.00000000       0.00000000       0.00000000
H        5.19802154       0.84618877       3.92887723       0.00000000       0.00000000       0.00000000
H        0.72563263       3.37112447      10.15791872       0.00000000       0.00000000       0.00000000
H        8.38484608       5.54149603       3.70581748       0.00000000       0.00000000       0.00000000
H        3.82136857       7.93157924      10.32697083       0.00000000       0.00000000       0.00000000
H        6.14780018       8.03459813       2.53546294       0.00000000       0.00000000       0.00000000
H        1.61385389       5.21762950       9.07568707       0.00000000       0.00000000       0.00000000
H        1.67482653       5.78387598       3.55314741       0.00000000       0.00000000       0.00000000
H        6.06774094       7.35715222      10.12925155       0.00000000       0.00000000       0.00000000
H        4.63340450       7.72431708       1.68653056       0.00000000       0.00000000       0.00000000
H        0.07373946       5.65300156       8.33484066       0.00000000       0.00000000       0.00000000
H        1.85389951       4.40661005       2.49532656       0.00000000       0.00000000       0.00000000
H        6.33853940       8.45426265       8.79848842       0.00000000       0.00000000       0.00000000
H        2.68085064       0.32350507       2.40039511       0.00000000       0.00000000       0.00000000
H        7.18204402       4.12410122       8.81264101       0.00000000       0.00000000       0.00000000
H        8.78702518       3.15814914       1.94132011       0.00000000       0.00000000       0.00000000
H        4.38598548       1.05345074       8.08462396       0.00000000       0.00000000       0.00000000
H        2.95164911       1.42061566       3.73115812       0.00000000       0.00000000       0.00000000
H        7.50416850       2.79822785       9.90177338       0.00000000       0.00000000       0.00000000
H        7.29240269       3.82200161       2.60144000       0.00000000       0.00000000       0.00000000
H        2.87158987       0.74316970       8.93355639       0.00000000       0.00000000       0.00000000
Pb       4.53083800       4.28292591      12.55414679       0.00000000       0.00000000       0.00000000
Pb       0.02114306       0.10595805       6.15605336       0.00000000       0.00000000       0.00000000
Pb       8.99824696       8.67180981      12.55414682       0.00000000       0.00000000       0.00000000
Pb       4.48855201       4.49484198       6.15605338       0.00000000       0.00000000       0.00000000
I        7.17846840       6.23686154       6.43993606       0.00000000       0.00000000       0.00000000
I        8.66456559       8.72915931       2.96947357       0.00000000       0.00000000       0.00000000
I        6.36795418       1.71737741      12.30292202       0.00000000       0.00000000       0.00000000
I        1.84092141       2.54090661       0.04184266       0.00000000       0.00000000       0.00000000
I        1.85825931       2.67150641       5.90482872       0.00000000       0.00000000       0.00000000
I        2.65143571       7.06039039       5.90482875       0.00000000       0.00000000       0.00000000
I        7.16113085       6.10626132      12.30292208       0.00000000       0.00000000       0.00000000
I        6.35061657       1.84797759       6.43993602       0.00000000       0.00000000       0.00000000
I        4.15487051       4.43749223       9.36756700       0.00000000       0.00000000       0.00000000
I        0.35482441       0.04860842       9.36756694       0.00000000       0.00000000       0.00000000
I        2.66877356       6.92979047       0.04184262       0.00000000       0.00000000       0.00000000
I        4.86451931       4.34027537       2.96947354       0.00000000       0.00000000       0.00000000
48
Lattice="9.01938999317578 0.0 0.0 0.0 8.777767844565316 0.0 0.0 0.0 12.796186806294449" Properties=species:S:1:pos:R:3:momenta:R:3 config_id=O-FAPI3_small_rotation_07 phase=O-FAPI3 mode=small_rotation seed=4105054636 source=O-FAPI3/CONTCAR pbc="T T T"
C        4.56264722       0.35320826       3.18521647       0.00000000       0.00000000       0.00000000
C        0.07174524       4.03166402       9.56636042       0.00000000       0.00000000       0.00000000
C        9.01878997       4.77283762       3.19817229       0.00000000       0.00000000       0.00000000
C        4.37214017       8.45512746       9.52194691       0.00000000       0.00000000       0.00000000
N        5.17898593       8.23177290       2.45529513       0.00000000       0.00000000       0.00000000
N        0.63672090       4.95560973       8.82585276       0.00000000       0.00000000       0.00000000
N        1.26294344       4.99332308       2.91587461       0.00000000       0.00000000       0.00000000
N        5.51875135       7.81535141       9.49336181       0.00000000       0.00000000       0.00000000
N        3.31103781       0.71909140       3.02884755       0.00000000       0.00000000       0.00000000
N        7.83754632       3.65243376       9.46865215       0.00000000       0.00000000       0.00000000
N        8.24183584       3.93190573       2.55754695       0.00000000       0.00000000       0.00000000
N        4.10118763       0.76390168       8.83840041       0.00000000       0.00000000       0.00000000
H        5.13090955       0.83173617       3.98888291       0.00000000       0.00000000       0.00000000
H        0.68832651       3.54269529      10.32697070       0.00000000       0.00000000       0.00000000
H        8.58471424       5.32953438       4.03450817       0.00000000       0.00000000       0.00000000
H        3.58672597       8.05303752      10.16943365       0.00000000       0.00000000       0.00000000
H        6.17547870       8.06524839       2.61269501       0.00000000       0.00000000       0.00000000
H        1.63810518       5.13205364       8.93355632       0.00000000       0.00000000       0.00000000
H        1.81316297       5.62048331       3.50742388       0.00000000       0.00000000       0.00000000
H        5.66631737       7.01060941      10.10705281       0.00000000       0.00000000       0.00000000
H        4.71306718       7.75631360       1.67660386       0.00000000       0.00000000       0.00000000
H        0.12370953       5.44233472       8.08462394       0.00000000       0.00000000       0.00000000
H        1.74945534       4.50761572       2.16377938       0.00000000       0.00000000       0.00000000
H        6.30766716       8.12910552       8.92995871       0.00000000       0.00000000       0.00000000
H        2.70652517       0.31405561       2.31557111       0.00000000       0.00000000       0.00000000
H        7.19054559       4.06537885       8.79848849       0.00000000       0.00000000       0.00000000
H        8.57733933       3.39022451       1.75534951       0.00000000       0.00000000       0.00000000
H        4.78347110       1.18528143       8.20088149       0.00000000       0.00000000       0.00000000
H        2.89072781       1.38281531       3.68368504       0.00000000       0.00000000       0.00000000
H        7.46134412       2.96826826      10.12925150       0.00000000       0.00000000       0.00000000
H        7.25254839       3.88106682       2.81098086       0.00000000       0.00000000       0.00000000
H        3.15501686       1.14960787       8.87706110       0.00000000       0.00000000       0.00000000
Pb       4.53083800       4.28292591      12.55414679       0.00000000       0.00000000       0.00000000
Pb       0.02114306       0.10595805       6.15605336       0.00000000       0.00000000       0.00000000
Pb       8.99824696       8.67180981      12.55414682       0.00000000       0.00000000       0.00000000
Pb       4.48855201       4.49484198       6.15605338       0.00000000       0.00000000       0.00000000
I        7.17846840       6.23686154       6.43993606       0.00000000       0.00000000       0.00000000
I        8.66456559       8.72915931       2.96947357       0.00000000       0.00000000       0.00000000
I        6.36795418       1.71737741      12.30292202       0.00000000       0.00000000       0.00000000
I        1.84092141       2.54090661       0.04184266       0.00000000       0.00000000       0.00000000
I        1.85825931       2.67150641       5.90482872       0.00000000       0.00000000       0.00000000
I        2.65143571       7.06039039       5.90482875       0.00000000       0.00000000       0.00000000
I        7.16113085       6.10626132      12.30292208       0.00000000       0.00000000       0.00000000
I        6.35061657       1.84797759       6.43993602       0.00000000       0.00000000       0.00000000
I        4.15487051       4.43749223       9.36756700       0.00000000       0.00000000       0.00000000
I        0.35482441       0.04860842       9.36756694       0.00000000       0.00000000       0.00000000
I        2.66877356       6.92979047       0.04184262       0.00000000       0.00000000       0.00000000
I        4.86451931       4.34027537       2.96947354       0.00000000       0.00000000       0.00000000
48
Lattice="9.01938999317578 0.0 0.0 0.0 8.777767844565316 0.0 0.0 0.0 12.796186806294449" Properties=species:S:1:pos:R:3:momenta:R:3 config_id=O-FAPI3_small_rotation_08 phase=O-FAPI3 mode=small_rotation seed=1368788174 source=O-FAPI3/CONTCAR pbc="T T T"
C        4.58894141       0.32536977       3.18067165       0.00000000       0.00000000       0.00000000
C        0.07174524       4.03166402       9.56636042       0.00000000       0.00000000       0.00000000
C        8.94764466       4.74610384       3.16826714       0.00000000       0.00000000       0.00000000
C        4.43794979       8.42054792       9.56636048       0.00000000       0.00000000       0.00000000
N        5.10751720       8.19225992       2.39161782       0.00000000       0.00000000       0.00000000
N        0.63672090       4.95560973       8.82585276       0.00000000       0.00000000       0.00000000
N        1.18184367       5.12533409       3.07055868       0.00000000       0.00000000       0.00000000
N        5.69153871       8.04131766       9.46865213       0.00000000       0.00000000       0.00000000
N        3.36039037       0.78185815       3.09624104       0.00000000       0.00000000       0.00000000
N        7.83754632       3.65243376       9.46865215       0.00000000       0.00000000       0.00000000
N        8.38266906       3.82215805       2.42775938       0.00000000       0.00000000       0.00000000
N        3.87297416       0.56672577       8.82585280       0.00000000       0.00000000       0.00000000
H        5.22461474       0.73287439       3.97291542       0.00000000       0.00000000       0.00000000
H        0.68832651       3.54269529      10.32697070       0.00000000       0.00000000       0.00000000
H        8.33106347       5.23507262       3.92887735       0.00000000       0.00000000       0.00000000
H        3.82136857       7.93157924      10.32697083       0.00000000       0.00000000       0.00000000
H        6.09587711       7.95196116       2.49604086       0.00000000       0.00000000       0.00000000
H        1.63810518       5.13205364       8.93355632       0.00000000       0.00000000       0.00000000
H        1.55804586       5.80949951       3.73115812       0.00000000       0.00000000       0.00000000
H        6.06774094       7.35715222      10.12925155       0.00000000       0.00000000       0.00000000
H        4.57516058       7.77984945       1.61959713       0.00000000       0.00000000       0.00000000
H        0.12370953       5.44233472       8.08462394       0.00000000       0.00000000       0.00000000
H        1.82884427       4.71238905       2.40039504       0.00000000       0.00000000       0.00000000
H        6.33853940       8.45426265       8.79848842       0.00000000       0.00000000       0.00000000
H        2.69777638       0.44666151       2.39850275       0.00000000       0.00000000       0.00000000
H        7.19054559       4.06537885       8.79848849       0.00000000       0.00000000       0.00000000
H        8.89568041       3.33543309       1.68653065       0.00000000       0.00000000       0.00000000
H        4.38598548       1.05345074       8.08462396       0.00000000       0.00000000       0.00000000
H        3.01728930       1.44740634       3.79289686       0.00000000       0.00000000       0.00000000
H        7.46134412       2.96826826      10.12925150       0.00000000       0.00000000       0.00000000
H        7.38128478       3.64571414       2.53546309       0.00000000       0.00000000       0.00000000
H        2.87158987       0.74316970       8.93355639       0.00000000       0.00000000       0.00000000
Pb       4.53083800       4.28292591      12.55414679       0.00000000       0.00000000       0.00000000
Pb       0.02114306       0.10595805       6.15605336       0.00000000       0.00000000       0.00000000
Pb       8.99824696       8.67180981      12.55414682       0.00000000       0.00000000       0.00000000
Pb       4.48855201       4.49484198       6.15605338       0.00000000       0.00000000       0.00000000
I        7.17846840       6.23686154       6.43993606       0.00000000       0.00000000       0.00000000
I        8.66456559       8.72915931       2.96947357       0.00000000       0.00000000       0.00000000
I        6.36795418       1.71737741      12.30292202       0.00000000       0.00000000       0.00000000
I        1.84092141       2.54090661       0.04184266       0.00000000       0.00000000       0.00000000
I        1.85825931       2.67150641       5.90482872       0.00000000       0.00000000       0.00000000
I        2.65143571       7.06039039       5.90482875       0.00000000       0.00000000       0.00000000
I        7.16113085       6.10626132      12.30292208       0.00000000       0.00000000       0.00000000
I        6.35061657       1.84797759       6.43993602       0.00000000       0.00000000       0.00000000
I        4.15487051       4.43749223       9.36756700       0.00000000       0.00000000       0.00000000
I        0.35482441       0.04860842       9.36756694       0.00000000       0.00000000       0.00000000
I        2.66877356       6.92979047       0.04184262       0.00000000       0.00000000       0.00000000
I        4.86451931       4.34027537       2.96947354       0.00000000       0.00000000       0.00000000
48
Lattice="9.01938999317578 0.0 0.0 0.0 8.777767844565316 0.0 0.0 0.0 12.796186806294449" Properties=species:S:1:pos:R:3:momenta:R:3 config_id=O-FAPI3_small_rotation_09 phase=O-FAPI3 mode=small_rotation seed=3547136855 source=O-FAPI3/CONTCAR pbc="T T T"
C        4.58281972       0.35419077       3.16907619       0.00000000       0.00000000       0.00000000
C        0.07174524       4.03166402       9.56636042       0.00000000       0.00000000       0.00000000
C        8.94752213       4.74368174       3.16972301       0.00000000       0.00000000       0.00000000
C        4.42270037       8.42742229       9.55767083       0.00000000       0.00000000       0.00000000
N        5.18438622       8.37610486       2.28136688       0.00000000       0.00000000       0.00000000
N        0.63672090       4.95560973       8.82585276       0.00000000       0.00000000       0.00000000
N        1.17926391       5.13027360       3.06940386       0.00000000       0.00000000       0.00000000
N        5.63099701       7.93227565       9.41732571       0.00000000       0.00000000       0.00000000
N        3.28887363       0.57406679       3.21604302       0.00000000       0.00000000       0.00000000
N        7.83754632       3.65243376       9.46865215       0.00000000       0.00000000       0.00000000
N        8.38535878       3.81924193       2.42769310       0.00000000       0.00000000       0.00000000
N        3.94642415       0.67009446       8.88455280       0.00000000       0.00000000       0.00000000
H        5.20356036       0.83422282       3.93199236       0.00000000       0.00000000       0.00000000
H        0.68832651       3.54269529      10.32697070       0.00000000       0.00000000       0.00000000
H        8.33064831       5.22646525       3.93403807       0.00000000       0.00000000       0.00000000
H        3.76722166       7.95521698      10.29602080       0.00000000       0.00000000       0.00000000
H        6.20542227       8.32188383       2.28832563       0.00000000       0.00000000       0.00000000
H        1.63810518       5.13205364       8.93355632       0.00000000       0.00000000       0.00000000
H        1.55374284       5.81416709       3.73126281       0.00000000       0.00000000       0.00000000
H        5.94276562       7.17376886      10.02844749       0.00000000       0.00000000       0.00000000
H        4.66752845       7.90976249       1.52977871       0.00000000       0.00000000       0.00000000
H        0.12370953       5.44233472       8.08462394       0.00000000       0.00000000       0.00000000
H        1.82642027       4.72335889       2.39571124       0.00000000       0.00000000       0.00000000
H        6.30994997       8.32025400       8.76406578       0.00000000       0.00000000       0.00000000
H        2.63725814       0.15512716       2.55412184       0.00000000       0.00000000       0.00000000
H        7.19054559       4.06537885       8.79848849       0.00000000       0.00000000       0.00000000
H        8.89871422       3.33805284       1.68309582       0.00000000       0.00000000       0.00000000
H        4.49881256       1.14915327       8.16700717       0.00000000       0.00000000       0.00000000
H        2.89551855       1.12709056       3.98118258       0.00000000       0.00000000       0.00000000
H        7.46134412       2.96826826      10.12925150       0.00000000       0.00000000       0.00000000
H        7.38532508       3.63680857       2.53793677       0.00000000       0.00000000       0.00000000
H        2.96881019       0.93814408       9.01843102       0.00000000       0.00000000       0.00000000
Pb       4.53083800       4.28292591      12.55414679       0.00000000       0.00000000       0.00000000
Pb       0.02114306       0.10595805       6.15605336       0.00000000       0.00000000       0.00000000
Pb       8.99824696       8.67180981      12.55414682       0.00000000       0.00000000       0.00000000
Pb       4.48855201       4.49484198       6.15605338       0.00000000       0.00000000       0.00000000
I        7.17846840       6.23686154       6.43993606       0.00000000       0.00000000       0.00000000
I        8.66456559       8.72915931       2.96947357       0.00000000       0.00000000       0.00000000
I        6.36795418       1.71737741      12.30292202       0.00000000       0.00000000       0.00000000
I        1.84092141       2.54090661       0.04184266       0.00000000       0.00000000       0.00000000
I        1.85825931       2.67150641       5.90482872       0.00000000       0.00000000       0.00000000
I        2.65143571       7.06039039       5.90482875       0.00000000       0.00000000       0.00000000
I        7.16113085       6.10626132      12.30292208       0.00000000       0.00000000       0.00000000
I        6.35061657       1.84797759       6.43993602       0.00000000       0.00000000       0.00000000
I        4.15487051       4.43749223       9.36756700       0.00000000       0.00000000       0.00000000
I        0.35482441       0.04860842       9.36756694       0.00000000       0.00000000       0.00000000
I        2.66877356       6.92979047       0.04184262       0.00000000       0.00000000       0.00000000
I        4.86451931       4.34027537       2.96947354       0.00000000       0.00000000       0.00000000
48
Lattice="9.01938999317578 0.0 0.0 0.0 8.777767844565316 0.0 0.0 0.0 12.796186806294449" Properties=species:S:1:pos:R:3:momenta:R:3 config_id=O-FAPI3_small_rotation_10 phase=O-FAPI3 mode=small_rotation seed=4285567503 source=O-FAPI3/CONTCAR pbc="T T T"
C        4.58144029       0.35721994       3.16826706       0.00000000       0.00000000       0.00000000
C        0.07174524       4.03166402       9.56636042       0.00000000       0.00000000       0.00000000
C        0.00154267       4.70936918       3.23374048       0.00000000       0.00000000       0.00000000
C        4.43794979       8.42054792       9.56636048       0.00000000       0.00000000       0.00000000
N        5.14641592       8.21104204       2.42775928       0.00000000       0.00000000       0.00000000
N        0.63672090       4.95560973       8.82585276       0.00000000       0.00000000       0.00000000
N        1.18658116       5.15057411       2.87895900       0.00000000       0.00000000       0.00000000
N        5.69153871       8.04131766       9.46865213       0.00000000       0.00000000       0.00000000
N        3.32785132       0.73645021       3.07055870       0.00000000       0.00000000       0.00000000
N        7.83754632       3.65243376       9.46865215       0.00000000       0.00000000       0.00000000
N        8.31660659       3.82764955       2.56462146       0.00000000       0.00000000       0.00000000
N        3.87297416       0.56672577       8.82585280       0.00000000       0.00000000       0.00000000
H        5.19802154       0.84618877       3.92887723       0.00000000       0.00000000       0.00000000
H        0.68832651       3.54269529      10.32697070       0.00000000       0.00000000       0.00000000
H        8.59288307       5.10417486       4.16039723       0.00000000       0.00000000       0.00000000
H        3.82136857       7.93157924      10.32697083       0.00000000       0.00000000       0.00000000
H        6.14780018       8.03459813       2.53546294       0.00000000       0.00000000       0.00000000
H        1.63810518       5.13205364       8.93355632       0.00000000       0.00000000       0.00000000
H        1.69401038       5.79206493       3.49296809       0.00000000       0.00000000       0.00000000
H        6.06774094       7.35715222      10.12925155       0.00000000       0.00000000       0.00000000
H        4.63340450       7.72431708       1.68653056       0.00000000       0.00000000       0.00000000
H        0.12370953       5.44233472       8.08462394       0.00000000       0.00000000       0.00000000
H        1.66403394       4.82509835       2.03969917       0.00000000       0.00000000       0.00000000
H        6.33853940       8.45426265       8.79848842       0.00000000       0.00000000       0.00000000
H        2.68085064       0.32350507       2.40039511       0.00000000       0.00000000       0.00000000
H        7.19054559       4.06537885       8.79848849       0.00000000       0.00000000       0.00000000
H        8.64868779       3.42885161       1.68134112       0.00000000       0.00000000       0.00000000
H        4.38598548       1.05345074       8.08462396       0.00000000       0.00000000       0.00000000
H        2.95164911       1.42061566       3.73115812       0.00000000       0.00000000       0.00000000
H        7.46134412       2.96826826      10.12925150       0.00000000       0.00000000       0.00000000
H        7.37418911       3.59859671       2.88848423       0.00000000       0.00000000       0.00000000
H        2.87158987       0.74316970       8.93355639       0.00000000       0.00000000       0.00000000
Pb       4.53083800       4.28292591      12.55414679       0.00000000       0.00000000       0.00000000
Pb       0.02114306       0.10595805       6.15605336       0.00000000       0.00000000       0.00000000
Pb       8.99824696       8.67180981      12.55414682       0.00000000       0.00000000       0.00000000
Pb       4.48855201       4.49484198       6.15605338       0.00000000       0.00000000       0.00000000
I        7.17846840       6.23686154       6.43993606       0.00000000       0.00000000       0.00000000
I        8.66456559       8.72915931       2.96947357       0.00000000       0.00000000       0.00000000
I        6.36795418       1.71737741      12.30292202       0.00000000       0.00000000       0.00000000
I        1.84092141       2.54090661       0.04184266       0.00000000       0.00000000       0.00000000
I        1.85825931       2.67150641       5.90482872       0.00000000       0.00000000       0.00000000
I        2.65143571       7.06039039       5.90482875       0.00000000       0.00000000       0.00000000
I        7.16113085       6.10626132      12.30292208       0.00000000       0.00000000       0.00000000
I        6.35061657       1.84797759       6.43993602       0.00000000       0.00000000       0.00000000
I        4.15487051       4.43749223       9.36756700       0.00000000       0.00000000       0.00000000
I        0.35482441       0.04860842       9.36756694       0.00000000       0.00000000       0.00000000
I        2.66877356       6.92979047       0.04184262       0.00000000       0.00000000       0.00000000
I        4.86451931       4.34027537       2.96947354       0.00000000       0.00000000       0.00000000
48
Lattice="9.01938999317578 0.0 0.0 0.0 8.777767844565316 0.0 0.0 0.0 12.796186806294449" Properties=species:S:1:pos:R:3:momenta:R:3 config_id=O-FAPI3_small_rotation_11 phase=O-FAPI3 mode=small_rotation seed=1939842013 source=O-FAPI3/CONTCAR pbc="T T T"
C        4.58287658       0.35489220       3.16858172       0.00000000       0.00000000       0.00000000
C        0.09890889       4.00550017       9.52119190       0.00000000       0.00000000       0.00000000
C        8.94829297       4.70218643       3.19297311       0.00000000       0.00000000       0.00000000
C        4.44130554       8.42287946       9.57057427       0.00000000       0.00000000       0.00000000
N        5.14279339       8.21074532       2.42172739       0.00000000       0.00000000       0.00000000
N        0.60825095       4.93254044       8.74505288       0.00000000       0.00000000       0.00000000
N        1.10130957       5.26396881       3.00666351       0.00000000       0.00000000       0.00000000
N        5.69396563       8.04345393       9.46228448       0.00000000       0.00000000       0.00000000
N        3.33026661       0.73869349       3.07631764       0.00000000       0.00000000       0.00000000
N        7.84333120       3.69736416       9.58720135       0.00000000       0.00000000       0.00000000
N        8.46286386       3.72018238       2.47099555       0.00000000       0.00000000       0.00000000
N        3.86773596       0.56263622       8.82869067       0.00000000       0.00000000       0.00000000
H        5.20314266       0.83789720       3.93000601       0.00000000       0.00000000       0.00000000
H        0.78577768       3.44963094      10.16695622       0.00000000       0.00000000       0.00000000
H        8.33385030       5.07946693       4.01632622       0.00000000       0.00000000       0.00000000
H        3.83336193       7.93991835      10.34190040       0.00000000       0.00000000       0.00000000
H        6.14388984       8.03049355       2.52573776       0.00000000       0.00000000       0.00000000
H        1.62345507       5.05110862       8.71667728       0.00000000       0.00000000       0.00000000
H        1.42871099       5.98264568       3.65652035       0.00000000       0.00000000       0.00000000
H        6.07776249       7.36495079      10.12435360       0.00000000       0.00000000       0.00000000
H        4.62615691       7.72954714       1.67940874       0.00000000       0.00000000       0.00000000
H        0.02633233       5.47984215       8.10369992       0.00000000       0.00000000       0.00000000
H        1.74235333       4.96452484       2.27341806       0.00000000       0.00000000       0.00000000
H        6.33335976       8.45115594       8.78169130       0.00000000       0.00000000       0.00000000
H        2.68007853       0.33133951       2.40581709       0.00000000       0.00000000       0.00000000
H        7.13454641       4.17472280       9.03221866       0.00000000       0.00000000       0.00000000
H        8.97652496       3.32946152       1.67538801       0.00000000       0.00000000       0.00000000
H        4.37232923       1.04346437       8.07789646       0.00000000       0.00000000       0.00000000
H        2.95811932       1.42063472       3.74149777       0.00000000       0.00000000       0.00000000
H        7.52347409       3.00340790      10.26699410       0.00000000       0.00000000       0.00000000
H        7.51046894       3.39590682       2.65345730       0.00000000       0.00000000       0.00000000
H        2.86749000       0.73948552       8.94588863       0.00000000       0.00000000       0.00000000
Pb       4.53083800       4.28292591      12.55414679       0.00000000       0.00000000       0.00000000
Pb       0.02114306       0.10595805       6.15605336       0.00000000       0.00000000       0.00000000
Pb       8.99824696       8.67180981      12.55414682       0.00000000       0.00000000       0.00000000
Pb       4.48855201       4.49484198       6.15605338       0.00000000       0.00000000       0.00000000
I        7.17846840       6.23686154       6.43993606       0.00000000       0.00000000       0.00000000
I        8.66456559       8.72915931       2.96947357       0.00000000       0.00000000       0.00000000
I        6.36795418       1.71737741      12.30292202       0.00000000       0.00000000       0.00000000
I        1.84092141       2.54090661       0.04184266       0.00000000       0.00000000       0.00000000
I        1.85825931       2.67150641       5.90482872       0.00000000       0.00000000       0.00000000
I        2.65143571       7.06039039       5.90482875       0.00000000       0.00000000       0.00000000
I        7.16113085       6.10626132      12.30292208       0.00000000       0.00000000       0.00000000
I        6.35061657       1.84797759       6.43993602       0.00000000       0.00000000       0.00000000
I        4.15487051       4.43749223       9.36756700       0.00000000       0.00000000       0.00000000
I        0.35482441       0.04860842       9.36756694       0.00000000       0.00000000       0.00000000
I        2.66877356       6.92979047       0.04184262       0.00000000       0.00000000       0.00000000
I        4.86451931       4.34027537       2.96947354       0.00000000       0.00000000       0.00000000
48
Lattice="9.01938999317578 0.0 0.0 0.0 8.777767844565316 0.0 0.0 0.0 12.796186806294449" Properties=species:S:1:pos:R:3:momenta:R:3 config_id=O-FAPI3_small_rotation_12 phase=O-FAPI3 mode=small_rotation seed=1052125641 source=O-FAPI3/CONTCAR pbc="T T T"
C        4.58144029       0.35721994       3.16826706       0.00000000       0.00000000       0.00000000
C        0.10249672       4.03046572       9.53724855       0.00000000       0.00000000       0.00000000
C        8.93989824       4.75290682       3.15709308       0.00000000       0.00000000       0.00000000
C        4.45188724       8.42000409       9.57695421       0.00000000       0.00000000       0.00000000
N        5.14641592       8.21104204       2.42775928       0.00000000       0.00000000       0.00000000
N        0.59573234       4.90473891       8.69250611       0.00000000       0.00000000       0.00000000
N        1.18441334       5.10639196       3.10769594       0.00000000       0.00000000       0.00000000
N        5.73264585       8.13803827       9.50624103       0.00000000       0.00000000       0.00000000
N        3.32785132       0.73645021       3.07055870       0.00000000       0.00000000       0.00000000
N        7.85282114       3.70426467       9.62620406       0.00000000       0.00000000       0.00000000
N        8.38656184       3.83542137       2.39995091       0.00000000       0.00000000       0.00000000
N        3.82009135       0.47037800       8.77930772       0.00000000       0.00000000       0.00000000
H        5.19802154       0.84618877       3.92887723       0.00000000       0.00000000       0.00000000
H        0.79851611       3.53880996      10.22399633       0.00000000       0.00000000       0.00000000
H        8.30327879       5.25921100       3.88932424       0.00000000       0.00000000       0.00000000
H        3.87083071       7.93035157      10.36461188       0.00000000       0.00000000       0.00000000
H        6.14780018       8.03459813       2.53546294       0.00000000       0.00000000       0.00000000
H        1.60857715       5.03994124       8.65551006       0.00000000       0.00000000       0.00000000
H        1.54753212       5.78737404       3.77882202       0.00000000       0.00000000       0.00000000
H        6.15760203       7.52828869      10.20882181       0.00000000       0.00000000       0.00000000
H        4.63340450       7.72431708       1.68653056       0.00000000       0.00000000       0.00000000
H        0.00479744       5.39017479       8.01085370       0.00000000       0.00000000       0.00000000
H        1.84932571       4.67610016       2.46660843       0.00000000       0.00000000       0.00000000
H        6.34944555       8.56006073       8.81363145       0.00000000       0.00000000       0.00000000
H        2.68085064       0.32350507       2.40039511       0.00000000       0.00000000       0.00000000
H        7.13620019       4.12419985       9.03598225       0.00000000       0.00000000       0.00000000
H        8.91898330       3.33355714       1.68290031       0.00000000       0.00000000       0.00000000
H        4.29794859       0.95061722       8.01085163       0.00000000       0.00000000       0.00000000
H        2.95164911       1.42061566       3.73115812       0.00000000       0.00000000       0.00000000
H        7.54482918       3.05854217      10.35708396       0.00000000       0.00000000       0.00000000
H        7.37830133       3.67971564       2.46828436       0.00000000       0.00000000       0.00000000
H        2.80695614       0.57159542       8.87319648       0.00000000       0.00000000       0.00000000
Pb       4.53083800       4.28292591      12.55414679       0.00000000       0.00000000       0.00000000
Pb       0.02114306       0.10595805       6.15605336       0.00000000       0.00000000       0.00000000
Pb       8.99824696       8.67180981      12.55414682       0.00000000       0.00000000       0.00000000
Pb       4.48855201       4.49484198       6.15605338       0.00000000       0.00000000       0.00000000
I        7.17846840       6.23686154       6.43993606       0.00000000       0.00000000       0.00000000
I        8.66456559       8.72915931       2.96947357       0.00000000       0.00000000       0.00000000
I        6.36795418       1.71737741      12.30292202       0.00000000       0.00000000       0.00000000
I        1.84092141       2.54090661       0.04184266       0.00000000       0.00000000       0.00000000
I        1.85825931       2.67150641       5.90482872       0.00000000       0.00000000       0.00000000
I        2.65143571       7.06039039       5.90482875       0.00000000       0.00000000       0.00000000
I        7.16113085       6.10626132      12.30292208       0.00000000       0.00000000       0.00000000
I        6.35061657       1.84797759       6.43993602       0.00000000       0.00000000       0.00000000
I        4.15487051       4.43749223       9.36756700       0.00000000       0.00000000       0.00000000
I        0.35482441       0.04860842       9.36756694       0.00000000       0.00000000       0.00000000
I        2.66877356       6.92979047       0.04184262       0.00000000       0.00000000       0.00000000
I        4.86451931       4.34027537       2.96947354       0.00000000       0.00000000       0.00000000
48
Lattice="9.01938999317578 0.0 0.0 0.0 8.777767844565316 0.0 0.0 0.0 12.796186806294449" Properties=species:S:1:pos:R:3:momenta:R:3 config_id=O-FAPI3_small_rotation_13 phase=O-FAPI3 mode=small_rotation seed=1182904147 source=O-FAPI3/CONTCAR pbc="T T T"
C        4.58033726       0.35233838       3.17226961       0.00000000       0.00000000       0.00000000
C        0.10049867       4.07101596       9.56418949       0.00000000       0.00000000       0.00000000
C        8.94764466       4.74610384       3.16826714       0.00000000       0.00000000       0.00000000
C        4.44097847       8.44829499       9.58493730       0.00000000       0.00000000       0.00000000
N        5.14382640       8.20737036       2.42912529       0.00000000       0.00000000       0.00000000
N        0.56450349       4.95235130       8.71027362       0.00000000       0.00000000       0.00000000
N        1.18184367       5.12533409       3.07055868       0.00000000       0.00000000       0.00000000
N        5.73763924       8.24714555       9.64023157       0.00000000       0.00000000       0.00000000
N        3.33135236       0.74420168       3.06583787       0.00000000       0.00000000       0.00000000
N        7.88560521       3.62277293       9.58587285       0.00000000       0.00000000       0.00000000
N        8.38266906       3.82215805       2.42775938       0.00000000       0.00000000       0.00000000
N        3.82417422       0.33747924       8.63838980       0.00000000       0.00000000       0.00000000
H        5.19404068       0.82882436       3.94306141       0.00000000       0.00000000       0.00000000
H        0.79091925       3.68289683      10.31948669       0.00000000       0.00000000       0.00000000
H        8.33106347       5.23507262       3.92887735       0.00000000       0.00000000       0.00000000
H        3.83152963       8.03199587      10.39305736       0.00000000       0.00000000       0.00000000
H        6.14242601       8.02056601       2.54490927       0.00000000       0.00000000       0.00000000
H        1.55939672       5.18721995       8.73323403       0.00000000       0.00000000       0.00000000
H        1.55804586       5.80949951       3.73115812       0.00000000       0.00000000       0.00000000
H        6.14303108       7.76902952      10.44835568       0.00000000       0.00000000       0.00000000
H        4.63351610       7.73198314       1.67873051       0.00000000       0.00000000       0.00000000
H        8.99803940       5.34510926       7.96729433       0.00000000       0.00000000       0.00000000
H        1.82884427       4.71238905       2.40039504       0.00000000       0.00000000       0.00000000
H        6.37941967       8.61196966       8.93789682       0.00000000       0.00000000       0.00000000
H        2.68706367       0.34323105       2.38586181       0.00000000       0.00000000       0.00000000
H        7.17491349       3.94179872       8.92906788       0.00000000       0.00000000       0.00000000
H        8.89568041       3.33543309       1.68653065       0.00000000       0.00000000       0.00000000
H        4.32999039       0.74006503       7.84367180       0.00000000       0.00000000       0.00000000
H        2.95515659       1.42609506       3.72878600       0.00000000       0.00000000       0.00000000
H        7.59123825       2.98224166      10.32686531       0.00000000       0.00000000       0.00000000
H        7.38128478       3.64571414       2.53546309       0.00000000       0.00000000       0.00000000
H        2.80267535       0.38135085       8.64926946       0.00000000       0.00000000       0.00000000
Pb       4.53083800       4.28292591      12.55414679       0.00000000       0.00000000       0.00000000
Pb       0.02114306       0.10595805       6.15605336       0.00000000       0.00000000       0.00000000
Pb       8.99824696       8.67180981      12.55414682       0.00000000       0.00000000       0.00000000
Pb       4.48855201       4.49484198       6.15605338       0.00000000       0.00000000       0.00000000
I        7.17846840       6.23686154       6.43993606       0.00000000       0.00000000       0.00000000
I        8.66456559       8.72915931       2.96947357       0.00000000       0.00000000       0.00000000
I        6.36795418       1.71737741      12.30292202       0.00000000       0.00000000       0.00000000
I        1.84092141       2.54090661       0.04184266       0.00000000       0.00000000       0.00000000
I        1.85825931       2.67150641       5.90482872       0.00000000       0.00000000       0.00000000
I        2.65143571       7.06039039       5.90482875       0.00000000       0.00000000       0.00000000
I        7.16113085       6.10626132      12.30292208       0.00000000       0.00000000       0.00000000
I        6.35061657       1.84797759       6.43993602       0.00000000       0.00000000       0.00000000
I        4.15487051       4.43749223       9.36756700       0.00000000       0.00000000       0.00000000
I        0.35482441       0.04860842       9.36756694       0.00000000       0.00000000       0.00000000
I        2.66877356       6.92979047       0.04184262       0.00000000       0.00000000       0.00000000
I        4.86451931       4.34027537       2.96947354       0.00000000       0.00000000       0.00000000
48
Lattice="9.01938999317578 0.0 0.0 0.0 8.777767844565316 0.0 0.0 0.0 12.796186806294449" Properties=species:S:1:pos:R:3:momenta:R:3 config_id=O-FAPI3_small_rotation_14 phase=O-FAPI3 mode=small_rotation seed=4165865055 source=O-FAPI3/CONTCAR pbc="T T T"
C        4.60865833       0.34318877       3.15299039       0.00000000       0.00000000       0.00000000
C        0.08846944       4.05811733       9.56808880       0.00000000       0.00000000       0.00000000
C        8.94463596       4.75697311       3.15836437       0.00000000       0.00000000       0.00000000
C        4.43979063       8.44802421       9.58388405       0.00000000       0.00000000       0.00000000
N        5.08852058       8.20020984       2.35100376       0.00000000       0.00000000       0.00000000
N        0.53594785       5.07707968       8.87332009       0.00000000       0.00000000       0.00000000
N        1.17909990       5.13449234       3.05748103       0.00000000       0.00000000       0.00000000
N        5.69272281       8.06077206       9.51285994       0.00000000       0.00000000       0.00000000
N        3.36290879       0.75900924       3.16000806       0.00000000       0.00000000       0.00000000
N        7.92411560       3.50892680       9.41980546       0.00000000       0.00000000       0.00000000
N        8.38793480       3.80389549       2.44917339       0.00000000       0.00000000       0.00000000
N        3.87024836       0.52425396       8.76685622       0.00000000       0.00000000       0.00000000
H        5.29523101       0.79628343       3.87487264       0.00000000       0.00000000       0.00000000
H        0.74762185       3.63592663      10.33298356       0.00000000       0.00000000       0.00000000
H        8.32031381       5.27394885       3.89372051       0.00000000       0.00000000       0.00000000
H        3.82794933       8.02978010      10.38918707       0.00000000       0.00000000       0.00000000
H        6.08959549       7.99372663       2.37777467       0.00000000       0.00000000       0.00000000
H        1.49874407       5.38963542       9.01766458       0.00000000       0.00000000       0.00000000
H        1.54814103       5.84451021       3.69441533       0.00000000       0.00000000       0.00000000
H        6.07300928       7.43851862      10.22992683       0.00000000       0.00000000       0.00000000
H        4.50671107       7.74603683       1.64056271       0.00000000       0.00000000       0.00000000
H        8.99845894       5.51104440       8.13098422       0.00000000       0.00000000       0.00000000
H        1.83288901       4.69705342       2.40982395       0.00000000       0.00000000       0.00000000
H        6.33554418       8.41141082       8.80427967       0.00000000       0.00000000       0.00000000
H        2.65510666       0.38051181       2.53230698       0.00000000       0.00000000       0.00000000
H        7.24324551       3.84855409       8.74207236       0.00000000       0.00000000       0.00000000
H        8.90850938       3.28971880       1.73214738       0.00000000       0.00000000       0.00000000
H        4.37864284       0.94206948       7.98170193       0.00000000       0.00000000       0.00000000
H        3.05811159       1.43690264       3.86254722       0.00000000       0.00000000       0.00000000
H        7.63144364       2.75658398      10.04775884       0.00000000       0.00000000       0.00000000
H        7.38587126       3.62987443       2.55447458       0.00000000       0.00000000       0.00000000
H        2.86956695       0.71028310       8.86449281       0.00000000       0.00000000       0.00000000
Pb       4.53083800       4.28292591      12.55414679       0.00000000       0.00000000       0.00000000
Pb       0.02114306       0.10595805       6.15605336       0.00000000       0.00000000       0.00000000
Pb       8.99824696       8.67180981      12.55414682       0.00000000       0.00000000       0.00000000
Pb       4.48855201       4.49484198       6.15605338       0.00000000       0.00000000       0.00000000
I        7.17846840       6.23686154       6.43993606       0.00000000       0.00000000       0.00000000
I        8.66456559       8.72915931       2.96947357       0.00000000       0.00000000       0.00000000
I        6.36795418       1.71737741      12.30292202       0.00000000       0.00000000       0.00000000
I        1.84092141       2.54090661       0.04184266       0.00000000       0.00000000       0.00000000
I        1.85825931       2.67150641       5.90482872       0.00000000       0.00000000       0.00000000
I        2.65143571       7.06039039       5.90482875       0.00000000       0.00000000       0.00000000
I        7.16113085       6.10626132      12.30292208       0.00000000       0.00000000       0.00000000
I        6.35061657       1.84797759       6.43993602       0.00000000       0.00000000       0.00000000
I        4.15487051       4.43749223       9.36756700       0.00000000       0.00000000       0.00000000
I        0.35482441       0.04860842       9.36756694       0.00000000       0.00000000       0.00000000
I        2.66877356       6.92979047       0.04184262       0.00000000       0.00000000       0.00000000
I        4.86451931       4.34027537       2.96947354       0.00000000       0.00000000       0.00000000
48
Lattice="9.01938999317578 0.0 0.0 0.0 8.777767844565316 0.0 0.0 0.0 12.796186806294449" Properties=species:S:1:pos:R:3:momenta:R:3 config_id=O-FAPI3_small_rotation_15 phase=O-FAPI3 mode=small_rotation seed=3197297964 source=O-FAPI3/CONTCAR pbc="T T T"
C        4.58144029       0.35721994       3.16826706       0.00000000       0.00000000       0.00000000
C        0.07174524       4.03166402       9.56636042       0.00000000       0.00000000       0.00000000
C        8.94764466       4.74610384       3.16826714       0.00000000       0.00000000       0.00000000
C        4.43990414       8.41819316       9.56642580       0.00000000       0.00000000       0.00000000
N        5.14641592       8.21104204       2.42775928       0.00000000       0.00000000       0.00000000
N        0.63672090       4.95560973       8.82585276       0.00000000       0.00000000       0.00000000
N        1.18184367       5.12533409       3.07055868       0.00000000       0.00000000       0.00000000
N        5.69550464       8.04687554       9.46425765       0.00000000       0.00000000       0.00000000
N        3.32785132       0.73645021       3.07055870       0.00000000       0.00000000       0.00000000
N        7.83754632       3.65243376       9.46865215       0.00000000       0.00000000       0.00000000
N        8.38266906       3.82215805       2.42775938       0.00000000       0.00000000       0.00000000
N        3.86736345       0.56313437       8.83019900       0.00000000       0.00000000       0.00000000
H        5.19802154       0.84618877       3.92887723       0.00000000       0.00000000       0.00000000
H        0.68832651       3.54269529      10.32697070       0.00000000       0.00000000       0.00000000
H        8.33106347       5.23507262       3.92887735       0.00000000       0.00000000       0.00000000
H        3.82832984       7.92321672      10.32719257       0.00000000       0.00000000       0.00000000
H        6.14780018       8.03459813       2.53546294       0.00000000       0.00000000       0.00000000
H        1.63810518       5.13205364       8.93355632       0.00000000       0.00000000       0.00000000
H        1.55804586       5.80949951       3.73115812       0.00000000       0.00000000       0.00000000
H        6.07760896       7.36303406      10.12179789       0.00000000       0.00000000       0.00000000
H        4.63340450       7.72431708       1.68653056       0.00000000       0.00000000       0.00000000
H        0.12370953       5.44233472       8.08462394       0.00000000       0.00000000       0.00000000
H        1.82884427       4.71238905       2.40039504       0.00000000       0.00000000       0.00000000
H        6.33819993       8.46574420       8.79362760       0.00000000       0.00000000       0.00000000
H        2.68085064       0.32350507       2.40039511       0.00000000       0.00000000       0.00000000
H        7.19054559       4.06537885       8.79848849       0.00000000       0.00000000       0.00000000
H        8.89568041       3.33543309       1.68653065       0.00000000       0.00000000       0.00000000
H        4.37543542       1.05518032       8.08908114       0.00000000       0.00000000       0.00000000
H        2.95164911       1.42061566       3.73115812       0.00000000       0.00000000       0.00000000
H        7.46134412       2.96826826      10.12925150       0.00000000       0.00000000       0.00000000
H        7.38128478       3.64571414       2.53546309       0.00000000       0.00000000       0.00000000
H        2.86521840       0.73317178       8.94108451       0.00000000       0.00000000       0.00000000
Pb       4.53083800       4.28292591      12.55414679       0.00000000       0.00000000       0.00000000
Pb       0.02114306       0.10595805       6.15605336       0.00000000       0.00000000       0.00000000
Pb       8.99824696       8.67180981      12.55414682       0.00000000       0.00000000       0.00000000
Pb       4.48855201       4.49484198       6.15605338       0.00000000       0.00000000       0.00000000
I        7.17846840       6.23686154       6.43993606       0.00000000       0.00000000       0.00000000
I        8.66456559       8.72915931       2.96947357       0.00000000       0.00000000       0.00000000
I        6.36795418       1.71737741      12.30292202       0.00000000       0.00000000       0.00000000
I        1.84092141       2.54090661       0.04184266       0.00000000       0.00000000       0.00000000
I        1.85825931       2.67150641       5.90482872       0.00000000       0.00000000       0.00000000
I        2.65143571       7.06039039       5.90482875       0.00000000       0.00000000       0.00000000
I        7.16113085       6.10626132      12.30292208       0.00000000       0.00000000       0.00000000
I        6.35061657       1.84797759       6.43993602       0.00000000       0.00000000       0.00000000
I        4.15487051       4.43749223       9.36756700       0.00000000       0.00000000       0.00000000
I        0.35482441       0.04860842       9.36756694       0.00000000       0.00000000       0.00000000
I        2.66877356       6.92979047       0.04184262       0.00000000       0.00000000       0.00000000
I        4.86451931       4.34027537       2.96947354       0.00000000       0.00000000       0.00000000
48
Lattice="9.01938999317578 0.0 0.0 0.0 8.777767844565316 0.0 0.0 0.0 12.796186806294449" Properties=species:S:1:pos:R:3:momenta:R:3 config_id=O-FAPI3_small_rotation_16 phase=O-FAPI3 mode=small_rotation seed=1210808760 source=O-FAPI3/CONTCAR pbc="T T T"
C        4.58144029       0.35721994       3.16826706       0.00000000       0.00000000       0.00000000
C        0.05450929       3.98197373       9.54269587       0.00000000       0.00000000       0.00000000
C        8.95918066       4.79263229       3.14258759       0.00000000       0.00000000       0.00000000
C        4.42554415       8.40851009       9.54722560       0.00000000       0.00000000       0.00000000
N        5.14641592       8.21104204       2.42775928       0.00000000       0.00000000       0.00000000
N        0.71963174       4.81827867       8.78149226       0.00000000       0.00000000       0.00000000
N        1.24747241       4.89660322       3.20588381       0.00000000       0.00000000       0.00000000
N        5.66331520       7.98413591       9.43463294       0.00000000       0.00000000       0.00000000
N        3.32785132       0.73645021       3.07055870       0.00000000       0.00000000       0.00000000
N        7.76928588       3.83119779       9.53278965       0.00000000       0.00000000       0.00000000
N        8.30713030       4.01214906       2.31379253       0.00000000       0.00000000       0.00000000
N        3.91164441       0.63402518       8.87599155       0.00000000       0.00000000       0.00000000
H        5.19802154       0.84618877       3.92887723       0.00000000       0.00000000       0.00000000
H        0.62760765       3.36658946      10.24316097       0.00000000       0.00000000       0.00000000
H        8.37115686       5.39955543       3.83804646       0.00000000       0.00000000       0.00000000
H        3.77718580       7.88813285      10.25900496       0.00000000       0.00000000       0.00000000
H        6.14780018       8.03459813       2.53546294       0.00000000       0.00000000       0.00000000
H        1.74152803       4.81321884       8.81621038       0.00000000       0.00000000       0.00000000
H        1.67566818       5.48320229       3.92598932       0.00000000       0.00000000       0.00000000
H        6.00001126       7.23417139      10.04306620       0.00000000       0.00000000       0.00000000
H        4.63340450       7.72431708       1.68653056       0.00000000       0.00000000       0.00000000
H        0.24918986       5.41268713       8.09238771       0.00000000       0.00000000       0.00000000
H        1.86994873       4.35723883       2.60599885       0.00000000       0.00000000       0.00000000
H        6.33745235       8.42032402       8.80731174       0.00000000       0.00000000       0.00000000
H        2.68085064       0.32350507       2.40039511       0.00000000       0.00000000       0.00000000
H        7.15933930       4.37393338       8.92315354       0.00000000       0.00000000       0.00000000
H        8.79281129       3.42941079       1.62529274       0.00000000       0.00000000       0.00000000
H        4.45614463       1.15513079       8.18211083       0.00000000       0.00000000       0.00000000
H        2.95164911       1.42061566       3.73115812       0.00000000       0.00000000       0.00000000
H        7.32616449       3.20064969      10.20513967       0.00000000       0.00000000       0.00000000
H        7.28558241       4.05260574       2.29629491       0.00000000       0.00000000       0.00000000
H        2.91708579       0.84470096       8.98540771       0.00000000       0.00000000       0.00000000
Pb       4.53083800       4.28292591      12.55414679       0.00000000       0.00000000       0.00000000
Pb       0.02114306       0.10595805       6.15605336       0.00000000       0.00000000       0.00000000
Pb       8.99824696       8.67180981      12.55414682       0.00000000       0.00000000       0.00000000
Pb       4.48855201       4.49484198       6.15605338       0.00000000       0.00000000       0.00000000
I        7.17846840       6.23686154       6.43993606       0.00000000       0.00000000       0.00000000
I        8.66456559       8.72915931       2.96947357       0.00000000       0.00000000       0.00000000
I        6.36795418       1.71737741      12.30292202       0.00000000       0.00000000       0.00000000
I        1.84092141       2.54090661       0.04184266       0.00000000       0.00000000       0.00000000
I        1.85825931       2.67150641       5.90482872       0.00000000       0.00000000       0.00000000
I        2.65143571       7.06039039       5.90482875       0.00000000       0.00000000       0.00000000
I        7.16113085       6.10626132      12.30292208       0.00000000       0.00000000       0.00000000
I        6.35061657       1.84797759       6.43993602       0.00000000       0.00000000       0.00000000
I        4.15487051       4.43749223       9.36756700       0.00000000       0.00000000       0.00000000
I        0.35482441       0.04860842       9.36756694       0.00000000       0.00000000       0.00000000
I        2.66877356       6.92979047       0.04184262       0.00000000       0.00000000       0.00000000
I        4.86451931       4.34027537       2.96947354       0.00000000       0.00000000       0.00000000
48
Lattice="9.01938999317578 0.0 0.0 0.0 8.777767844565316 0.0 0.0 0.0 12.796186806294449" Properties=species:S:1:pos:R:3:momenta:R:3 config_id=O-FAPI3_small_rotation_17 phase=O-FAPI3 mode=small_rotation seed=3269417070 source=O-FAPI3/CONTCAR pbc="T T T"
C        4.61014491       0.32833125       3.16047151       0.00000000       0.00000000       0.00000000
C        0.07151545       4.03276728       9.56726117       0.00000000       0.00000000       0.00000000
C        8.94153339       4.71986024       3.17883515       0.00000000       0.00000000       0.00000000
C        4.44299634       8.40593609       9.56057825       0.00000000       0.00000000       0.00000000
N        5.06180756       8.16229597       2.36897832       0.00000000       0.00000000       0.00000000
N        0.63625195       4.95609581       8.82580188       0.00000000       0.00000000       0.00000000
N        1.20966179       4.97206668       3.23830124       0.00000000       0.00000000       0.00000000
N        5.66588536       7.97273431       9.35630790       0.00000000       0.00000000       0.00000000
N        3.38830742       0.80932160       3.13578786       0.00000000       0.00000000       0.00000000
N        7.83820534       3.65102536       9.46794753       0.00000000       0.00000000       0.00000000
N        8.35985348       3.99753315       2.25087122       0.00000000       0.00000000       0.00000000
N        3.89447913       0.64758849       8.94321614       0.00000000       0.00000000       0.00000000
H        5.30034111       0.74366157       3.90136335       0.00000000       0.00000000       0.00000000
H        0.68749754       3.54662252      10.33016366       0.00000000       0.00000000       0.00000000
H        8.30874968       5.14034914       3.96659437       0.00000000       0.00000000       0.00000000
H        3.83961930       7.87884102      10.30616380       0.00000000       0.00000000       0.00000000
H        6.04954307       7.90322466       2.42154814       0.00000000       0.00000000       0.00000000
H        1.63709924       5.13461259       8.93506965       0.00000000       0.00000000       0.00000000
H        1.58860791       5.49296177       4.03270050       0.00000000       0.00000000       0.00000000
H        6.03585979       7.20924754       9.92745492       0.00000000       0.00000000       0.00000000
H        4.47583291       7.74034462       1.64227846       0.00000000       0.00000000       0.00000000
H        0.12380551       5.44022964       8.08248826       0.00000000       0.00000000       0.00000000
H        1.87175090       4.60787735       2.55473936       0.00000000       0.00000000       0.00000000
H        6.29990947       8.41394374       8.69177760       0.00000000       0.00000000       0.00000000
H        2.67836397       0.46948887       2.48868136       0.00000000       0.00000000       0.00000000
H        7.19176556       4.06129237       8.79560124       0.00000000       0.00000000       0.00000000
H        8.88843179       3.58725430       1.47512764       0.00000000       0.00000000       0.00000000
H        4.39547599       1.17601069       8.22260936       0.00000000       0.00000000       0.00000000
H        3.10122585       1.50149175       3.83183866       0.00000000       0.00000000       0.00000000
H        7.46196010       2.96764392      10.12933347       0.00000000       0.00000000       0.00000000
H        7.34068377       3.91517123       2.25442302       0.00000000       0.00000000       0.00000000
H        2.91187206       0.86504918       9.12403989       0.00000000       0.00000000       0.00000000
Pb       4.53083800       4.28292591      12.55414679       0.00000000       0.00000000       0.00000000
Pb       0.02114306       0.10595805       6.15605336       0.00000000       0.00000000       0.00000000
Pb       8.99824696       8.67180981      12.55414682       0.00000000       0.00000000       0.00000000
Pb       4.48855201       4.49484198       6.15605338       0.00000000       0.00000000       0.00000000
I        7.17846840       6.23686154       6.43993606       0.00000000       0.00000000       0.00000000
I        8.66456559       8.72915931       2.96947357       0.00000000       0.00000000       0.00000000
I        6.36795418       1.71737741      12.30292202       0.00000000       0.00000000       0.00000000
I        1.84092141       2.54090661       0.04184266       0.00000000       0.00000000       0.00000000
I        1.85825931       2.67150641       5.90482872       0.00000000       0.00000000       0.00000000
I        2.65143571       7.06039039       5.90482875       0.00000000       0.00000000       0.00000000
I        7.16113085       6.10626132      12.30292208       0.00000000       0.00000000       0.00000000
I        6.35061657       1.84797759       6.43993602       0.00000000       0.00000000       0.00000000
I        4.15487051       4.43749223       9.36756700       0.00000000       0.00000000       0.00000000
I        0.35482441       0.04860842       9.36756694       0.00000000       0.00000000       0.00000000
I        2.66877356       6.92979047       0.04184262       0.00000000       0.00000000       0.00000000
I        4.86451931       4.34027537       2.96947354       0.00000000       0.00000000       0.00000000
48
Lattice="9.01938999317578 0.0 0.0 0.0 8.777767844565316 0.0 0.0 0.0 12.796186806294449" Properties=species:S:1:pos:R:3:momenta:R:3 config_id=O-FAPI3_small_rotation_18 phase=O-FAPI3 mode=small_rotation seed=4045225119 source=O-FAPI3/CONTCAR pbc="T T T"
C        4.59267166       0.37075834       3.14910568       0.00000000       0.00000000       0.00000000
C        0.04954377       4.07351274       9.60537882       0.00000000       0.00000000       0.00000000
C        8.94918164       4.74570344       3.16978294       0.00000000       0.00000000       0.00000000
C        4.40883341       8.41775600       9.53776607       0.00000000       0.00000000       0.00000000
N        5.10266210       8.12734659       2.50232368       0.00000000       0.00000000       0.00000000
N        0.64685061       4.94610559       8.82882810       0.00000000       0.00000000       0.00000000
N        1.19733768       5.08326485       3.10476560       0.00000000       0.00000000       0.00000000
N        5.57227829       7.84511078       9.32962871       0.00000000       0.00000000       0.00000000
N        3.36212314       0.80876193       3.01217128       0.00000000       0.00000000       0.00000000
N        7.84595600       3.62692472       9.43294857       0.00000000       0.00000000       0.00000000
N        8.36584297       3.86459711       2.39222740       0.00000000       0.00000000       0.00000000
N        4.01687428       0.76539614       8.98908615       0.00000000       0.00000000       0.00000000
H        5.23795427       0.89512560       3.86075175       0.00000000       0.00000000       0.00000000
H        0.60885001       3.69183566      10.46519858       0.00000000       0.00000000       0.00000000
H        8.33640779       5.23332403       3.93432535       0.00000000       0.00000000       0.00000000
H        3.71787912       7.91984556      10.22512205       0.00000000       0.00000000       0.00000000
H        6.09284087       7.90601750       2.62906122       0.00000000       0.00000000       0.00000000
H        1.62580712       5.18003274       9.00889818       0.00000000       0.00000000       0.00000000
H        1.58515712       5.73386480       3.79201942       0.00000000       0.00000000       0.00000000
H        5.82166910       6.99947138       9.84799180       0.00000000       0.00000000       0.00000000
H        4.56096661       7.60124579       1.81001893       0.00000000       0.00000000       0.00000000
H        0.18879370       5.33241818       7.99789579       0.00000000       0.00000000       0.00000000
H        1.84152506       4.66783403       2.43342921       0.00000000       0.00000000       0.00000000
H        6.27984168       8.24807404       8.71707054       0.00000000       0.00000000       0.00000000
H        2.69100435       0.37035290       2.38316421       0.00000000       0.00000000       0.00000000
H        7.25065989       3.94047690       8.66772932       0.00000000       0.00000000       0.00000000
H        8.87485650       3.38229206       1.64537472       0.00000000       0.00000000       0.00000000
H        4.60567604       1.27611783       8.32427200       0.00000000       0.00000000       0.00000000
H        3.02689092       1.57335004       3.60295589       0.00000000       0.00000000       0.00000000
H        7.43484544       2.99384889      10.12302475       0.00000000       0.00000000       0.00000000
H        7.35716833       3.72042550       2.47762657       0.00000000       0.00000000       0.00000000
H        3.06471052       1.09514117       9.16273929       0.00000000       0.00000000       0.00000000
Pb       4.53083800       4.28292591      12.55414679       0.00000000       0.00000000       0.00000000
Pb       0.02114306       0.10595805       6.15605336       0.00000000       0.00000000       0.00000000
Pb       8.99824696       8.67180981      12.55414682       0.00000000       0.00000000       0.00000000
Pb       4.48855201       4.49484198       6.15605338       0.00000000       0.00000000       0.00000000
I        7.17846840       6.23686154       6.43993606       0.00000000       0.00000000       0.00000000
I        8.66456559       8.72915931       2.96947357       0.00000000       0.00000000       0.00000000
I        6.36795418       1.71737741      12.30292202       0.00000000       0.00000000       0.00000000
I        1.84092141       2.54090661       0.04184266       0.00000000       0.00000000       0.00000000
I        1.85825931       2.67150641       5.90482872       0.00000000       0.00000000       0.00000000
I        2.65143571       7.06039039       5.90482875       0.00000000       0.00000000       0.00000000
I        7.16113085       6.10626132      12.30292208       0.00000000       0.00000000       0.00000000
I        6.35061657       1.84797759       6.43993602       0.00000000       0.00000000       0.00000000
I        4.15487051       4.43749223       9.36756700       0.00000000       0.00000000       0.00000000
I        0.35482441       0.04860842       9.36756694       0.00000000       0.00000000       0.00000000
I        2.66877356       6.92979047       0.04184262       0.00000000       0.00000000       0.00000000
I        4.86451931       4.34027537       2.96947354       0.00000000       0.00000000       0.00000000
48
Lattice="9.01938999317578 0.0 0.0 0.0 8.777767844565316 0.0 0.0 0.0 12.796186806294449" Properties=species:S:1:pos:R:3:momenta:R:3 config_id=O-FAPI3_wide_rotation_01 phase=O-FAPI3 mode=wide_rotation seed=818436192 source=O-FAPI3/CONTCAR pbc="T T T"
C        4.15334146       8.64233876       2.63194065       0.00000000       0.00000000       0.00000000
C        0.07174524       4.03166402       9.56636042       0.00000000       0.00000000       0.00000000
C        8.94764466       4.74610384       3.16826714       0.00000000       0.00000000       0.00000000
C        4.43794979       8.42054792       9.56636048       0.00000000       0.00000000       0.00000000
N        3.53374368       1.01579944       2.74146887       0.00000000       0.00000000       0.00000000
N        0.63672090       4.95560973       8.82585276       0.00000000       0.00000000       0.00000000
N        1.18184367       5.12533409       3.07055868       0.00000000       0.00000000       0.00000000
N        5.69153871       8.04131766       9.46865213       0.00000000       0.00000000       0.00000000
N        5.29672402       8.34634614       3.20632077       0.00000000       0.00000000       0.00000000
N        7.83754632       3.65243376       9.46865215       0.00000000       0.00000000       0.00000000
N        8.38266906       3.82215805       2.42775938       0.00000000       0.00000000       0.00000000
N        3.87297416       0.56672577       8.82585280       0.00000000       0.00000000       0.00000000
H        3.68085779       7.86710473       2.02074332       0.00000000       0.00000000       0.00000000
H        0.68832651       3.54269529      10.32697070       0.00000000       0.00000000       0.00000000
H        8.33106347       5.23507262       3.92887735       0.00000000       0.00000000       0.00000000
H        3.82136857       7.93157924      10.32697083       0.00000000       0.00000000       0.00000000
H        2.68043410       1.17181346       2.20015072       0.00000000       0.00000000       0.00000000
H        1.63810518       5.13205364       8.93355632       0.00000000       0.00000000       0.00000000
H        1.55804586       5.80949951       3.73115812       0.00000000       0.00000000       0.00000000
H        6.06774094       7.35715222      10.12925155       0.00000000       0.00000000       0.00000000
H        3.92626823       1.79109129       3.28400823       0.00000000       0.00000000       0.00000000
H        0.12370953       5.44233472       8.08462394       0.00000000       0.00000000       0.00000000
H        1.82884427       4.71238905       2.40039504       0.00000000       0.00000000       0.00000000
H        6.33853940       8.45426265       8.79848842       0.00000000       0.00000000       0.00000000
H        5.79654799       0.22574415       3.80344877       0.00000000       0.00000000       0.00000000
H        7.19054559       4.06537885       8.79848849       0.00000000       0.00000000       0.00000000
H        8.89568041       3.33543309       1.68653065       0.00000000       0.00000000       0.00000000
H        4.38598548       1.05345074       8.08462396       0.00000000       0.00000000       0.00000000
H        5.67900193       7.40176297       3.11898064       0.00000000       0.00000000       0.00000000
H        7.46134412       2.96826826      10.12925150       0.00000000       0.00000000       0.00000000
H        7.38128478       3.64571414       2.53546309       0.00000000       0.00000000       0.00000000
H        2.87158987       0.74316970       8.93355639       0.00000000       0.00000000       0.00000000
Pb       4.53083800       4.28292591      12.55414679       0.00000000       0.00000000       0.00000000
Pb       0.02114306       0.10595805       6.15605336       0.00000000       0.00000000       0.00000000
Pb       8.99824696       8.67180981      12.55414682       0.00000000       0.00000000       0.00000000
Pb       4.48855201       4.49484198       6.15605338       0.00000000       0.00000000       0.00000000
I        7.17846840       6.23686154       6.43993606       0.00000000       0.00000000       0.00000000
I        8.66456559       8.72915931       2.96947357       0.00000000       0.00000000       0.00000000
I        6.36795418       1.71737741      12.30292202       0.00000000       0.00000000       0.00000000
I        1.84092141       2.54090661       0.04184266       0.00000000       0.00000000       0.00000000
I        1.85825931       2.67150641       5.90482872       0.00000000       0.00000000       0.00000000
I        2.65143571       7.06039039       5.90482875       0.00000000       0.00000000       0.00000000
I        7.16113085       6.10626132      12.30292208       0.00000000       0.00000000       0.00000000
I        6.35061657       1.84797759       6.43993602       0.00000000       0.00000000       0.00000000
I        4.15487051       4.43749223       9.36756700       0.00000000       0.00000000       0.00000000
I        0.35482441       0.04860842       9.36756694       0.00000000       0.00000000       0.00000000
I        2.66877356       6.92979047       0.04184262       0.00000000       0.00000000       0.00000000
I        4.86451931       4.34027537       2.96947354       0.00000000       0.00000000       0.00000000
48
Lattice="9.01938999317578 0.0 0.0 0.0 8.777767844565316 0.0 0.0 0.0 12.796186806294449" Properties=species:S:1:pos:R:3:momenta:R:3 config_id=O-FAPI3_wide_rotation_02 phase=O-FAPI3 mode=wide_rotation seed=2236179492 source=O-FAPI3/CONTCAR pbc="T T T"
C        4.44354867       0.30055580       2.48074518       0.00000000       0.00000000       0.00000000
C        8.92283152       3.89421783       9.53401808       0.00000000       0.00000000       0.00000000
C        8.94764466       4.74610384       3.16826714       0.00000000       0.00000000       0.00000000
C        4.43794979       8.42054792       9.56636048       0.00000000       0.00000000       0.00000000
N        5.39117788       0.28356357       3.38790289       0.00000000       0.00000000       0.00000000
N        0.66402809       4.00194845       8.47047355       0.00000000       0.00000000       0.00000000
N        1.18184367       5.12533409       3.07055868       0.00000000       0.00000000       0.00000000
N        5.69153871       8.04131766       9.46865213       0.00000000       0.00000000       0.00000000
N        3.19885476       8.71352344       2.68691432       0.00000000       0.00000000       0.00000000
N        7.95177386       4.71986678       9.85055953       0.00000000       0.00000000       0.00000000
N        8.38266906       3.82215805       2.42775938       0.00000000       0.00000000       0.00000000
N        3.87297416       0.56672577       8.82585280       0.00000000       0.00000000       0.00000000
H        4.70673745       0.64976065       1.47746136       0.00000000       0.00000000       0.00000000
H        0.09440153       3.05706199      10.21261609       0.00000000       0.00000000       0.00000000
H        8.33106347       5.23507262       3.92887735       0.00000000       0.00000000       0.00000000
H        3.82136857       7.93157924      10.32697083       0.00000000       0.00000000       0.00000000
H        6.34570031       0.52350381       3.11074125       0.00000000       0.00000000       0.00000000
H        1.35022922       3.26908336       8.27672174       0.00000000       0.00000000       0.00000000
H        1.55804586       5.80949951       3.73115812       0.00000000       0.00000000       0.00000000
H        6.06774094       7.35715222      10.12925155       0.00000000       0.00000000       0.00000000
H        5.21942313       8.73136272       4.34243047       0.00000000       0.00000000       0.00000000
H        0.53072728       4.75118209       7.78462962       0.00000000       0.00000000       0.00000000
H        1.82884427       4.71238905       2.40039504       0.00000000       0.00000000       0.00000000
H        6.33853940       8.45426265       8.79848842       0.00000000       0.00000000       0.00000000
H        2.86542846       8.39017648       3.59384677       0.00000000       0.00000000       0.00000000
H        7.71660005       5.53282575       9.28307039       0.00000000       0.00000000       0.00000000
H        8.89568041       3.33543309       1.68653065       0.00000000       0.00000000       0.00000000
H        4.38598548       1.05345074       8.08462396       0.00000000       0.00000000       0.00000000
H        2.50885167       0.04045194       1.93929378       0.00000000       0.00000000       0.00000000
H        7.44878222       4.59738855      10.73260291       0.00000000       0.00000000       0.00000000
H        7.38128478       3.64571414       2.53546309       0.00000000       0.00000000       0.00000000
H        2.87158987       0.74316970       8.93355639       0.00000000       0.00000000       0.00000000
Pb       4.53083800       4.28292591      12.55414679       0.00000000       0.00000000       0.00000000
Pb       0.02114306       0.10595805       6.15605336       0.00000000       0.00000000       0.00000000
Pb       8.99824696       8.67180981      12.55414682       0.00000000       0.00000000       0.00000000
Pb       4.48855201       4.49484198       6.15605338       0.00000000       0.00000000       0.00000000
I        7.17846840       6.23686154       6.43993606       0.00000000       0.00000000       0.00000000
I        8.66456559       8.72915931       2.96947357       0.00000000       0.00000000       0.00000000
I        6.36795418       1.71737741      12.30292202       0.00000000       0.00000000       0.00000000
I        1.84092141       2.54090661       0.04184266       0.00000000       0.00000000       0.00000000
I        1.85825931       2.67150641       5.90482872       0.00000000       0.00000000       0.00000000
I        2.65143571       7.06039039       5.90482875       0.00000000       0.00000000       0.00000000
I        7.16113085       6.10626132      12.30292208       0.00000000       0.00000000       0.00000000
I        6.35061657       1.84797759       6.43993602       0.00000000       0.00000000       0.00000000
I        4.15487051       4.43749223       9.36756700       0.00000000       0.00000000       0.00000000
I        0.35482441       0.04860842       9.36756694       0.00000000       0.00000000       0.00000000
I        2.66877356       6.92979047       0.04184262       0.00000000       0.00000000       0.00000000
I        4.86451931       4.34027537       2.96947354       0.00000000       0.00000000       0.00000000
48
Lattice="9.01938999317578 0.0 0.0 0.0 8.777767844565316 0.0 0.0 0.0 12.796186806294449" Properties=species:S:1:pos:R:3:momenta:R:3 config_id=O-FAPI3_wide_rotation_03 phase=O-FAPI3 mode=wide_rotation seed=2640389311 source=O-FAPI3/CONTCAR pbc="T T T"
C        4.43423365       0.47061643       2.58852944       0.00000000       0.00000000       0.00000000
C        8.74833049       4.58390856       9.47807780       0.00000000       0.00000000       0.00000000
C        8.94764466       4.74610384       3.16826714       0.00000000       0.00000000       0.00000000
C        4.43794979       8.42054792       9.56636048       0.00000000       0.00000000       0.00000000
N        5.43000550       8.56119122       3.09590416       0.00000000       0.00000000       0.00000000
N        0.50120285       3.72446083      10.09951584       0.00000000       0.00000000       0.00000000
N        1.18184367       5.12533409       3.07055868       0.00000000       0.00000000       0.00000000
N        5.69153871       8.04131766       9.46865213       0.00000000       0.00000000       0.00000000
N        3.16808295       0.29271831       2.88863357       0.00000000       0.00000000       0.00000000
N        8.26058558       4.41955162       8.26979831       0.00000000       0.00000000       0.00000000
N        8.38266906       3.82215805       2.42775938       0.00000000       0.00000000       0.00000000
N        3.87297416       0.56672577       8.82585280       0.00000000       0.00000000       0.00000000
H        4.67510204       1.25524568       1.86456110       0.00000000       0.00000000       0.00000000
H        8.49467046       5.51061600      10.00215870       0.00000000       0.00000000       0.00000000
H        8.33106347       5.23507262       3.92887735       0.00000000       0.00000000       0.00000000
H        3.82136857       7.93157924      10.32697083       0.00000000       0.00000000       0.00000000
H        6.37618680       8.73025976       2.74710658       0.00000000       0.00000000       0.00000000
H        0.77478672       3.91417080      11.06629657       0.00000000       0.00000000       0.00000000
H        1.55804586       5.80949951       3.73115812       0.00000000       0.00000000       0.00000000
H        6.06774094       7.35715222      10.12925155       0.00000000       0.00000000       0.00000000
H        5.27622043       7.80184759       3.76616480       0.00000000       0.00000000       0.00000000
H        0.76514235       2.83015101       9.67519529       0.00000000       0.00000000       0.00000000
H        1.82884427       4.71238905       2.40039504       0.00000000       0.00000000       0.00000000
H        6.33853940       8.45426265       8.79848842       0.00000000       0.00000000       0.00000000
H        2.85736276       8.37278978       3.56311526       0.00000000       0.00000000       0.00000000
H        8.45866687       3.59404320       7.70628025       0.00000000       0.00000000       0.00000000
H        8.89568041       3.33543309       1.68653065       0.00000000       0.00000000       0.00000000
H        4.38598548       1.05345074       8.08462396       0.00000000       0.00000000       0.00000000
H        2.46032149       0.91606383       2.49301238       0.00000000       0.00000000       0.00000000
H        7.71755744       5.16948162       7.83537056       0.00000000       0.00000000       0.00000000
H        7.38128478       3.64571414       2.53546309       0.00000000       0.00000000       0.00000000
H        2.87158987       0.74316970       8.93355639       0.00000000       0.00000000       0.00000000
Pb       4.53083800       4.28292591      12.55414679       0.00000000       0.00000000       0.00000000
Pb       0.02114306       0.10595805       6.15605336       0.00000000       0.00000000       0.00000000
Pb       8.99824696       8.67180981      12.55414682       0.00000000       0.00000000       0.00000000
Pb       4.48855201       4.49484198       6.15605338       0.00000000       0.00000000       0.00000000
I        7.17846840       6.23686154       6.43993606       0.00000000       0.00000000       0.00000000
I        8.66456559       8.72915931       2.96947357       0.00000000       0.00000000       0.00000000
I        6.36795418       1.71737741      12.30292202       0.00000000       0.00000000       0.00000000
I        1.84092141       2.54090661       0.04184266       0.00000000       0.00000000       0.00000000
I        1.85825931       2.67150641       5.90482872       0.00000000       0.00000000       0.00000000
I        2.65143571       7.06039039       5.90482875       0.00000000       0.00000000       0.00000000
I        7.16113085       6.10626132      12.30292208       0.00000000       0.00000000       0.00000000
I        6.35061657       1.84797759       6.43993602       0.00000000       0.00000000       0.00000000
I        4.15487051       4.43749223       9.36756700       0.00000000       0.00000000       0.00000000
I        0.35482441       0.04860842       9.36756694       0.00000000       0.00000000       0.00000000
I        2.66877356       6.92979047       0.04184262       0.00000000       0.00000000       0.00000000
I        4.86451931       4.34027537       2.96947354       0.00000000       0.00000000       0.00000000
48
Lattice="9.01938999317578 0.0 0.0 0.0 8.777767844565316 0.0 0.0 0.0 12.796186806294449" Properties=species:S:1:pos:R:3:momenta:R:3 config_id=O-FAPI3_wide_rotation_04 phase=O-FAPI3 mode=wide_rotation seed=869899387 source=O-FAPI3/CONTCAR pbc="T T T"
C        4.12570052       0.42912207       2.61142155       0.00000000       0.00000000       0.00000000
C        8.47796957       4.39916569       9.39343400       0.00000000       0.00000000       0.00000000
C        8.94764466       4.74610384       3.16826714       0.00000000       0.00000000       0.00000000
C        4.43794979       8.42054792       9.56636048       0.00000000       0.00000000       0.00000000
N        3.64697933       7.99558471       2.76887213       0.00000000       0.00000000       0.00000000
N        8.49936617       3.09943332       9.21605668       0.00000000       0.00000000       0.00000000
N        1.18184367       5.12533409       3.07055868       0.00000000       0.00000000       0.00000000
N        5.69153871       8.04131766       9.46865213       0.00000000       0.00000000       0.00000000
N        5.20746462       0.89169429       3.19508345       0.00000000       0.00000000       0.00000000
N        0.48710244       5.19806881       9.22389883       0.00000000       0.00000000       0.00000000
N        8.38266906       3.82215805       2.42775938       0.00000000       0.00000000       0.00000000
N        3.87297416       0.56672577       8.82585280       0.00000000       0.00000000       0.00000000
H        3.58758151       1.10480381       1.93935539       0.00000000       0.00000000       0.00000000
H        7.53438808       4.85310252       9.71184604       0.00000000       0.00000000       0.00000000
H        8.33106347       5.23507262       3.92887735       0.00000000       0.00000000       0.00000000
H        3.82136857       7.93157924      10.32697083       0.00000000       0.00000000       0.00000000
H        2.75979197       7.75238092       2.32249395       0.00000000       0.00000000       0.00000000
H        7.62761152       2.57311739       9.30845993       0.00000000       0.00000000       0.00000000
H        1.55804586       5.80949951       3.73115812       0.00000000       0.00000000       0.00000000
H        6.06774094       7.35715222      10.12925155       0.00000000       0.00000000       0.00000000
H        4.09033005       7.31663078       3.39494212       0.00000000       0.00000000       0.00000000
H        0.32421542       2.61073157       8.90311461       0.00000000       0.00000000       0.00000000
H        1.82884427       4.71238905       2.40039504       0.00000000       0.00000000       0.00000000
H        6.33853940       8.45426265       8.79848842       0.00000000       0.00000000       0.00000000
H        5.77595308       0.32579847       3.82344290       0.00000000       0.00000000       0.00000000
H        1.40549994       4.85734722       8.94334981       0.00000000       0.00000000       0.00000000
H        8.89568041       3.33543309       1.68653065       0.00000000       0.00000000       0.00000000
H        4.38598548       1.05345074       8.08462396       0.00000000       0.00000000       0.00000000
H        5.54564414       1.82956155       2.96695704       0.00000000       0.00000000       0.00000000
H        0.39913344       6.19263265       9.44549816       0.00000000       0.00000000       0.00000000
H        7.38128478       3.64571414       2.53546309       0.00000000       0.00000000       0.00000000
H        2.87158987       0.74316970       8.93355639       0.00000000       0.00000000       0.00000000
Pb       4.53083800       4.28292591      12.55414679       0.00000000       0.00000000       0.00000000
Pb       0.02114306       0.10595805       6.15605336       0.00000000       0.00000000       0.00000000
Pb       8.99824696       8.67180981      12.55414682       0.00000000       0.00000000       0.00000000
Pb       4.48855201       4.49484198       6.15605338       0.00000000       0.00000000       0.00000000
I        7.17846840       6.23686154       6.43993606       0.00000000       0.00000000       0.00000000
I        8.66456559       8.72915931       2.96947357       0.00000000       0.00000000       0.00000000
I        6.36795418       1.71737741      12.30292202       0.00000000       0.00000000       0.00000000
I        1.84092141       2.54090661       0.04184266       0.00000000       0.00000000       0.00000000
I        1.85825931       2.67150641       5.90482872       0.00000000       0.00000000       0.00000000
I        2.65143571       7.06039039       5.90482875       0.00000000       0.00000000       0.00000000
I        7.16113085       6.10626132      12.30292208       0.00000000       0.00000000       0.00000000
I        6.35061657       1.84797759       6.43993602       0.00000000       0.00000000       0.00000000
I        4.15487051       4.43749223       9.36756700       0.00000000       0.00000000       0.00000000
I        0.35482441       0.04860842       9.36756694       0.00000000       0.00000000       0.00000000
I        2.66877356       6.92979047       0.04184262       0.00000000       0.00000000       0.00000000
I        4.86451931       4.34027537       2.96947354       0.00000000       0.00000000       0.00000000
48
Lattice="9.01938999317578 0.0 0.0 0.0 8.777767844565316 0.0 0.0 0.0 12.796186806294449" Properties=species:S:1:pos:R:3:momenta:R:3 config_id=O-FAPI3_wide_rotation_05 phase=O-FAPI3 mode=wide_rotation seed=3388352279 source=O-FAPI3/CONTCAR pbc="T T T"
C        4.31089362       0.05973769       3.28638785       0.00000000       0.00000000       0.00000000
C        0.09409155       3.94863018       9.46384366       0.00000000       0.00000000       0.00000000
C        0.56763337       4.67724275       2.76874737       0.00000000       0.00000000       0.00000000
C        4.87385698       8.46485468       8.91866137       0.00000000       0.00000000       0.00000000
N        3.36126926       8.40966421       2.48864708       0.00000000       0.00000000       0.00000000
N        0.13478373       4.00881417       8.15390213       0.00000000       0.00000000       0.00000000
N        8.72380256       4.51155006       1.79291763       0.00000000       0.00000000       0.00000000
N        5.40563339       0.72955216       9.51475499       0.00000000       0.00000000       0.00000000
N        5.33706312       0.78813321       2.91053687       0.00000000       0.00000000       0.00000000
N        8.32078354       4.66755966      10.22517008       0.00000000       0.00000000       0.00000000
N        0.30664944       4.49426211       4.04139440       0.00000000       0.00000000       0.00000000
N        3.79405819       7.83863498       9.32252793       0.00000000       0.00000000       0.00000000
H        4.24175300       8.57314657       4.34616363       0.00000000       0.00000000       0.00000000
H        0.77494895       3.25136556       9.96188596       0.00000000       0.00000000       0.00000000
H        1.58191894       4.98600183       2.49730061       0.00000000       0.00000000       0.00000000
H        5.37365953       8.08850059       8.02069373       0.00000000       0.00000000       0.00000000
H        2.63964583       7.79117530       2.86578639       0.00000000       0.00000000       0.00000000
H        0.73989463       3.35861207       7.64736387       0.00000000       0.00000000       0.00000000
H        0.00969537       4.61492281       0.82228972       0.00000000       0.00000000       0.00000000
H        6.28569977       1.11833572       9.16786514       0.00000000       0.00000000       0.00000000
H        3.37111969       8.60591565       1.48321669       0.00000000       0.00000000       0.00000000
H        8.53408346       4.62691506       7.62197976       0.00000000       0.00000000       0.00000000
H        7.76370534       4.21143807       1.95539474       0.00000000       0.00000000       0.00000000
H        5.01368605       1.13477305      10.36353421       0.00000000       0.00000000       0.00000000
H        5.47063680       1.09112358       1.94689393       0.00000000       0.00000000       0.00000000
H        7.66724570       5.35076178       9.84520156       0.00000000       0.00000000       0.00000000
H        8.39424577       4.22108334       4.36794575       0.00000000       0.00000000       0.00000000
H        3.26696477       8.14635184      10.14531884       0.00000000       0.00000000       0.00000000
H        5.99874503       1.13213410       3.61042436       0.00000000       0.00000000       0.00000000
H        8.39882806       4.60297348      11.24288307       0.00000000       0.00000000       0.00000000
H        1.02855351       4.71478320       4.73112477       0.00000000       0.00000000       0.00000000
H        3.42058182       7.07754480       8.75089853       0.00000000       0.00000000       0.00000000
Pb       4.53083800       4.28292591      12.55414679       0.00000000       0.00000000       0.00000000
Pb       0.02114306       0.10595805       6.15605336       0.00000000       0.00000000       0.00000000
Pb       8.99824696       8.67180981      12.55414682       0.00000000       0.00000000       0.00000000
Pb       4.48855201       4.49484198       6.15605338       0.00000000       0.00000000       0.00000000
I        7.17846840       6.23686154       6.43993606       0.00000000       0.00000000       0.00000000
I        8.66456559       8.72915931       2.96947357       0.00000000       0.00000000       0.00000000
I        6.36795418       1.71737741      12.30292202       0.00000000       0.00000000       0.00000000
I        1.84092141       2.54090661       0.04184266       0.00000000       0.00000000       0.00000000
I        1.85825931       2.67150641       5.90482872       0.00000000       0.00000000       0.00000000
I        2.65143571       7.06039039       5.90482875       0.00000000       0.00000000       0.00000000
I        7.16113085       6.10626132      12.30292208       0.00000000       0.00000000       0.00000000
I        6.35061657       1.84797759       6.43993602       0.00000000       0.00000000       0.00000000
I        4.15487051       4.43749223       9.36756700       0.00000000       0.00000000       0.00000000
I        0.35482441       0.04860842       9.36756694       0.00000000       0.00000000       0.00000000
I        2.66877356       6.92979047       0.04184262       0.00000000       0.00000000       0.00000000
I        4.86451931       4.34027537       2.96947354       0.00000000       0.00000000       0.00000000
48
Lattice="9.01938999317578 0.0 0.0 0.0 8.777767844565316 0.0 0.0 0.0 12.796186806294449" Properties=species:S:1:pos:R:3:momenta:R:3 config_id=O-FAPI3_wide_rotation_06 phase=O-FAPI3 mode=wide_rotation seed=3816830864 source=O-FAPI3/CONTCAR pbc="T T T"
C        4.58144029       0.35721994       3.16826706       0.00000000       0.00000000       0.00000000
C        0.06677007       4.05756972       8.95646490       0.00000000       0.00000000       0.00000000
C        8.85361346       4.81697842       2.84940600       0.00000000       0.00000000       0.00000000
C        4.43794979       8.42054792       9.56636048       0.00000000       0.00000000       0.00000000
N        5.14641592       8.21104204       2.42775928       0.00000000       0.00000000       0.00000000
N        7.83729568       3.66437162       9.03987817       0.00000000       0.00000000       0.00000000
N        0.99762628       5.28195820       2.45553340       0.00000000       0.00000000       0.00000000
N        5.69153871       8.04131766       9.46865213       0.00000000       0.00000000       0.00000000
N        3.32785132       0.73645021       3.07055870       0.00000000       0.00000000       0.00000000
N        0.63883602       4.92039248       9.76462644       0.00000000       0.00000000       0.00000000
N        8.64588530       3.60660692       3.31100631       0.00000000       0.00000000       0.00000000
N        3.87297416       0.56672577       8.82585280       0.00000000       0.00000000       0.00000000
H        5.19802154       0.84618877       3.92887723       0.00000000       0.00000000       0.00000000
H        0.67806601       3.64043567       8.15017256       0.00000000       0.00000000       0.00000000
H        7.99513107       5.49341192       2.79251646       0.00000000       0.00000000       0.00000000
H        3.82136857       7.93157924      10.32697083       0.00000000       0.00000000       0.00000000
H        6.14780018       8.03459813       2.53546294       0.00000000       0.00000000       0.00000000
H        7.50414283       2.93684432       8.40331223       0.00000000       0.00000000       0.00000000
H        1.08239011       6.25980813       2.16808492       0.00000000       0.00000000       0.00000000
H        6.06774094       7.35715222      10.12925155       0.00000000       0.00000000       0.00000000
H        4.63340450       7.72431708       1.68653056       0.00000000       0.00000000       0.00000000
H        7.21303882       4.00136965       9.77895716       0.00000000       0.00000000       0.00000000
H        1.85028789       4.72507863       2.48879014       0.00000000       0.00000000       0.00000000
H        6.33853940       8.45426265       8.79848842       0.00000000       0.00000000       0.00000000
H        2.68085064       0.32350507       2.40039511       0.00000000       0.00000000       0.00000000
H        0.13905134       5.36771237      10.53168128       0.00000000       0.00000000       0.00000000
H        0.38082136       2.91652261       3.37641048       0.00000000       0.00000000       0.00000000
H        4.38598548       1.05345074       8.08462396       0.00000000       0.00000000       0.00000000
H        2.95164911       1.42061566       3.73115812       0.00000000       0.00000000       0.00000000
H        1.60110593       5.21917152       9.58921342       0.00000000       0.00000000       0.00000000
H        7.68958858       3.31760870       3.52890452       0.00000000       0.00000000       0.00000000
H        2.87158987       0.74316970       8.93355639       0.00000000       0.00000000       0.00000000
Pb       4.53083800       4.28292591      12.55414679       0.00000000       0.00000000       0.00000000
Pb       0.02114306       0.10595805       6.15605336       0.00000000       0.00000000       0.00000000
Pb       8.99824696       8.67180981      12.55414682       0.00000000       0.00000000       0.00000000
Pb       4.48855201       4.49484198       6.15605338       0.00000000       0.00000000       0.00000000
I        7.17846840       6.23686154       6.43993606       0.00000000       0.00000000       0.00000000
I        8.66456559       8.72915931       2.96947357       0.00000000       0.00000000       0.00000000
I        6.36795418       1.71737741      12.30292202       0.00000000       0.00000000       0.00000000
I        1.84092141       2.54090661       0.04184266       0.00000000       0.00000000       0.00000000
I        1.85825931       2.67150641       5.90482872       0.00000000       0.00000000       0.00000000
I        2.65143571       7.06039039       5.90482875       0.00000000       0.00000000       0.00000000
I        7.16113085       6.10626132      12.30292208       0.00000000       0.00000000       0.00000000
I        6.35061657       1.84797759       6.43993602       0.00000000       0.00000000       0.00000000
I        4.15487051       4.43749223       9.36756700       0.00000000       0.00000000       0.00000000
I        0.35482441       0.04860842       9.36756694       0.00000000       0.00000000       0.00000000
I        2.66877356       6.92979047       0.04184262       0.00000000       0.00000000       0.00000000
I        4.86451931       4.34027537       2.96947354       0.00000000       0.00000000       0.00000000
48
Lattice="9.01938999317578 0.0 0.0 0.0 8.777767844565316 0.0 0.0 0.0 12.796186806294449" Properties=species:S:1:pos:R:3:momenta:R:3 config_id=O-FAPI3_wide_rotation_07 phase=O-FAPI3 mode=wide_rotation seed=1316961925 source=O-FAPI3/CONTCAR pbc="T T T"
C        4.30317992       8.52494666       2.79177727       0.00000000       0.00000000       0.00000000
C        0.13570877       4.33442722       8.99459116       0.00000000       0.00000000       0.00000000
C        8.94764466       4.74610384       3.16826714       0.00000000       0.00000000       0.00000000
C        4.43794979       8.42054792       9.56636048       0.00000000       0.00000000       0.00000000
N        4.07918438       0.57566777       1.79947842       0.00000000       0.00000000       0.00000000
N        0.11520837       3.08856176       9.40522942       0.00000000       0.00000000       0.00000000
N        1.18184367       5.12533409       3.07055868       0.00000000       0.00000000       0.00000000
N        5.69153871       8.04131766       9.46865213       0.00000000       0.00000000       0.00000000
N        4.62621508       0.10667926       4.01294701       0.00000000       0.00000000       0.00000000
N        8.30463074       5.26304605       9.36771160       0.00000000       0.00000000       0.00000000
N        8.38266906       3.82215805       2.42775938       0.00000000       0.00000000       0.00000000
N        3.87297416       0.56672577       8.82585280       0.00000000       0.00000000       0.00000000
H        4.20901646       7.45336551       2.59018889       0.00000000       0.00000000       0.00000000
H        0.91620271       4.62228515       8.28342459       0.00000000       0.00000000       0.00000000
H        8.33106347       5.23507262       3.92887735       0.00000000       0.00000000       0.00000000
H        3.82136857       7.93157924      10.32697083       0.00000000       0.00000000       0.00000000
H        3.89951399       0.19459755       0.86780949       0.00000000       0.00000000       0.00000000
H        0.86273219       2.45737019       9.10806226       0.00000000       0.00000000       0.00000000
H        1.55804586       5.80949951       3.73115812       0.00000000       0.00000000       0.00000000
H        6.06774094       7.35715222      10.12925155       0.00000000       0.00000000       0.00000000
H        4.16526780       1.59018387       1.91283032       0.00000000       0.00000000       0.00000000
H        8.44244955       2.75429548      10.08250198       0.00000000       0.00000000       0.00000000
H        1.82884427       4.71238905       2.40039504       0.00000000       0.00000000       0.00000000
H        6.33853940       8.45426265       8.79848842       0.00000000       0.00000000       0.00000000
H        4.72036322       1.08262402       4.29029295       0.00000000       0.00000000       0.00000000
H        7.53925559       5.07758282      10.01428503       0.00000000       0.00000000       0.00000000
H        8.89568041       3.33543309       1.68653065       0.00000000       0.00000000       0.00000000
H        4.38598548       1.05345074       8.08462396       0.00000000       0.00000000       0.00000000
H        4.72144980       8.17418665       4.74264729       0.00000000       0.00000000       0.00000000
H        8.35493613       6.19495681       8.94936516       0.00000000       0.00000000       0.00000000
H        7.38128478       3.64571414       2.53546309       0.00000000       0.00000000       0.00000000
H        2.87158987       0.74316970       8.93355639       0.00000000       0.00000000       0.00000000
Pb       4.53083800       4.28292591      12.55414679       0.00000000       0.00000000       0.00000000
Pb       0.02114306       0.10595805       6.15605336       0.00000000       0.00000000       0.00000000
Pb       8.99824696       8.67180981      12.55414682       0.00000000       0.00000000       0.00000000
Pb       4.48855201       4.49484198       6.15605338       0.00000000       0.00000000       0.00000000
I        7.17846840       6.23686154       6.43993606       0.00000000       0.00000000       0.00000000
I        8.66456559       8.72915931       2.96947357       0.00000000       0.00000000       0.00000000
I        6.36795418       1.71737741      12.30292202       0.00000000       0.00000000       0.00000000
I        1.84092141       2.54090661       0.04184266       0.00000000       0.00000000       0.00000000
I        1.85825931       2.67150641       5.90482872       0.00000000       0.00000000       0.00000000
I        2.65143571       7.06039039       5.90482875       0.00000000       0.00000000       0.00000000
I        7.16113085       6.10626132      12.30292208       0.00000000       0.00000000       0.00000000
I        6.35061657       1.84797759       6.43993602       0.00000000       0.00000000       0.00000000
I        4.15487051       4.43749223       9.36756700       0.00000000       0.00000000       0.00000000
I        0.35482441       0.04860842       9.36756694       0.00000000       0.00000000       0.00000000
I        2.66877356       6.92979047       0.04184262       0.00000000       0.00000000       0.00000000
I        4.86451931       4.34027537       2.96947354       0.00000000       0.00000000       0.00000000
48
Lattice="9.01938999317578 0.0 0.0 0.0 8.777767844565316 0.0 0.0 0.0 12.796186806294449" Properties=species:S:1:pos:R:3:momenta:R:3 config_id=O-FAPI3_wide_rotation_08 phase=O-FAPI3 mode=wide_rotation seed=1585760124 source=O-FAPI3/CONTCAR pbc="T T T"
C        4.66630818       8.67183823       2.91404343       0.00000000       0.00000000       0.00000000
C        0.03512767       3.86750298       9.15308637       0.00000000       0.00000000       0.00000000
C        0.41370755       4.20219622       2.87779013       0.00000000       0.00000000       0.00000000
C        4.86833514       0.19832508       9.39487680       0.00000000       0.00000000       0.00000000
N        4.18929843       0.08657864       1.70713530       0.00000000       0.00000000       0.00000000
N        8.71944781       4.71295214       8.20748144       0.00000000       0.00000000       0.00000000
N        0.77315721       5.17855832       2.07631593       0.00000000       0.00000000       0.00000000
N        4.66605032       8.05310956      10.30703373       0.00000000       0.00000000       0.00000000
N        4.21246320       0.47165676       4.00274291       0.00000000       0.00000000       0.00000000
N        8.80444084       4.03206355      10.43184712       0.00000000       0.00000000       0.00000000
N        8.38441357       4.22497615       3.66580536       0.00000000       0.00000000       0.00000000
N        4.53942612       0.08853009       8.12957500       0.00000000       0.00000000       0.00000000
H        5.50181947       7.97367139       3.02483491       0.00000000       0.00000000       0.00000000
H        0.56795674       2.95863773       8.85669471       0.00000000       0.00000000       0.00000000
H        1.03394367       3.30049339       2.88325617       0.00000000       0.00000000       0.00000000
H        5.35271332       1.12593621       9.71535493       0.00000000       0.00000000       0.00000000
H        4.65572180       8.41852270       0.91391821       0.00000000       0.00000000       0.00000000
H        8.89964771       4.46189530       7.23280127       0.00000000       0.00000000       0.00000000
H        1.57054742       5.05224537       1.44844975       0.00000000       0.00000000       0.00000000
H        5.01127578       8.19617804      11.25905939       0.00000000       0.00000000       0.00000000
H        3.41921515       0.73807215       1.52816641       0.00000000       0.00000000       0.00000000
H        8.20527702       5.57530063       8.41116141       0.00000000       0.00000000       0.00000000
H        0.24467159       6.04621109       1.99799405       0.00000000       0.00000000       0.00000000
H        4.23531539       7.15504841      10.09207688       0.00000000       0.00000000       0.00000000
H        3.42882482       1.12284484       3.99189005       0.00000000       0.00000000       0.00000000
H        8.32680772       4.85539802      10.79549516       0.00000000       0.00000000       0.00000000
H        7.76957952       5.04239068       3.72337650       0.00000000       0.00000000       0.00000000
H        4.06878229       8.03298545       7.76407984       0.00000000       0.00000000       0.00000000
H        4.60241253       0.21616891       4.91305469       0.00000000       0.00000000       0.00000000
H        0.13796376       3.35224574      11.10956553       0.00000000       0.00000000       0.00000000
H        8.22708534       3.44070569       4.30272818       0.00000000       0.00000000       0.00000000
H        4.67791617       0.89084220       7.51101312       0.00000000       0.00000000       0.00000000
Pb       4.53083800       4.28292591      12.55414679       0.00000000       0.00000000       0.00000000
Pb       0.02114306       0.10595805       6.15605336       0.00000000       0.00000000       0.00000000
Pb       8.99824696       8.67180981      12.55414682       0.00000000       0.00000000       0.00000000
Pb       4.48855201       4.49484198       6.15605338       0.00000000       0.00000000       0.00000000
I        7.17846840       6.23686154       6.43993606       0.00000000       0.00000000       0.00000000
I        8.66456559       8.72915931       2.96947357       0.00000000       0.00000000       0.00000000
I        6.36795418       1.71737741      12.30292202       0.00000000       0.00000000       0.00000000
I        1.84092141       2.54090661       0.04184266       0.00000000       0.00000000       0.00000000
I        1.85825931       2.67150641       5.90482872       0.00000000       0.00000000       0.00000000
I        2.65143571       7.06039039       5.90482875       0.00000000       0.00000000       0.00000000
I        7.16113085       6.10626132      12.30292208       0.00000000       0.00000000       0.00000000
I        6.35061657       1.84797759       6.43993602       0.00000000       0.00000000       0.00000000
I        4.15487051       4.43749223       9.36756700       0.00000000       0.00000000       0.00000000
I        0.35482441       0.04860842       9.36756694       0.00000000       0.00000000       0.00000000
I        2.66877356       6.92979047       0.04184262       0.00000000       0.00000000       0.00000000
I        4.86451931       4.34027537       2.96947354       0.00000000       0.00000000       0.00000000
48
Lattice="9.01938999317578 0.0 0.0 0.0 8.777767844565316 0.0 0.0 0.0 12.796186806294449" Properties=species:S:1:pos:R:3:momenta:R:3 config_id=O-FAPI3_wide_rotation_09 phase=O-FAPI3 mode=wide_rotation seed=1390268935 source=O-FAPI3/CONTCAR pbc="T T T"
C        4.74749330       0.28866990       2.89609724       0.00000000       0.00000000       0.00000000
C        0.23096254       4.30146315       9.39373275       0.00000000       0.00000000       0.00000000
C        0.50527549       4.70560206       3.09337630       0.00000000       0.00000000       0.00000000
C        4.43794979       8.42054792       9.56636048       0.00000000       0.00000000       0.00000000
N        4.50268307       7.86993170       2.41686223       0.00000000       0.00000000       0.00000000
N        0.02944888       4.02125748       8.12799115       0.00000000       0.00000000       0.00000000
N        0.67810742       3.60027467       2.40546031       0.00000000       0.00000000       0.00000000
N        5.69153871       8.04131766       9.46865213       0.00000000       0.00000000       0.00000000
N        3.83197795       1.13472650       3.30945872       0.00000000       0.00000000       0.00000000
N        8.31085264       4.35992925      10.30957624       0.00000000       0.00000000       0.00000000
N        8.40301468       5.38319551       3.15655530       0.00000000       0.00000000       0.00000000
N        3.87297416       0.56672577       8.82585280       0.00000000       0.00000000       0.00000000
H        5.79299421       0.60544113       2.96223814       0.00000000       0.00000000       0.00000000
H        1.25782184       4.50759824       9.71131613       0.00000000       0.00000000       0.00000000
H        1.36100643       5.08541163       3.66017430       0.00000000       0.00000000       0.00000000
H        3.82136857       7.93157924      10.32697083       0.00000000       0.00000000       0.00000000
H        5.28083967       7.31190513       2.05827941       0.00000000       0.00000000       0.00000000
H        0.83637349       3.93383974       7.50611191       0.00000000       0.00000000       0.00000000
H        1.56901832       3.10122310       2.46226988       0.00000000       0.00000000       0.00000000
H        6.06774094       7.35715222      10.12925155       0.00000000       0.00000000       0.00000000
H        3.54739221       7.51517658       2.31164764       0.00000000       0.00000000       0.00000000
H        8.11621463       3.80229089       7.76499293       0.00000000       0.00000000       0.00000000
H        8.95033423       3.17010008       1.86236761       0.00000000       0.00000000       0.00000000
H        6.33853940       8.45426265       8.79848842       0.00000000       0.00000000       0.00000000
H        2.83704574       0.91516630       3.29696808       0.00000000       0.00000000       0.00000000
H        7.32767491       4.19667421      10.09753315       0.00000000       0.00000000       0.00000000
H        7.56754915       5.09448158       2.63872958       0.00000000       0.00000000       0.00000000
H        4.38598548       1.05345074       8.08462396       0.00000000       0.00000000       0.00000000
H        4.11476531       2.02398700       3.72808641       0.00000000       0.00000000       0.00000000
H        8.54771957       4.64785287      11.26193966       0.00000000       0.00000000       0.00000000
H        8.38853378       6.26955309       3.66612722       0.00000000       0.00000000       0.00000000
H        2.87158987       0.74316970       8.93355639       0.00000000       0.00000000       0.00000000
Pb       4.53083800       4.28292591      12.55414679       0.00000000       0.00000000       0.00000000
Pb       0.02114306       0.10595805       6.15605336       0.00000000       0.00000000       0.00000000
Pb       8.99824696       8.67180981      12.55414682       0.00000000       0.00000000       0.00000000
Pb       4.48855201       4.49484198       6.15605338       0.00000000       0.00000000       0.00000000
I        7.17846840       6.23686154       6.43993606       0.00000000       0.00000000       0.00000000
I        8.66456559       8.72915931       2.96947357       0.00000000       0.00000000       0.00000000
I        6.36795418       1.71737741      12.30292202       0.00000000       0.00000000       0.00000000
I        1.84092141       2.54090661       0.04184266       0.00000000       0.00000000       0.00000000
I        1.85825931       2.67150641       5.90482872       0.00000000       0.00000000       0.00000000
I        2.65143571       7.06039039       5.90482875       0.00000000       0.00000000       0.00000000
I        7.16113085       6.10626132      12.30292208       0.00000000       0.00000000       0.00000000
I        6.35061657       1.84797759       6.43993602       0.00000000       0.00000000       0.00000000
I        4.15487051       4.43749223       9.36756700       0.00000000       0.00000000       0.00000000
I        0.35482441       0.04860842       9.36756694       0.00000000       0.00000000       0.00000000
I        2.66877356       6.92979047       0.04184262       0.00000000       0.00000000       0.00000000
I        4.86451931       4.34027537       2.96947354       0.00000000       0.00000000       0.00000000
48
Lattice="9.01938999317578 0.0 0.0 0.0 8.777767844565316 0.0 0.0 0.0 12.796186806294449" Properties=species:S:1:pos:R:3:momenta:R:3 config_id=O-FAPI3_wide_rotation_10 phase=O-FAPI3 mode=wide_rotation seed=537385750 source=O-FAPI3/CONTCAR pbc="T T T"
C        4.58144029       0.35721994       3.16826706       0.00000000       0.00000000       0.00000000
C        0.07174524       4.03166402       9.56636042       0.00000000       0.00000000       0.00000000
C        0.37935165       4.44469547       3.23009280       0.00000000       0.00000000       0.00000000
C        4.43794979       8.42054792       9.56636048       0.00000000       0.00000000       0.00000000
N        5.14641592       8.21104204       2.42775928       0.00000000       0.00000000       0.00000000
N        0.63672090       4.95560973       8.82585276       0.00000000       0.00000000       0.00000000
N        0.93537452       5.34585941       2.45318222       0.00000000       0.00000000       0.00000000
N        5.69153871       8.04131766       9.46865213       0.00000000       0.00000000       0.00000000
N        3.32785132       0.73645021       3.07055870       0.00000000       0.00000000       0.00000000
N        7.83754632       3.65243376       9.46865215       0.00000000       0.00000000       0.00000000
N        8.25147740       3.85397925       2.99331420       0.00000000       0.00000000       0.00000000
N        3.87297416       0.56672577       8.82585280       0.00000000       0.00000000       0.00000000
H        5.19802154       0.84618877       3.92887723       0.00000000       0.00000000       0.00000000
H        0.68832651       3.54269529      10.32697070       0.00000000       0.00000000       0.00000000
H        0.91774966       4.16277901       4.14028036       0.00000000       0.00000000       0.00000000
H        3.82136857       7.93157924      10.32697083       0.00000000       0.00000000       0.00000000
H        6.14780018       8.03459813       2.53546294       0.00000000       0.00000000       0.00000000
H        1.63810518       5.13205364       8.93355632       0.00000000       0.00000000       0.00000000
H        1.86341736       5.70988363       2.68170985       0.00000000       0.00000000       0.00000000
H        6.06774094       7.35715222      10.12925155       0.00000000       0.00000000       0.00000000
H        4.63340450       7.72431708       1.68653056       0.00000000       0.00000000       0.00000000
H        0.12370953       5.44233472       8.08462394       0.00000000       0.00000000       0.00000000
H        0.50992239       5.65481790       1.58037764       0.00000000       0.00000000       0.00000000
H        6.33853940       8.45426265       8.79848842       0.00000000       0.00000000       0.00000000
H        2.68085064       0.32350507       2.40039511       0.00000000       0.00000000       0.00000000
H        7.19054559       4.06537885       8.79848849       0.00000000       0.00000000       0.00000000
H        7.68683122       4.08110395       2.16924447       0.00000000       0.00000000       0.00000000
H        4.38598548       1.05345074       8.08462396       0.00000000       0.00000000       0.00000000
H        2.95164911       1.42061566       3.73115812       0.00000000       0.00000000       0.00000000
H        7.46134412       2.96826826      10.12925150       0.00000000       0.00000000       0.00000000
H        7.87039490       3.21444277       3.69422235       0.00000000       0.00000000       0.00000000
H        2.87158987       0.74316970       8.93355639       0.00000000       0.00000000       0.00000000
Pb       4.53083800       4.28292591      12.55414679       0.00000000       0.00000000       0.00000000
Pb       0.02114306       0.10595805       6.15605336       0.00000000       0.00000000       0.00000000
Pb       8.99824696       8.67180981      12.55414682       0.00000000       0.00000000       0.00000000
Pb       4.48855201       4.49484198       6.15605338       0.00000000       0.00000000       0.00000000
I        7.17846840       6.23686154       6.43993606       0.00000000       0.00000000       0.00000000
I        8.66456559       8.72915931       2.96947357       0.00000000       0.00000000       0.00000000
I        6.36795418       1.71737741      12.30292202       0.00000000       0.00000000       0.00000000
I        1.84092141       2.54090661       0.04184266       0.00000000       0.00000000       0.00000000
I        1.85825931       2.67150641       5.90482872       0.00000000       0.00000000       0.00000000
I        2.65143571       7.06039039       5.90482875       0.00000000       0.00000000       0.00000000
I        7.16113085       6.10626132      12.30292208       0.00000000       0.00000000       0.00000000
I        6.35061657       1.84797759       6.43993602       0.00000000       0.00000000       0.00000000
I        4.15487051       4.43749223       9.36756700       0.00000000       0.00000000       0.00000000
I        0.35482441       0.04860842       9.36756694       0.00000000       0.00000000       0.00000000
I        2.66877356       6.92979047       0.04184262       0.00000000       0.00000000       0.00000000
I        4.86451931       4.34027537       2.96947354       0.00000000       0.00000000       0.00000000
48
Lattice="9.01938999317578 0.0 0.0 0.0 8.777767844565316 0.0 0.0 0.0 12.796186806294449" Properties=species:S:1:pos:R:3:momenta:R:3 config_id=O-FAPI3_wide_rotation_11 phase=O-FAPI3 mode=wide_rotation seed=2730786551 source=O-FAPI3/CONTCAR pbc="T T T"
C        4.03601551       0.08075544       3.16324007       0.00000000       0.00000000       0.00000000
C        0.21556149       4.04131921       9.28787727       0.00000000       0.00000000       0.00000000
C        0.45405659       4.76224865       3.11761123       0.00000000       0.00000000       0.00000000
C        4.73906903       0.08108248       9.61549423       0.00000000       0.00000000       0.00000000
N        4.24420363       1.33974470       2.85856200       0.00000000       0.00000000       0.00000000
N        0.16045444       5.35069189       9.34896062       0.00000000       0.00000000       0.00000000
N        0.73049080       3.52236433       2.78426618       0.00000000       0.00000000       0.00000000
N        4.63530398       7.56324667       9.80388661       0.00000000       0.00000000       0.00000000
N        4.68615905       7.84209844       2.64454773       0.00000000       0.00000000       0.00000000
N        8.19294717       3.24927063       9.17955501       0.00000000       0.00000000       0.00000000
N        8.39337099       5.41386433       2.75697472       0.00000000       0.00000000       0.00000000
N        4.67862537       0.67748451       8.44849983       0.00000000       0.00000000       0.00000000
H        3.26681873       8.63680130       3.90954193       0.00000000       0.00000000       0.00000000
H        1.20283751       3.57147387       9.33606752       0.00000000       0.00000000       0.00000000
H        1.17787587       5.28788280       3.74815473       0.00000000       0.00000000       0.00000000
H        4.89287129       0.70809217      10.49923321       0.00000000       0.00000000       0.00000000
H        3.63869374       2.05455201       3.26833173       0.00000000       0.00000000       0.00000000
H        1.03369886       5.88238568       9.36473630       0.00000000       0.00000000       0.00000000
H        1.56630522       3.06966713       3.16173344       0.00000000       0.00000000       0.00000000
H        4.75715725       7.17551434      10.74240538       0.00000000       0.00000000       0.00000000
H        4.93688121       1.61840205       2.15709940       0.00000000       0.00000000       0.00000000
H        8.29109871       5.85717939       9.29325157       0.00000000       0.00000000       0.00000000
H        0.10523390       2.95590833       2.21292207       0.00000000       0.00000000       0.00000000
H        4.50590186       6.90624470       9.03586554       0.00000000       0.00000000       0.00000000
H        5.42710668       7.95959024       1.95502247       0.00000000       0.00000000       0.00000000
H        7.23768454       3.60198632       9.14325243       0.00000000       0.00000000       0.00000000
H        7.68210416       4.98907889       2.15434823       0.00000000       0.00000000       0.00000000
H        4.52041791       0.15435199       7.58200992       0.00000000       0.00000000       0.00000000
H        4.50350371       6.89540696       2.98574316       0.00000000       0.00000000       0.00000000
H        8.32196195       2.23494925       9.20212384       0.00000000       0.00000000       0.00000000
H        8.30193688       6.39971033       3.01241646       0.00000000       0.00000000       0.00000000
H        4.70290395       1.69908451       8.41318676       0.00000000       0.00000000       0.00000000
Pb       4.53083800       4.28292591      12.55414679       0.00000000       0.00000000       0.00000000
Pb       0.02114306       0.10595805       6.15605336       0.00000000       0.00000000       0.00000000
Pb       8.99824696       8.67180981      12.55414682       0.00000000       0.00000000       0.00000000
Pb       4.48855201       4.49484198       6.15605338       0.00000000       0.00000000       0.00000000
I        7.17846840       6.23686154       6.43993606       0.00000000       0.00000000       0.00000000
I        8.66456559       8.72915931       2.96947357       0.00000000       0.00000000       0.00000000
I        6.36795418       1.71737741      12.30292202       0.00000000       0.00000000       0.00000000
I        1.84092141       2.54090661       0.04184266       0.00000000       0.00000000       0.00000000
I        1.85825931       2.67150641       5.90482872       0.00000000       0.00000000       0.00000000
I        2.65143571       7.06039039       5.90482875       0.00000000       0.00000000       0.00000000
I        7.16113085       6.10626132      12.30292208       0.00000000       0.00000000       0.00000000
I        6.35061657       1.84797759       6.43993602       0.00000000       0.00000000       0.00000000
I        4.15487051       4.43749223       9.36756700       0.00000000       0.00000000       0.00000000
I        0.35482441       0.04860842       9.36756694       0.00000000       0.00000000       0.00000000
I        2.66877356       6.92979047       0.04184262       0.00000000       0.00000000       0.00000000
I        4.86451931       4.34027537       2.96947354       0.00000000       0.00000000       0.00000000
48
Lattice="9.01938999317578 0.0 0.0 0.0 8.777767844565316 0.0 0.0 0.0 12.796186806294449" Properties=species:S:1:pos:R:3:momenta:R:3 config_id=O-FAPI3_wide_rotation_12 phase=O-FAPI3 mode=wide_rotation seed=4115372780 source=O-FAPI3/CONTCAR pbc="T T T"
C        4.73904584       0.04188411       2.95750205       0.00000000       0.00000000       0.00000000
C        0.07174524       4.03166402       9.56636042       0.00000000       0.00000000       0.00000000
C        8.94764466       4.74610384       3.16826714       0.00000000       0.00000000       0.00000000
C        4.59963978       0.16987112       9.01845269       0.00000000       0.00000000       0.00000000
N        4.56188661       0.87121773       1.95647991       0.00000000       0.00000000       0.00000000
N        0.63672090       4.95560973       8.82585276       0.00000000       0.00000000       0.00000000
N        1.18184367       5.12533409       3.07055868       0.00000000       0.00000000       0.00000000
N        5.34745406       7.98446763       8.53067970       0.00000000       0.00000000       0.00000000
N        3.77980746       8.34201840       3.71682790       0.00000000       0.00000000       0.00000000
N        7.83754632       3.65243376       9.46865215       0.00000000       0.00000000       0.00000000
N        8.38266906       3.82215805       2.42775938       0.00000000       0.00000000       0.00000000
N        4.08124316       0.18106543      10.22359351       0.00000000       0.00000000       0.00000000
H        5.76180621       8.49605780       3.17438646       0.00000000       0.00000000       0.00000000
H        0.68832651       3.54269529      10.32697070       0.00000000       0.00000000       0.00000000
H        8.33106347       5.23507262       3.92887735       0.00000000       0.00000000       0.00000000
H        4.38989100       1.02400765       8.36711015       0.00000000       0.00000000       0.00000000
H        5.38128842       1.23881392       1.46764795       0.00000000       0.00000000       0.00000000
H        1.63810518       5.13205364       8.93355632       0.00000000       0.00000000       0.00000000
H        1.55804586       5.80949951       3.73115812       0.00000000       0.00000000       0.00000000
H        5.65888396       8.02713707       7.55744140       0.00000000       0.00000000       0.00000000
H        3.63414205       1.22756923       1.70787269       0.00000000       0.00000000       0.00000000
H        0.12370953       5.44233472       8.08462394       0.00000000       0.00000000       0.00000000
H        1.82884427       4.71238905       2.40039504       0.00000000       0.00000000       0.00000000
H        5.57923415       7.14725129       9.06322045       0.00000000       0.00000000       0.00000000
H        2.79903549       8.57926833       3.57522415       0.00000000       0.00000000       0.00000000
H        7.19054559       4.06537885       8.79848849       0.00000000       0.00000000       0.00000000
H        8.89568041       3.33543309       1.68653065       0.00000000       0.00000000       0.00000000
H        4.24975193       8.20030567      10.89123314       0.00000000       0.00000000       0.00000000
H        3.99969202       7.64998976       4.43707036       0.00000000       0.00000000       0.00000000
H        7.46134412       2.96826826      10.12925150       0.00000000       0.00000000       0.00000000
H        7.38128478       3.64571414       2.53546309       0.00000000       0.00000000       0.00000000
H        3.56808964       1.00931786      10.53371347       0.00000000       0.00000000       0.00000000
Pb       4.53083800       4.28292591      12.55414679       0.00000000       0.00000000       0.00000000
Pb       0.02114306       0.10595805       6.15605336       0.00000000       0.00000000       0.00000000
Pb       8.99824696       8.67180981      12.55414682       0.00000000       0.00000000       0.00000000
Pb       4.48855201       4.49484198       6.15605338       0.00000000       0.00000000       0.00000000
I        7.17846840       6.23686154       6.43993606       0.00000000       0.00000000       0.00000000
I        8.66456559       8.72915931       2.96947357       0.00000000       0.00000000       0.00000000
I        6.36795418       1.71737741      12.30292202       0.00000000       0.00000000       0.00000000
I        1.84092141       2.54090661       0.04184266       0.00000000       0.00000000       0.00000000
I        1.85825931       2.67150641       5.90482872       0.00000000       0.00000000       0.00000000
I        2.65143571       7.06039039       5.90482875       0.00000000       0.00000000       0.00000000
I        7.16113085       6.10626132      12.30292208       0.00000000       0.00000000       0.00000000
I        6.35061657       1.84797759       6.43993602       0.00000000       0.00000000       0.00000000
I        4.15487051       4.43749223       9.36756700       0.00000000       0.00000000       0.00000000
I        0.35482441       0.04860842       9.36756694       0.00000000       0.00000000       0.00000000
I        2.66877356       6.92979047       0.04184262       0.00000000       0.00000000       0.00000000
I        4.86451931       4.34027537       2.96947354       0.00000000       0.00000000       0.00000000
48
Lattice="9.01938999317578 0.0 0.0 0.0 8.777767844565316 0.0 0.0 0.0 12.796186806294449" Properties=species:S:1:pos:R:3:momenta:R:3 config_id=O-FAPI3_wide_rotation_13 phase=O-FAPI3 mode=wide_rotation seed=2398685055 source=O-FAPI3/CONTCAR pbc="T T T"
C        4.61633865       0.42151129       3.07367704       0.00000000       0.00000000       0.00000000
C        0.01152419       4.28784012       8.88965049       0.00000000       0.00000000       0.00000000
C        8.94764466       4.74610384       3.16826714       0.00000000       0.00000000       0.00000000
C        4.43794979       8.42054792       9.56636048       0.00000000       0.00000000       0.00000000
N        5.05350297       8.02920080       2.67239282       0.00000000       0.00000000       0.00000000
N        0.26022067       3.14999173       9.49353447       0.00000000       0.00000000       0.00000000
N        1.18184367       5.12533409       3.07055868       0.00000000       0.00000000       0.00000000
N        5.69153871       8.04131766       9.46865213       0.00000000       0.00000000       0.00000000
N        3.39143034       0.86443765       2.90555895       0.00000000       0.00000000       0.00000000
N        8.26363415       5.24058072       9.36757761       0.00000000       0.00000000       0.00000000
N        8.38266906       3.82215805       2.42775938       0.00000000       0.00000000       0.00000000
N        3.87297416       0.56672577       8.82585280       0.00000000       0.00000000       0.00000000
H        5.32251491       1.07716549       3.59254452       0.00000000       0.00000000       0.00000000
H        0.47289962       4.45543762       7.91147122       0.00000000       0.00000000       0.00000000
H        8.33106347       5.23507262       3.92887735       0.00000000       0.00000000       0.00000000
H        3.82136857       7.93157924      10.32697083       0.00000000       0.00000000       0.00000000
H        6.04377211       7.80381564       2.79101631       0.00000000       0.00000000       0.00000000
H        0.92570521       2.49988361       9.06927896       0.00000000       0.00000000       0.00000000
H        1.55804586       5.80949951       3.73115812       0.00000000       0.00000000       0.00000000
H        6.06774094       7.35715222      10.12925155       0.00000000       0.00000000       0.00000000
H        4.45191048       7.37220705       2.16648017       0.00000000       0.00000000       0.00000000
H        8.89436053       2.93340237      10.41774951       0.00000000       0.00000000       0.00000000
H        1.82884427       4.71238905       2.40039504       0.00000000       0.00000000       0.00000000
H        6.33853940       8.45426265       8.79848842       0.00000000       0.00000000       0.00000000
H        2.66742939       0.31350198       2.44670678       0.00000000       0.00000000       0.00000000
H        7.78402021       5.16079708      10.26304284       0.00000000       0.00000000       0.00000000
H        8.89568041       3.33543309       1.68653065       0.00000000       0.00000000       0.00000000
H        4.38598548       1.05345074       8.08462396       0.00000000       0.00000000       0.00000000
H        3.11788095       1.76480302       3.30620217       0.00000000       0.00000000       0.00000000
H        8.07294874       6.07064038       8.80132496       0.00000000       0.00000000       0.00000000
H        7.38128478       3.64571414       2.53546309       0.00000000       0.00000000       0.00000000
H        2.87158987       0.74316970       8.93355639       0.00000000       0.00000000       0.00000000
Pb       4.53083800       4.28292591      12.55414679       0.00000000       0.00000000       0.00000000
Pb       0.02114306       0.10595805       6.15605336       0.00000000       0.00000000       0.00000000
Pb       8.99824696       8.67180981      12.55414682       0.00000000       0.00000000       0.00000000
Pb       4.48855201       4.49484198       6.15605338       0.00000000       0.00000000       0.00000000
I        7.17846840       6.23686154       6.43993606       0.00000000       0.00000000       0.00000000
I        8.66456559       8.72915931       2.96947357       0.00000000       0.00000000       0.00000000
I        6.36795418       1.71737741      12.30292202       0.00000000       0.00000000       0.00000000
I        1.84092141       2.54090661       0.04184266       0.00000000       0.00000000       0.00000000
I        1.85825931       2.67150641       5.90482872       0.00000000       0.00000000       0.00000000
I        2.65143571       7.06039039       5.90482875       0.00000000       0.00000000       0.00000000
I        7.16113085       6.10626132      12.30292208       0.00000000       0.00000000       0.00000000
I        6.35061657       1.84797759       6.43993602       0.00000000       0.00000000       0.00000000
I        4.15487051       4.43749223       9.36756700       0.00000000       0.00000000       0.00000000
I        0.35482441       0.04860842       9.36756694       0.00000000       0.00000000       0.00000000
I        2.66877356       6.92979047       0.04184262       0.00000000       0.00000000       0.00000000
I        4.86451931       4.34027537       2.96947354       0.00000000       0.00000000       0.00000000
48
Lattice="9.01938999317578 0.0 0.0 0.0 8.777767844565316 0.0 0.0 0.0 12.796186806294449" Properties=species:S:1:pos:R:3:momenta:R:3 config_id=O-FAPI3_wide_rotation_14 phase=O-FAPI3 mode=wide_rotation seed=2186111541 source=O-FAPI3/CONTCAR pbc="T T T"
C        3.96989284       8.76701882       2.99947863       0.00000000       0.00000000       0.00000000
C        9.01746289       4.60281654       9.17004891       0.00000000       0.00000000       0.00000000
C        8.94764466       4.74610384       3.16826714       0.00000000       0.00000000       0.00000000
C        4.43794979       8.42054792       9.56636048       0.00000000       0.00000000       0.00000000
N        4.76947667       0.45200942       3.93100710       0.00000000       0.00000000       0.00000000
N        0.60479799       3.89743321      10.09500501       0.00000000       0.00000000       0.00000000
N        1.18184367       5.12533409       3.07055868       0.00000000       0.00000000       0.00000000
N        5.69153871       8.04131766       9.46865213       0.00000000       0.00000000       0.00000000
N        4.21674683       0.02691440       1.71010188       0.00000000       0.00000000       0.00000000
N        7.93165297       4.23038101       8.53196095       0.00000000       0.00000000       0.00000000
N        8.38266906       3.82215805       2.42775938       0.00000000       0.00000000       0.00000000
N        3.87297416       0.56672577       8.82585280       0.00000000       0.00000000       0.00000000
H        3.02823830       8.30996748       3.31913721       0.00000000       0.00000000       0.00000000
H        0.43078088       5.57249567       8.90495071       0.00000000       0.00000000       0.00000000
H        8.33106347       5.23507262       3.92887735       0.00000000       0.00000000       0.00000000
H        3.82136857       7.93157924      10.32697083       0.00000000       0.00000000       0.00000000
H        4.45632002       0.43649708       4.90424666       0.00000000       0.00000000       0.00000000
H        1.40678925       4.30473325      10.58123507       0.00000000       0.00000000       0.00000000
H        1.55804586       5.80949951       3.73115812       0.00000000       0.00000000       0.00000000
H        6.06774094       7.35715222      10.12925155       0.00000000       0.00000000       0.00000000
H        5.65870807       0.90661431       3.70274444       0.00000000       0.00000000       0.00000000
H        0.24598375       2.98890918      10.40377432       0.00000000       0.00000000       0.00000000
H        1.82884427       4.71238905       2.40039504       0.00000000       0.00000000       0.00000000
H        6.33853940       8.45426265       8.79848842       0.00000000       0.00000000       0.00000000
H        5.07515494       0.42069414       1.32757626       0.00000000       0.00000000       0.00000000
H        7.47255314       3.33753162       8.70603064       0.00000000       0.00000000       0.00000000
H        8.89568041       3.33543309       1.68653065       0.00000000       0.00000000       0.00000000
H        4.38598548       1.05345074       8.08462396       0.00000000       0.00000000       0.00000000
H        3.56624632       8.36346649       1.05574740       0.00000000       0.00000000       0.00000000
H        7.55968474       4.81457940       7.77939606       0.00000000       0.00000000       0.00000000
H        7.38128478       3.64571414       2.53546309       0.00000000       0.00000000       0.00000000
H        2.87158987       0.74316970       8.93355639       0.00000000       0.00000000       0.00000000
Pb       4.53083800       4.28292591      12.55414679       0.00000000       0.00000000       0.00000000
Pb       0.02114306       0.10595805       6.15605336       0.00000000       0.00000000       0.00000000
Pb       8.99824696       8.67180981      12.55414682       0.00000000       0.00000000       0.00000000
Pb       4.48855201       4.49484198       6.15605338       0.00000000       0.00000000       0.00000000
I        7.17846840       6.23686154       6.43993606       0.00000000       0.00000000       0.00000000
I        8.66456559       8.72915931       2.96947357       0.00000000       0.00000000       0.00000000
I        6.36795418       1.71737741      12.30292202       0.00000000       0.00000000       0.00000000
I        1.84092141       2.54090661       0.04184266       0.00000000       0.00000000       0.00000000
I        1.85825931       2.67150641       5.90482872       0.00000000       0.00000000       0.00000000
I        2.65143571       7.06039039       5.90482875       0.00000000       0.00000000       0.00000000
I        7.16113085       6.10626132      12.30292208       0.00000000       0.00000000       0.00000000
I        6.35061657       1.84797759       6.43993602       0.00000000       0.00000000       0.00000000
I        4.15487051       4.43749223       9.36756700       0.00000000       0.00000000       0.00000000
I        0.35482441       0.04860842       9.36756694       0.00000000       0.00000000       0.00000000
I        2.66877356       6.92979047       0.04184262       0.00000000       0.00000000       0.00000000
I        4.86451931       4.34027537       2.96947354       0.00000000       0.00000000       0.00000000
48
Lattice="9.01938999317578 0.0 0.0 0.0 8.777767844565316 0.0 0.0 0.0 12.796186806294449" Properties=species:S:1:pos:R:3:momenta:R:3 config_id=O-FAPI3_cage_rattle_01 phase=O-FAPI3 mode=cage_rattle seed=503860372 source=O-FAPI3/CONTCAR pbc="T T T"
C        4.58144029       0.35721994       3.16826706       0.00000000       0.00000000       0.00000000
C        0.07174524       4.03166402       9.56636042       0.00000000       0.00000000       0.00000000
C        8.94764466       4.74610384       3.16826714       0.00000000       0.00000000       0.00000000
C        4.43794979       8.42054792       9.56636048       0.00000000       0.00000000       0.00000000
N        5.14641592       8.21104204       2.42775928       0.00000000       0.00000000       0.00000000
N        0.63672090       4.95560973       8.82585276       0.00000000       0.00000000       0.00000000
N        1.18184367       5.12533409       3.07055868       0.00000000       0.00000000       0.00000000
N        5.69153871       8.04131766       9.46865213       0.00000000       0.00000000       0.00000000
N        3.32785132       0.73645021       3.07055870       0.00000000       0.00000000       0.00000000
N        7.83754632       3.65243376       9.46865215       0.00000000       0.00000000       0.00000000
N        8.38266906       3.82215805       2.42775938       0.00000000       0.00000000       0.00000000
N        3.87297416       0.56672577       8.82585280       0.00000000       0.00000000       0.00000000
H        5.19802154       0.84618877       3.92887723       0.00000000       0.00000000       0.00000000
H        0.68832651       3.54269529      10.32697070       0.00000000       0.00000000       0.00000000
H        8.33106347       5.23507262       3.92887735       0.00000000       0.00000000       0.00000000
H        3.82136857       7.93157924      10.32697083       0.00000000       0.00000000       0.00000000
H        6.14780018       8.03459813       2.53546294       0.00000000       0.00000000       0.00000000
H        1.63810518       5.13205364       8.93355632       0.00000000       0.00000000       0.00000000
H        1.55804586       5.80949951       3.73115812       0.00000000       0.00000000       0.00000000
H        6.06774094       7.35715222      10.12925155       0.00000000       0.00000000       0.00000000
H        4.63340450       7.72431708       1.68653056       0.00000000       0.00000000       0.00000000
H        0.12370953       5.44233472       8.08462394       0.00000000       0.00000000       0.00000000
H        1.82884427       4.71238905       2.40039504       0.00000000       0.00000000       0.00000000
H        6.33853940       8.45426265       8.79848842       0.00000000       0.00000000       0.00000000
H        2.68085064       0.32350507       2.40039511       0.00000000       0.00000000       0.00000000
H        7.19054559       4.06537885       8.79848849       0.00000000       0.00000000       0.00000000
H        8.89568041       3.33543309       1.68653065       0.00000000       0.00000000       0.00000000
H        4.38598548       1.05345074       8.08462396       0.00000000       0.00000000       0.00000000
H        2.95164911       1.42061566       3.73115812       0.00000000       0.00000000       0.00000000
H        7.46134412       2.96826826      10.12925150       0.00000000       0.00000000       0.00000000
H        7.38128478       3.64571414       2.53546309       0.00000000       0.00000000       0.00000000
H        2.87158987       0.74316970       8.93355639       0.00000000       0.00000000       0.00000000
Pb       4.49933845       4.36106456      12.53159129       0.00000000       0.00000000       0.00000000
Pb       0.00854427       0.10731814       6.20404770       0.00000000       0.00000000       0.00000000
Pb       8.99916299       8.64811293      12.62481299       0.00000000       0.00000000       0.00000000
Pb       4.42862899       4.50867552       6.07217917       0.00000000       0.00000000       0.00000000
I        7.12282087       6.22981447       6.37692562       0.00000000       0.00000000       0.00000000
I        8.64565553       8.72506298       2.96432163       0.00000000       0.00000000       0.00000000
I        6.39271491       1.76739218      12.30042515       0.00000000       0.00000000       0.00000000
I        1.80859231       2.50995402       0.03918566       0.00000000       0.00000000       0.00000000
I        1.83773053       2.73690699       5.93097129       0.00000000       0.00000000       0.00000000
I        2.72132708       7.01114158       5.95014313       0.00000000       0.00000000       0.00000000
I        7.16734948       6.15981604      12.37182879       0.00000000       0.00000000       0.00000000
I        6.37101225       1.85333318       6.47239986       0.00000000       0.00000000       0.00000000
I        4.18132320       4.45896346       9.41064867       0.00000000       0.00000000       0.00000000
I        0.35891985       0.05567178       9.35494385       0.00000000       0.00000000       0.00000000
I        2.69036319       6.88158803       0.05755759       0.00000000       0.00000000       0.00000000
I        4.83724724       4.39583112       2.97856563       0.00000000       0.00000000       0.00000000
48
Lattice="9.01938999317578 0.0 0.0 0.0 8.777767844565316 0.0 0.0 0.0 12.796186806294449" Properties=species:S:1:pos:R:3:momenta:R:3 config_id=O-FAPI3_cage_rattle_02 phase=O-FAPI3 mode=cage_rattle seed=4064901548 source=O-FAPI3/CONTCAR pbc="T T T"
C        4.58144029       0.35721994       3.16826706       0.00000000       0.00000000       0.00000000
C        0.07174524       4.03166402       9.56636042       0.00000000       0.00000000       0.00000000
C        8.94764466       4.74610384       3.16826714       0.00000000       0.00000000       0.00000000
C        4.43794979       8.42054792       9.56636048       0.00000000       0.00000000       0.00000000
N        5.14641592       8.21104204       2.42775928       0.00000000       0.00000000       0.00000000
N        0.63672090       4.95560973       8.82585276       0.00000000       0.00000000       0.00000000
N        1.18184367       5.12533409       3.07055868       0.00000000       0.00000000       0.00000000
N        5.69153871       8.04131766       9.46865213       0.00000000       0.00000000       0.00000000
N        3.32785132       0.73645021       3.07055870       0.00000000       0.00000000       0.00000000
N        7.83754632       3.65243376       9.46865215       0.00000000       0.00000000       0.00000000
N        8.38266906       3.82215805       2.42775938       0.00000000       0.00000000       0.00000000
N        3.87297416       0.56672577       8.82585280       0.00000000       0.00000000       0.00000000
H        5.19802154       0.84618877       3.92887723       0.00000000       0.00000000       0.00000000
H        0.68832651       3.54269529      10.32697070       0.00000000       0.00000000       0.00000000
H        8.33106347       5.23507262       3.92887735       0.00000000       0.00000000       0.00000000
H        3.82136857       7.93157924      10.32697083       0.00000000       0.00000000       0.00000000
H        6.14780018       8.03459813       2.53546294       0.00000000       0.00000000       0.00000000
H        1.63810518       5.13205364       8.93355632       0.00000000       0.00000000       0.00000000
H        1.55804586       5.80949951       3.73115812       0.00000000       0.00000000       0.00000000
H        6.06774094       7.35715222      10.12925155       0.00000000       0.00000000       0.00000000
H        4.63340450       7.72431708       1.68653056       0.00000000       0.00000000       0.00000000
H        0.12370953       5.44233472       8.08462394       0.00000000       0.00000000       0.00000000
H        1.82884427       4.71238905       2.40039504       0.00000000       0.00000000       0.00000000
H        6.33853940       8.45426265       8.79848842       0.00000000       0.00000000       0.00000000
H        2.68085064       0.32350507       2.40039511       0.00000000       0.00000000       0.00000000
H        7.19054559       4.06537885       8.79848849       0.00000000       0.00000000       0.00000000
H        8.89568041       3.33543309       1.68653065       0.00000000       0.00000000       0.00000000
H        4.38598548       1.05345074       8.08462396       0.00000000       0.00000000       0.00000000
H        2.95164911       1.42061566       3.73115812       0.00000000       0.00000000       0.00000000
H        7.46134412       2.96826826      10.12925150       0.00000000       0.00000000       0.00000000
H        7.38128478       3.64571414       2.53546309       0.00000000       0.00000000       0.00000000
H        2.87158987       0.74316970       8.93355639       0.00000000       0.00000000       0.00000000
Pb       4.50970459       4.28151777      12.57046310       0.00000000       0.00000000       0.00000000
Pb       0.02499760       0.11755910       6.14426319       0.00000000       0.00000000       0.00000000
Pb       9.00133787       8.67713854      12.58065378       0.00000000       0.00000000       0.00000000
Pb       4.52733923       4.50438321       6.12969895       0.00000000       0.00000000       0.00000000
I        7.17443249       6.26244949       6.43601250       0.00000000       0.00000000       0.00000000
I        8.66902552       8.74965866       2.94185583       0.00000000       0.00000000       0.00000000
I        6.34424534       1.68339252      12.29270412       0.00000000       0.00000000       0.00000000
I        1.83999757       2.54749029       0.03744237       0.00000000       0.00000000       0.00000000
I        1.85396692       2.66811452       5.93315698       0.00000000       0.00000000       0.00000000
I        2.66239615       7.07389697       5.85895568       0.00000000       0.00000000       0.00000000
I        7.12709827       6.09200264      12.30880714       0.00000000       0.00000000       0.00000000
I        6.34216934       1.82115102       6.43459141       0.00000000       0.00000000       0.00000000
I        4.16362112       4.43718566       9.33659133       0.00000000       0.00000000       0.00000000
I        0.35170213       0.05130448       9.37466302       0.00000000       0.00000000       0.00000000
I        2.66601703       6.94087120       0.00213731       0.00000000       0.00000000       0.00000000
I        4.85688299       4.31927399       3.00123682       0.00000000       0.00000000       0.00000000
48
Lattice="9.01938999317578 0.0 0.0 0.0 8.777767844565316 0.0 0.0 0.0 12.796186806294449" Properties=species:S:1:pos:R:3:momenta:R:3 config_id=O-FAPI3_cage_rattle_03 phase=O-FAPI3 mode=cage_rattle seed=3935526796 source=O-FAPI3/CONTCAR pbc="T T T"
C        4.58144029       0.35721994       3.16826706       0.00000000       0.00000000       0.00000000
C        0.07174524       4.03166402       9.56636042       0.00000000       0.00000000       0.00000000
C        8.94764466       4.74610384       3.16826714       0.00000000       0.00000000       0.00000000
C        4.43794979       8.42054792       9.56636048       0.00000000       0.00000000       0.00000000
N        5.14641592       8.21104204       2.42775928       0.00000000       0.00000000       0.00000000
N        0.63672090       4.95560973       8.82585276       0.00000000       0.00000000       0.00000000
N        1.18184367       5.12533409       3.07055868       0.00000000       0.00000000       0.00000000
N        5.69153871       8.04131766       9.46865213       0.00000000       0.00000000       0.00000000
N        3.32785132       0.73645021       3.07055870       0.00000000       0.00000000       0.00000000
N        7.83754632       3.65243376       9.46865215       0.00000000       0.00000000       0.00000000
N        8.38266906       3.82215805       2.42775938       0.00000000       0.00000000       0.00000000
N        3.87297416       0.56672577       8.82585280       0.00000000       0.00000000       0.00000000
H        5.19802154       0.84618877       3.92887723       0.00000000       0.00000000       0.00000000
H        0.68832651       3.54269529      10.32697070       0.00000000       0.00000000       0.00000000
H        8.33106347       5.23507262       3.92887735       0.00000000       0.00000000       0.00000000
H        3.82136857       7.93157924      10.32697083       0.00000000       0.00000000       0.00000000
H        6.14780018       8.03459813       2.53546294       0.00000000       0.00000000       0.00000000
H        1.63810518       5.13205364       8.93355632       0.00000000       0.00000000       0.00000000
H        1.55804586       5.80949951       3.73115812       0.00000000       0.00000000       0.00000000
H        6.06774094       7.35715222      10.12925155       0.00000000       0.00000000       0.00000000
H        4.63340450       7.72431708       1.68653056       0.00000000       0.00000000       0.00000000
H        0.12370953       5.44233472       8.08462394       0.00000000       0.00000000       0.00000000
H        1.82884427       4.71238905       2.40039504       0.00000000       0.00000000       0.00000000
H        6.33853940       8.45426265       8.79848842       0.00000000       0.00000000       0.00000000
H        2.68085064       0.32350507       2.40039511       0.00000000       0.00000000       0.00000000
H        7.19054559       4.06537885       8.79848849       0.00000000       0.00000000       0.00000000
H        8.89568041       3.33543309       1.68653065       0.00000000       0.00000000       0.00000000
H        4.38598548       1.05345074       8.08462396       0.00000000       0.00000000       0.00000000
H        2.95164911       1.42061566       3.73115812       0.00000000       0.00000000       0.00000000
H        7.46134412       2.96826826      10.12925150       0.00000000       0.00000000       0.00000000
H        7.38128478       3.64571414       2.53546309       0.00000000       0.00000000       0.00000000
H        2.87158987       0.74316970       8.93355639       0.00000000       0.00000000       0.00000000
Pb       4.50152047       4.27698599      12.58757817       0.00000000       0.00000000       0.00000000
Pb       0.02125742       0.10687168       6.14243159       0.00000000       0.00000000       0.00000000
Pb       8.95537023       8.62205538      12.59272496       0.00000000       0.00000000       0.00000000
Pb       4.44717835       4.46991593       6.15355235       0.00000000       0.00000000       0.00000000
I        7.17494325       6.20340627       6.44010176       0.00000000       0.00000000       0.00000000
I        8.66449125       8.71594853       2.96072447       0.00000000       0.00000000       0.00000000
I        6.42671199       1.75428522      12.32551035       0.00000000       0.00000000       0.00000000
I        1.81724699       2.48202083       0.01806724       0.00000000       0.00000000       0.00000000
I        1.87444480       2.60338608       5.95767589       0.00000000       0.00000000       0.00000000
I        2.63992412       7.02464185       5.96181812       0.00000000       0.00000000       0.00000000
I        7.19051485       6.15588300      12.30491484       0.00000000       0.00000000       0.00000000
I        6.36124839       1.88464042       6.44043337       0.00000000       0.00000000       0.00000000
I        4.10343741       4.45343203       9.32192232       0.00000000       0.00000000       0.00000000
I        0.34634857       0.01674631       9.37447799       0.00000000       0.00000000       0.00000000
I        2.70332639       6.95097317       0.07245283       0.00000000       0.00000000       0.00000000
I        4.87455152       4.36614067       2.97273746       0.00000000       0.00000000       0.00000000
48
Lattice="9.01938999317578 0.0 0.0 0.0 8.777767844565316 0.0 0.0 0.0 12.796186806294449" Properties=species:S:1:pos:R:3:momenta:R:3 config_id=O-FAPI3_cage_rattle_04 phase=O-FAPI3 mode=cage_rattle seed=3113752695 source=O-FAPI3/CONTCAR pbc="T T T"
C        4.58144029       0.35721994       3.16826706       0.00000000       0.00000000       0.00000000
C        0.07174524       4.03166402       9.56636042       0.00000000       0.00000000       0.00000000
C        8.94764466       4.74610384       3.16826714       0.00000000       0.00000000       0.00000000
C        4.43794979       8.42054792       9.56636048       0.00000000       0.00000000       0.00000000
N        5.14641592       8.21104204       2.42775928       0.00000000       0.00000000       0.00000000
N        0.63672090       4.95560973       8.82585276       0.00000000       0.00000000       0.00000000
N        1.18184367       5.12533409       3.07055868       0.00000000       0.00000000       0.00000000
N        5.69153871       8.04131766       9.46865213       0.00000000       0.00000000       0.00000000
N        3.32785132       0.73645021       3.07055870       0.00000000       0.00000000       0.00000000
N        7.83754632       3.65243376       9.46865215       0.00000000       0.00000000       0.00000000
N        8.38266906       3.82215805       2.42775938       0.00000000       0.00000000       0.00000000
N        3.87297416       0.56672577       8.82585280       0.00000000       0.00000000       0.00000000
H        5.19802154       0.84618877       3.92887723       0.00000000       0.00000000       0.00000000
H        0.68832651       3.54269529      10.32697070       0.00000000       0.00000000       0.00000000
H        8.33106347       5.23507262       3.92887735       0.00000000       0.00000000       0.00000000
H        3.82136857       7.93157924      10.32697083       0.00000000       0.00000000       0.00000000
H        6.14780018       8.03459813       2.53546294       0.00000000       0.00000000       0.00000000
H        1.63810518       5.13205364       8.93355632       0.00000000       0.00000000       0.00000000
H        1.55804586       5.80949951       3.73115812       0.00000000       0.00000000       0.00000000
H        6.06774094       7.35715222      10.12925155       0.00000000       0.00000000       0.00000000
H        4.63340450       7.72431708       1.68653056       0.00000000       0.00000000       0.00000000
H        0.12370953       5.44233472       8.08462394       0.00000000       0.00000000       0.00000000
H        1.82884427       4.71238905       2.40039504       0.00000000       0.00000000       0.00000000
H        6.33853940       8.45426265       8.79848842       0.00000000       0.00000000       0.00000000
H        2.68085064       0.32350507       2.40039511       0.00000000       0.00000000       0.00000000
H        7.19054559       4.06537885       8.79848849       0.00000000       0.00000000       0.00000000
H        8.89568041       3.33543309       1.68653065       0.00000000       0.00000000       0.00000000
H        4.38598548       1.05345074       8.08462396       0.00000000       0.00000000       0.00000000
H        2.95164911       1.42061566       3.73115812       0.00000000       0.00000000       0.00000000
H        7.46134412       2.96826826      10.12925150       0.00000000       0.00000000       0.00000000
H        7.38128478       3.64571414       2.53546309       0.00000000       0.00000000       0.00000000
H        2.87158987       0.74316970       8.93355639       0.00000000       0.00000000       0.00000000
Pb       4.51875486       4.31061624      12.53034887       0.00000000       0.00000000       0.00000000
Pb       0.00162926       0.10185008       6.17166417       0.00000000       0.00000000       0.00000000
Pb       8.94163941       8.70655738      12.58373655       0.00000000       0.00000000       0.00000000
Pb       4.48259375       4.51554076       6.16463603       0.00000000       0.00000000       0.00000000
I        7.20721343       6.18924294       6.45951630       0.00000000       0.00000000       0.00000000
I        8.68293180       8.73845265       3.02649108       0.00000000       0.00000000       0.00000000
I        6.36925076       1.72972030      12.30191499       0.00000000       0.00000000       0.00000000
I        1.87439082       2.54939794       0.09251187       0.00000000       0.00000000       0.00000000
I        1.88356229       2.67697669       5.89521560       0.00000000       0.00000000       0.00000000
I        2.64140647       7.07961496       5.85268433       0.00000000       0.00000000       0.00000000
I        7.17041157       6.14837656      12.28905799       0.00000000       0.00000000       0.00000000
I        6.33303815       1.82638319       6.38578107       0.00000000       0.00000000       0.00000000
I        4.13835050       4.47185030       9.32516919       0.00000000       0.00000000       0.00000000
I        0.42458340       0.05066704       9.35035130       0.00000000       0.00000000       0.00000000
I        2.59911760       6.93610229       0.08959897       0.00000000       0.00000000       0.00000000
I        4.90292477       4.39892963       2.94997016       0.00000000       0.00000000       0.00000000
48
Lattice="9.01938999317578 0.0 0.0 0.0 8.777767844565316 0.0 0.0 0.0 12.796186806294449" Properties=species:S:1:pos:R:3:momenta:R:3 config_id=O-FAPI3_cage_rattle_05 phase=O-FAPI3 mode=cage_rattle seed=3467449491 source=O-FAPI3/CONTCAR pbc="T T T"
C        4.58144029       0.35721994       3.16826706       0.00000000       0.00000000       0.00000000
C        0.07174524       4.03166402       9.56636042       0.00000000       0.00000000       0.00000000
C        8.94764466       4.74610384       3.16826714       0.00000000       0.00000000       0.00000000
C        4.43794979       8.42054792       9.56636048       0.00000000       0.00000000       0.00000000
N        5.14641592       8.21104204       2.42775928       0.00000000       0.00000000       0.00000000
N        0.63672090       4.95560973       8.82585276       0.00000000       0.00000000       0.00000000
N        1.18184367       5.12533409       3.07055868       0.00000000       0.00000000       0.00000000
N        5.69153871       8.04131766       9.46865213       0.00000000       0.00000000       0.00000000
N        3.32785132       0.73645021       3.07055870       0.00000000       0.00000000       0.00000000
N        7.83754632       3.65243376       9.46865215       0.00000000       0.00000000       0.00000000
N        8.38266906       3.82215805       2.42775938       0.00000000       0.00000000       0.00000000
N        3.87297416       0.56672577       8.82585280       0.00000000       0.00000000       0.00000000
H        5.19802154       0.84618877       3.92887723       0.00000000       0.00000000       0.00000000
H        0.68832651       3.54269529      10.32697070       0.00000000       0.00000000       0.00000000
H        8.33106347       5.23507262       3.92887735       0.00000000       0.00000000       0.00000000
H        3.82136857       7.93157924      10.32697083       0.00000000       0.00000000       0.00000000
H        6.14780018       8.03459813       2.53546294       0.00000000       0.00000000       0.00000000
H        1.63810518       5.13205364       8.93355632       0.00000000       0.00000000       0.00000000
H        1.55804586       5.80949951       3.73115812       0.00000000       0.00000000       0.00000000
H        6.06774094       7.35715222      10.12925155       0.00000000       0.00000000       0.00000000
H        4.63340450       7.72431708       1.68653056       0.00000000       0.00000000       0.00000000
H        0.12370953       5.44233472       8.08462394       0.00000000       0.00000000       0.00000000
H        1.82884427       4.71238905       2.40039504       0.00000000       0.00000000       0.00000000
H        6.33853940       8.45426265       8.79848842       0.00000000       0.00000000       0.00000000
H        2.68085064       0.32350507       2.40039511       0.00000000       0.00000000       0.00000000
H        7.19054559       4.06537885       8.79848849       0.00000000       0.00000000       0.00000000
H        8.89568041       3.33543309       1.68653065       0.00000000       0.00000000       0.00000000
H        4.38598548       1.05345074       8.08462396       0.00000000       0.00000000       0.00000000
H        2.95164911       1.42061566       3.73115812       0.00000000       0.00000000       0.00000000
H        7.46134412       2.96826826      10.12925150       0.00000000       0.00000000       0.00000000
H        7.38128478       3.64571414       2.53546309       0.00000000       0.00000000       0.00000000
H        2.87158987       0.74316970       8.93355639       0.00000000       0.00000000       0.00000000
Pb       4.60009467       4.29390267      12.63143962       0.00000000       0.00000000       0.00000000
Pb       0.02207030       0.09700265       6.21205705       0.00000000       0.00000000       0.00000000
Pb       8.98334321       8.66702874      12.54953517       0.00000000       0.00000000       0.00000000
Pb       4.53738311       4.52095056       6.12830707       0.00000000       0.00000000       0.00000000
I        7.22324534       6.24465997       6.47256827       0.00000000       0.00000000       0.00000000
I        8.64975154       8.72440217       2.96774748       0.00000000       0.00000000       0.00000000
I        6.30430586       1.70936687      12.37022492       0.00000000       0.00000000       0.00000000
I        1.90180610       2.51366032       0.05754171       0.00000000       0.00000000       0.00000000
I        1.88575924       2.62242706       5.92416349       0.00000000       0.00000000       0.00000000
I        2.68381234       7.02503856       5.91579009       0.00000000       0.00000000       0.00000000
I        7.12229164       6.14006116      12.26656218       0.00000000       0.00000000       0.00000000
I        6.35503800       1.80146596       6.47017845       0.00000000       0.00000000       0.00000000
I        4.19142586       4.43233405       9.30583417       0.00000000       0.00000000       0.00000000
I        0.34827970       0.11280154       9.35318613       0.00000000       0.00000000       0.00000000
I        2.59644317       6.92609360       0.03743798       0.00000000       0.00000000       0.00000000
I        4.90097271       4.38100269       2.99484721       0.00000000       0.00000000       0.00000000
48
Lattice="9.01938999317578 0.0 0.0 0.0 8.777767844565316 0.0 0.0 0.0 12.796186806294449" Properties=species:S:1:pos:R:3:momenta:R:3 config_id=O-FAPI3_cage_rattle_06 phase=O-FAPI3 mode=cage_rattle seed=2175475145 source=O-FAPI3/CONTCAR pbc="T T T"
C        4.58144029       0.35721994       3.16826706       0.00000000       0.00000000       0.00000000
C        0.07174524       4.03166402       9.56636042       0.00000000       0.00000000       0.00000000
C        8.94764466       4.74610384       3.16826714       0.00000000       0.00000000       0.00000000
C        4.43794979       8.42054792       9.56636048       0.00000000       0.00000000       0.00000000
N        5.14641592       8.21104204       2.42775928       0.00000000       0.00000000       0.00000000
N        0.63672090       4.95560973       8.82585276       0.00000000       0.00000000       0.00000000
N        1.18184367       5.12533409       3.07055868       0.00000000       0.00000000       0.00000000
N        5.69153871       8.04131766       9.46865213       0.00000000       0.00000000       0.00000000
N        3.32785132       0.73645021       3.07055870       0.00000000       0.00000000       0.00000000
N        7.83754632       3.65243376       9.46865215       0.00000000       0.00000000       0.00000000
N        8.38266906       3.82215805       2.42775938       0.00000000       0.00000000       0.00000000
N        3.87297416       0.56672577       8.82585280       0.00000000       0.00000000       0.00000000
H        5.19802154       0.84618877       3.92887723       0.00000000       0.00000000       0.00000000
H        0.68832651       3.54269529      10.32697070       0.00000000       0.00000000       0.00000000
H        8.33106347       5.23507262       3.92887735       0.00000000       0.00000000       0.00000000
H        3.82136857       7.93157924      10.32697083       0.00000000       0.00000000       0.00000000
H        6.14780018       8.03459813       2.53546294       0.00000000       0.00000000       0.00000000
H        1.63810518       5.13205364       8.93355632       0.00000000       0.00000000       0.00000000
H        1.55804586       5.80949951       3.73115812       0.00000000       0.00000000       0.00000000
H        6.06774094       7.35715222      10.12925155       0.00000000       0.00000000       0.00000000
H        4.63340450       7.72431708       1.68653056       0.00000000       0.00000000       0.00000000
H        0.12370953       5.44233472       8.08462394       0.00000000       0.00000000       0.00000000
H        1.82884427       4.71238905       2.40039504       0.00000000       0.00000000       0.00000000
H        6.33853940       8.45426265       8.79848842       0.00000000       0.00000000       0.00000000
H        2.68085064       0.32350507       2.40039511       0.00000000       0.00000000       0.00000000
H        7.19054559       4.06537885       8.79848849       0.00000000       0.00000000       0.00000000
H        8.89568041       3.33543309       1.68653065       0.00000000       0.00000000       0.00000000
H        4.38598548       1.05345074       8.08462396       0.00000000       0.00000000       0.00000000
H        2.95164911       1.42061566       3.73115812       0.00000000       0.00000000       0.00000000
H        7.46134412       2.96826826      10.12925150       0.00000000       0.00000000       0.00000000
H        7.38128478       3.64571414       2.53546309       0.00000000       0.00000000       0.00000000
H        2.87158987       0.74316970       8.93355639       0.00000000       0.00000000       0.00000000
Pb       4.47333248       4.25021687      12.52648301       0.00000000       0.00000000       0.00000000
Pb       0.05653884       0.08617672       6.15057455       0.00000000       0.00000000       0.00000000
Pb       9.01220938       8.68663325      12.54212591       0.00000000       0.00000000       0.00000000
Pb       4.47674627       4.45357767       6.16574124       0.00000000       0.00000000       0.00000000
I        7.18512468       6.28055092       6.44596903       0.00000000       0.00000000       0.00000000
I        8.71117235       8.72887404       2.97205377       0.00000000       0.00000000       0.00000000
I        6.37123211       1.72971634      12.28658205       0.00000000       0.00000000       0.00000000
I        1.83566013       2.55751735       0.05492842       0.00000000       0.00000000       0.00000000
I        1.85142140       2.71624460       5.89227363       0.00000000       0.00000000       0.00000000
I        2.64865676       7.02741055       5.87344796       0.00000000       0.00000000       0.00000000
I        7.14096952       6.15802649      12.36302775       0.00000000       0.00000000       0.00000000
I        6.36603041       1.83988323       6.47998626       0.00000000       0.00000000       0.00000000
I        4.16651475       4.41420348       9.36193087       0.00000000       0.00000000       0.00000000
I        0.39488641       0.03654624       9.36814464       0.00000000       0.00000000       0.00000000
I        2.63875622       6.98378264       0.04614681       0.00000000       0.00000000       0.00000000
I        4.83675662       4.34213789       2.94974875       0.00000000       0.00000000       0.00000000
48
Lattice="9.01938999317578 0.0 0.0 0.0 8.777767844565316 0.0 0.0 0.0 12.796186806294449" Properties=species:S:1:pos:R:3:momenta:R:3 config_id=O-FAPI3_cage_rattle_07 phase=O-FAPI3 mode=cage_rattle seed=3496495698 source=O-FAPI3/CONTCAR pbc="T T T"
C        4.58144029       0.35721994       3.16826706       0.00000000       0.00000000       0.00000000
C        0.07174524       4.03166402       9.56636042       0.00000000       0.00000000       0.00000000
C        8.94764466       4.74610384       3.16826714       0.00000000       0.00000000       0.00000000
C        4.43794979       8.42054792       9.56636048       0.00000000       0.00000000       0.00000000
N        5.14641592       8.21104204       2.42775928       0.00000000       0.00000000       0.00000000
N        0.63672090       4.95560973       8.82585276       0.00000000       0.00000000       0.00000000
N        1.18184367       5.12533409       3.07055868       0.00000000       0.00000000       0.00000000
N        5.69153871       8.04131766       9.46865213       0.00000000       0.00000000       0.00000000
N        3.32785132       0.73645021       3.07055870       0.00000000       0.00000000       0.00000000
N        7.83754632       3.65243376       9.46865215       0.00000000       0.00000000       0.00000000
N        8.38266906       3.82215805       2.42775938       0.00000000       0.00000000       0.00000000
N        3.87297416       0.56672577       8.82585280       0.00000000       0.00000000       0.00000000
H        5.19802154       0.84618877       3.92887723       0.00000000       0.00000000       0.00000000
H        0.68832651       3.54269529      10.32697070       0.00000000       0.00000000       0.00000000
H        8.33106347       5.23507262       3.92887735       0.00000000       0.00000000       0.00000000
H        3.82136857       7.93157924      10.32697083       0.00000000       0.00000000       0.00000000
H        6.14780018       8.03459813       2.53546294       0.00000000       0.00000000       0.00000000
H        1.63810518       5.13205364       8.93355632       0.00000000       0.00000000       0.00000000
H        1.55804586       5.80949951       3.73115812       0.00000000       0.00000000       0.00000000
H        6.06774094       7.35715222      10.12925155       0.00000000       0.00000000       0.00000000
H        4.63340450       7.72431708       1.68653056       0.00000000       0.00000000       0.00000000
H        0.12370953       5.44233472       8.08462394       0.00000000       0.00000000       0.00000000
H        1.82884427       4.71238905       2.40039504       0.00000000       0.00000000       0.00000000
H        6.33853940       8.45426265       8.79848842       0.00000000       0.00000000       0.00000000
H        2.68085064       0.32350507       2.40039511       0.00000000       0.00000000       0.00000000
H        7.19054559       4.06537885       8.79848849       0.00000000       0.00000000       0.00000000
H        8.89568041       3.33543309       1.68653065       0.00000000       0.00000000       0.00000000
H        4.38598548       1.05345074       8.08462396       0.00000000       0.00000000       0.00000000
H        2.95164911       1.42061566       3.73115812       0.00000000       0.00000000       0.00000000
H        7.46134412       2.96826826      10.12925150       0.00000000       0.00000000       0.00000000
H        7.38128478       3.64571414       2.53546309       0.00000000       0.00000000       0.00000000
H        2.87158987       0.74316970       8.93355639       0.00000000       0.00000000       0.00000000
Pb       4.54499772       4.37949401      12.55761863       0.00000000       0.00000000       0.00000000
Pb       0.02494806       0.13113178       6.17786669       0.00000000       0.00000000       0.00000000
Pb       8.96745774       8.63191271      12.50604445       0.00000000       0.00000000       0.00000000
Pb       4.45331509       4.49180998       6.14340839       0.00000000       0.00000000       0.00000000
I        7.17041776       6.28108325       6.44045391       0.00000000       0.00000000       0.00000000
I        8.61094821       8.72272265       2.97632322       0.00000000       0.00000000       0.00000000
I        6.38836873       1.72473849      12.30573317       0.00000000       0.00000000       0.00000000
I        1.86464239       2.51828812       0.04165055       0.00000000       0.00000000       0.00000000
I        1.87189873       2.65860410       5.87647179       0.00000000       0.00000000       0.00000000
I        2.62229674       7.08920452       5.86992584       0.00000000       0.00000000       0.00000000
I        7.24388153       6.17799062      12.31970766       0.00000000       0.00000000       0.00000000
I        6.33947713       1.86376394       6.42916098       0.00000000       0.00000000       0.00000000
I        4.12449802       4.46755918       9.31256172       0.00000000       0.00000000       0.00000000
I        0.38500866       8.77136703       9.41468693       0.00000000       0.00000000       0.00000000
I        2.70968163       6.92306513       0.04285869       0.00000000       0.00000000       0.00000000
I        4.92135606       4.35971067       3.00792528       0.00000000       0.00000000       0.00000000
48
Lattice="9.01938999317578 0.0 0.0 0.0 8.777767844565316 0.0 0.0 0.0 12.796186806294449" Properties=species:S:1:pos:R:3:momenta:R:3 config_id=O-FAPI3_cage_rattle_08 phase=O-FAPI3 mode=cage_rattle seed=3973188120 source=O-FAPI3/CONTCAR pbc="T T T"
C        4.58144029       0.35721994       3.16826706       0.00000000       0.00000000       0.00000000
C        0.07174524       4.03166402       9.56636042       0.00000000       0.00000000       0.00000000
C        8.94764466       4.74610384       3.16826714       0.00000000       0.00000000       0.00000000
C        4.43794979       8.42054792       9.56636048       0.00000000       0.00000000       0.00000000
N        5.14641592       8.21104204       2.42775928       0.00000000       0.00000000       0.00000000
N        0.63672090       4.95560973       8.82585276       0.00000000       0.00000000       0.00000000
N        1.18184367       5.12533409       3.07055868       0.00000000       0.00000000       0.00000000
N        5.69153871       8.04131766       9.46865213       0.00000000       0.00000000       0.00000000
N        3.32785132       0.73645021       3.07055870       0.00000000       0.00000000       0.00000000
N        7.83754632       3.65243376       9.46865215       0.00000000       0.00000000       0.00000000
N        8.38266906       3.82215805       2.42775938       0.00000000       0.00000000       0.00000000
N        3.87297416       0.56672577       8.82585280       0.00000000       0.00000000       0.00000000
H        5.19802154       0.84618877       3.92887723       0.00000000       0.00000000       0.00000000
H        0.68832651       3.54269529      10.32697070       0.00000000       0.00000000       0.00000000
H        8.33106347       5.23507262       3.92887735       0.00000000       0.00000000       0.00000000
H        3.82136857       7.93157924      10.32697083       0.00000000       0.00000000       0.00000000
H        6.14780018       8.03459813       2.53546294       0.00000000       0.00000000       0.00000000
H        1.63810518       5.13205364       8.93355632       0.00000000       0.00000000       0.00000000
H        1.55804586       5.80949951       3.73115812       0.00000000       0.00000000       0.00000000
H        6.06774094       7.35715222      10.12925155       0.00000000       0.00000000       0.00000000
H        4.63340450       7.72431708       1.68653056       0.00000000       0.00000000       0.00000000
H        0.12370953       5.44233472       8.08462394       0.00000000       0.00000000       0.00000000
H        1.82884427       4.71238905       2.40039504       0.00000000       0.00000000       0.00000000
H        6.33853940       8.45426265       8.79848842       0.00000000       0.00000000       0.00000000
H        2.68085064       0.32350507       2.40039511       0.00000000       0.00000000       0.00000000
H        7.19054559       4.06537885       8.79848849       0.00000000       0.00000000       0.00000000
H        8.89568041       3.33543309       1.68653065       0.00000000       0.00000000       0.00000000
H        4.38598548       1.05345074       8.08462396       0.00000000       0.00000000       0.00000000
H        2.95164911       1.42061566       3.73115812       0.00000000       0.00000000       0.00000000
H        7.46134412       2.96826826      10.12925150       0.00000000       0.00000000       0.00000000
H        7.38128478       3.64571414       2.53546309       0.00000000       0.00000000       0.00000000
H        2.87158987       0.74316970       8.93355639       0.00000000       0.00000000       0.00000000
Pb       4.53611061       4.23387136      12.58534212       0.00000000       0.00000000       0.00000000
Pb       0.02262843       0.12010656       6.18535730       0.00000000       0.00000000       0.00000000
Pb       8.97613641       8.68620363      12.57212035       0.00000000       0.00000000       0.00000000
Pb       4.49434635       4.49749796       6.17671626       0.00000000       0.00000000       0.00000000
I        7.18811618       6.22267116       6.44913618       0.00000000       0.00000000       0.00000000
I        8.66197378       8.73260501       2.98461136       0.00000000       0.00000000       0.00000000
I        6.41097756       1.67209990      12.32237206       0.00000000       0.00000000       0.00000000
I        1.87229041       2.56534571       0.03303690       0.00000000       0.00000000       0.00000000
I        1.85457027       2.68687324       5.91450755       0.00000000       0.00000000       0.00000000
I        2.63255436       7.07034727       5.91661712       0.00000000       0.00000000       0.00000000
I        7.17435467       6.15218475      12.33501316       0.00000000       0.00000000       0.00000000
I        6.36951575       1.87488753       6.44455305       0.00000000       0.00000000       0.00000000
I        4.13569915       4.43968283       9.35133893       0.00000000       0.00000000       0.00000000
I        0.30621052       0.07764222       9.37845353       0.00000000       0.00000000       0.00000000
I        2.67147159       6.92611159       0.05325591       0.00000000       0.00000000       0.00000000
I        4.82521900       4.33200849       2.93257466       0.00000000       0.00000000       0.00000000
48
Lattice="9.01938999317578 0.0 0.0 0.0 8.777767844565316 0.0 0.0 0.0 12.796186806294449" Properties=species:S:1:pos:R:3:momenta:R:3 config_id=O-FAPI3_cage_rattle_09 phase=O-FAPI3 mode=cage_rattle seed=3541597839 source=O-FAPI3/CONTCAR pbc="T T T"
C        4.58144029       0.35721994       3.16826706       0.00000000       0.00000000       0.00000000
C        0.07174524       4.03166402       9.56636042       0.00000000       0.00000000       0.00000000
C        8.94764466       4.74610384       3.16826714       0.00000000       0.00000000       0.00000000
C        4.43794979       8.42054792       9.56636048       0.00000000       0.00000000       0.00000000
N        5.14641592       8.21104204       2.42775928       0.00000000       0.00000000       0.00000000
N        0.63672090       4.95560973       8.82585276       0.00000000       0.00000000       0.00000000
N        1.18184367       5.12533409       3.07055868       0.00000000       0.00000000       0.00000000
N        5.69153871       8.04131766       9.46865213       0.00000000       0.00000000       0.00000000
N        3.32785132       0.73645021       3.07055870       0.00000000       0.00000000       0.00000000
N        7.83754632       3.65243376       9.46865215       0.00000000       0.00000000       0.00000000
N        8.38266906       3.82215805       2.42775938       0.00000000       0.00000000       0.00000000
N        3.87297416       0.56672577       8.82585280       0.00000000       0.00000000       0.00000000
H        5.19802154       0.84618877       3.92887723       0.00000000       0.00000000       0.00000000
H        0.68832651       3.54269529      10.32697070       0.00000000       0.00000000       0.00000000
H        8.33106347       5.23507262       3.92887735       0.00000000       0.00000000       0.00000000
H        3.82136857       7.93157924      10.32697083       0.00000000       0.00000000       0.00000000
H        6.14780018       8.03459813       2.53546294       0.00000000       0.00000000       0.00000000
H        1.63810518       5.13205364       8.93355632       0.00000000       0.00000000       0.00000000
H        1.55804586       5.80949951       3.73115812       0.00000000       0.00000000       0.00000000
H        6.06774094       7.35715222      10.12925155       0.00000000       0.00000000       0.00000000
H        4.63340450       7.72431708       1.68653056       0.00000000       0.00000000       0.00000000
H        0.12370953       5.44233472       8.08462394       0.00000000       0.00000000       0.00000000
H        1.82884427       4.71238905       2.40039504       0.00000000       0.00000000       0.00000000
H        6.33853940       8.45426265       8.79848842       0.00000000       0.00000000       0.00000000
H        2.68085064       0.32350507       2.40039511       0.00000000       0.00000000       0.00000000
H        7.19054559       4.06537885       8.79848849       0.00000000       0.00000000       0.00000000
H        8.89568041       3.33543309       1.68653065       0.00000000       0.00000000       0.00000000
H        4.38598548       1.05345074       8.08462396       0.00000000       0.00000000       0.00000000
H        2.95164911       1.42061566       3.73115812       0.00000000       0.00000000       0.00000000
H        7.46134412       2.96826826      10.12925150       0.00000000       0.00000000       0.00000000
H        7.38128478       3.64571414       2.53546309       0.00000000       0.00000000       0.00000000
H        2.87158987       0.74316970       8.93355639       0.00000000       0.00000000       0.00000000
Pb       4.54897999       4.27275067      12.55752550       0.00000000       0.00000000       0.00000000
Pb       0.00644821       0.11451403       6.18367129       0.00000000       0.00000000       0.00000000
Pb       8.99662795       8.67286146      12.56310692       0.00000000       0.00000000       0.00000000
Pb       4.47018601       4.48376321       6.14120639       0.00000000       0.00000000       0.00000000
I        7.17504632       6.22632750       6.44693896       0.00000000       0.00000000       0.00000000
I        8.66221522       8.71137283       3.00081907       0.00000000       0.00000000       0.00000000
I        6.39145054       1.69275395      12.30372666       0.00000000       0.00000000       0.00000000
I        1.80564317       2.55854544       0.03545128       0.00000000       0.00000000       0.00000000
I        1.88331028       2.68171790       5.92192838       0.00000000       0.00000000       0.00000000
I        2.66588561       7.09184241       5.89521757       0.00000000       0.00000000       0.00000000
I        7.16978977       6.11612137      12.30759184       0.00000000       0.00000000       0.00000000
I        6.38563685       1.85833935       6.42394481       0.00000000       0.00000000       0.00000000
I        4.15331402       4.43579864       9.37152792       0.00000000       0.00000000       0.00000000
I        0.35614019       0.04888855       9.35669622       0.00000000       0.00000000       0.00000000
I        2.66549506       6.91960354       0.05166330       0.00000000       0.00000000       0.00000000
I        4.86562357       4.33821917       2.97405681       0.00000000       0.00000000       0.00000000
48
Lattice="9.01938999317578 0.0 0.0 0.0 8.777767844565316 0.0 0.0 0.0 12.796186806294449" Properties=species:S:1:pos:R:3:momenta:R:3 config_id=O-FAPI3_cage_rattle_10 phase=O-FAPI3 mode=cage_rattle seed=2813790788 source=O-FAPI3/CONTCAR pbc="T T T"
C        4.58144029       0.35721994       3.16826706       0.00000000       0.00000000       0.00000000
C        0.07174524       4.03166402       9.56636042       0.00000000       0.00000000       0.00000000
C        8.94764466       4.74610384       3.16826714       0.00000000       0.00000000       0.00000000
C        4.43794979       8.42054792       9.56636048       0.00000000       0.00000000       0.00000000
N        5.14641592       8.21104204       2.42775928       0.00000000       0.00000000       0.00000000
N        0.63672090       4.95560973       8.82585276       0.00000000       0.00000000       0.00000000
N        1.18184367       5.12533409       3.07055868       0.00000000       0.00000000       0.00000000
N        5.69153871       8.04131766       9.46865213       0.00000000       0.00000000       0.00000000
N        3.32785132       0.73645021       3.07055870       0.00000000       0.00000000       0.00000000
N        7.83754632       3.65243376       9.46865215       0.00000000       0.00000000       0.00000000
N        8.38266906       3.82215805       2.42775938       0.00000000       0.00000000       0.00000000
N        3.87297416       0.56672577       8.82585280       0.00000000       0.00000000       0.00000000
H        5.19802154       0.84618877       3.92887723       0.00000000       0.00000000       0.00000000
H        0.68832651       3.54269529      10.32697070       0.00000000       0.00000000       0.00000000
H        8.33106347       5.23507262       3.92887735       0.00000000       0.00000000       0.00000000
H        3.82136857       7.93157924      10.32697083       0.00000000       0.00000000       0.00000000
H        6.14780018       8.03459813       2.53546294       0.00000000       0.00000000       0.00000000
H        1.63810518       5.13205364       8.93355632       0.00000000       0.00000000       0.00000000
H        1.55804586       5.80949951       3.73115812       0.00000000       0.00000000       0.00000000
H        6.06774094       7.35715222      10.12925155       0.00000000       0.00000000       0.00000000
H        4.63340450       7.72431708       1.68653056       0.00000000       0.00000000       0.00000000
H        0.12370953       5.44233472       8.08462394       0.00000000       0.00000000       0.00000000
H        1.82884427       4.71238905       2.40039504       0.00000000       0.00000000       0.00000000
H        6.33853940       8.45426265       8.79848842       0.00000000       0.00000000       0.00000000
H        2.68085064       0.32350507       2.40039511       0.00000000       0.00000000       0.00000000
H        7.19054559       4.06537885       8.79848849       0.00000000       0.00000000       0.00000000
H        8.89568041       3.33543309       1.68653065       0.00000000       0.00000000       0.00000000
H        4.38598548       1.05345074       8.08462396       0.00000000       0.00000000       0.00000000
H        2.95164911       1.42061566       3.73115812       0.00000000       0.00000000       0.00000000
H        7.46134412       2.96826826      10.12925150       0.00000000       0.00000000       0.00000000
H        7.38128478       3.64571414       2.53546309       0.00000000       0.00000000       0.00000000
H        2.87158987       0.74316970       8.93355639       0.00000000       0.00000000       0.00000000
Pb       4.54847603       4.30865508      12.57256835       0.00000000       0.00000000       0.00000000
Pb       8.98915296       0.12268264       6.06010778       0.00000000       0.00000000       0.00000000
Pb       9.01031077       8.75971278      12.57248770       0.00000000       0.00000000       0.00000000
Pb       4.53958578       4.48272300       6.17130654       0.00000000       0.00000000       0.00000000
I        7.22758904       6.26818225       6.41731047       0.00000000       0.00000000       0.00000000
I        8.59101322       8.71014662       2.91626428       0.00000000       0.00000000       0.00000000
I        6.41694348       1.63129326      12.29458490       0.00000000       0.00000000       0.00000000
I        1.81475513       2.53430558       0.00462354       0.00000000       0.00000000       0.00000000
I        1.86568133       2.70857203       5.89378075       0.00000000       0.00000000       0.00000000
I        2.61578558       7.09779569       5.89799858       0.00000000       0.00000000       0.00000000
I        7.17353116       6.15693063      12.33756090       0.00000000       0.00000000       0.00000000
I        6.34512097       1.84053844       6.42622771       0.00000000       0.00000000       0.00000000
I        4.08731636       4.52374775       9.34005323       0.00000000       0.00000000       0.00000000
I        0.34646146       0.01446098       9.41613964       0.00000000       0.00000000       0.00000000
I        2.68846816       6.91258184       0.04063717       0.00000000       0.00000000       0.00000000
I        4.84601315       4.28767800       2.98257239       0.00000000       0.00000000       0.00000000
48
Lattice="9.01938999317578 0.0 0.0 0.0 8.777767844565316 0.0 0.0 0.0 12.796186806294449" Properties=species:S:1:pos:R:3:momenta:R:3 config_id=O-FAPI3_cage_rattle_11 phase=O-FAPI3 mode=cage_rattle seed=3981943076 source=O-FAPI3/CONTCAR pbc="T T T"
C        4.58144029       0.35721994       3.16826706       0.00000000       0.00000000       0.00000000
C        0.07174524       4.03166402       9.56636042       0.00000000       0.00000000       0.00000000
C        8.94764466       4.74610384       3.16826714       0.00000000       0.00000000       0.00000000
C        4.43794979       8.42054792       9.56636048       0.00000000       0.00000000       0.00000000
N        5.14641592       8.21104204       2.42775928       0.00000000       0.00000000       0.00000000
N        0.63672090       4.95560973       8.82585276       0.00000000       0.00000000       0.00000000
N        1.18184367       5.12533409       3.07055868       0.00000000       0.00000000       0.00000000
N        5.69153871       8.04131766       9.46865213       0.00000000       0.00000000       0.00000000
N        3.32785132       0.73645021       3.07055870       0.00000000       0.00000000       0.00000000
N        7.83754632       3.65243376       9.46865215       0.00000000       0.00000000       0.00000000
N        8.38266906       3.82215805       2.42775938       0.00000000       0.00000000       0.00000000
N        3.87297416       0.56672577       8.82585280       0.00000000       0.00000000       0.00000000
H        5.19802154       0.84618877       3.92887723       0.00000000       0.00000000       0.00000000
H        0.68832651       3.54269529      10.32697070       0.00000000       0.00000000       0.00000000
H        8.33106347       5.23507262       3.92887735       0.00000000       0.00000000       0.00000000
H        3.82136857       7.93157924      10.32697083       0.00000000       0.00000000       0.00000000
H        6.14780018       8.03459813       2.53546294       0.00000000       0.00000000       0.00000000
H        1.63810518       5.13205364       8.93355632       0.00000000       0.00000000       0.00000000
H        1.55804586       5.80949951       3.73115812       0.00000000       0.00000000       0.00000000
H        6.06774094       7.35715222      10.12925155       0.00000000       0.00000000       0.00000000
H        4.63340450       7.72431708       1.68653056       0.00000000       0.00000000       0.00000000
H        0.12370953       5.44233472       8.08462394       0.00000000       0.00000000       0.00000000
H        1.82884427       4.71238905       2.40039504       0.00000000       0.00000000       0.00000000
H        6.33853940       8.45426265       8.79848842       0.00000000       0.00000000       0.00000000
H        2.68085064       0.32350507       2.40039511       0.00000000       0.00000000       0.00000000
H        7.19054559       4.06537885       8.79848849       0.00000000       0.00000000       0.00000000
H        8.89568041       3.33543309       1.68653065       0.00000000       0.00000000       0.00000000
H        4.38598548       1.05345074       8.08462396       0.00000000       0.00000000       0.00000000
H        2.95164911       1.42061566       3.73115812       0.00000000       0.00000000       0.00000000
H        7.46134412       2.96826826      10.12925150       0.00000000       0.00000000       0.00000000
H        7.38128478       3.64571414       2.53546309       0.00000000       0.00000000       0.00000000
H        2.87158987       0.74316970       8.93355639       0.00000000       0.00000000       0.00000000
Pb       4.52794364       4.29461535      12.57033648       0.00000000       0.00000000       0.00000000
Pb       8.95777232       0.12038745       6.13972749       0.00000000       0.00000000       0.00000000
Pb       9.00002026       8.65871617      12.56180662       0.00000000       0.00000000       0.00000000
Pb       4.49916084       4.52524926       6.15253376       0.00000000       0.00000000       0.00000000
I        7.12914625       6.22976237       6.40104944       0.00000000       0.00000000       0.00000000
I        8.70060030       8.75457151       2.97107544       0.00000000       0.00000000       0.00000000
I        6.38711884       1.68080151      12.27835690       0.00000000       0.00000000       0.00000000
I        1.87361142       2.54915640       0.07698187       0.00000000       0.00000000       0.00000000
I        1.82239541       2.67748435       5.90040609       0.00000000       0.00000000       0.00000000
I        2.60160237       7.10436465       5.85860368       0.00000000       0.00000000       0.00000000
I        7.14296794       6.09895837      12.28993690       0.00000000       0.00000000       0.00000000
I        6.35127868       1.80354284       6.43208197       0.00000000       0.00000000       0.00000000
I        4.14377707       4.42014312       9.39617669       0.00000000       0.00000000       0.00000000
I        0.37335291       0.04946700       9.43310656       0.00000000       0.00000000       0.00000000
I        2.67967213       6.91159452       0.04366485       0.00000000       0.00000000       0.00000000
I        4.86185665       4.33710482       2.96232793       0.00000000       0.00000000       0.00000000
48
Lattice="9.01938999317578 0.0 0.0 0.0 8.777767844565316 0.0 0.0 0.0 12.796186806294449" Properties=species:S:1:pos:R:3:momenta:R:3 config_id=O-FAPI3_cage_rattle_12 phase=O-FAPI3 mode=cage_rattle seed=4244842573 source=O-FAPI3/CONTCAR pbc="T T T"
C        4.58144029       0.35721994       3.16826706       0.00000000       0.00000000       0.00000000
C        0.07174524       4.03166402       9.56636042       0.00000000       0.00000000       0.00000000
C        8.94764466       4.74610384       3.16826714       0.00000000       0.00000000       0.00000000
C        4.43794979       8.42054792       9.56636048       0.00000000       0.00000000       0.00000000
N        5.14641592       8.21104204       2.42775928       0.00000000       0.00000000       0.00000000
N        0.63672090       4.95560973       8.82585276       0.00000000       0.00000000       0.00000000
N        1.18184367       5.12533409       3.07055868       0.00000000       0.00000000       0.00000000
N        5.69153871       8.04131766       9.46865213       0.00000000       0.00000000       0.00000000
N        3.32785132       0.73645021       3.07055870       0.00000000       0.00000000       0.00000000
N        7.83754632       3.65243376       9.46865215       0.00000000       0.00000000       0.00000000
N        8.38266906       3.82215805       2.42775938       0.00000000       0.00000000       0.00000000
N        3.87297416       0.56672577       8.82585280       0.00000000       0.00000000       0.00000000
H        5.19802154       0.84618877       3.92887723       0.00000000       0.00000000       0.00000000
H        0.68832651       3.54269529      10.32697070       0.00000000       0.00000000       0.00000000
H        8.33106347       5.23507262       3.92887735       0.00000000       0.00000000       0.00000000
H        3.82136857       7.93157924      10.32697083       0.00000000       0.00000000       0.00000000
H        6.14780018       8.03459813       2.53546294       0.00000000       0.00000000       0.00000000
H        1.63810518       5.13205364       8.93355632       0.00000000       0.00000000       0.00000000
H        1.55804586       5.80949951       3.73115812       0.00000000       0.00000000       0.00000000
H        6.06774094       7.35715222      10.12925155       0.00000000       0.00000000       0.00000000
H        4.63340450       7.72431708       1.68653056       0.00000000       0.00000000       0.00000000
H        0.12370953       5.44233472       8.08462394       0.00000000       0.00000000       0.00000000
H        1.82884427       4.71238905       2.40039504       0.00000000       0.00000000       0.00000000
H        6.33853940       8.45426265       8.79848842       0.00000000       0.00000000       0.00000000
H        2.68085064       0.32350507       2.40039511       0.00000000       0.00000000       0.00000000
H        7.19054559       4.06537885       8.79848849       0.00000000       0.00000000       0.00000000
H        8.89568041       3.33543309       1.68653065       0.00000000       0.00000000       0.00000000
H        4.38598548       1.05345074       8.08462396       0.00000000       0.00000000       0.00000000
H        2.95164911       1.42061566       3.73115812       0.00000000       0.00000000       0.00000000
H        7.46134412       2.96826826      10.12925150       0.00000000       0.00000000       0.00000000
H        7.38128478       3.64571414       2.53546309       0.00000000       0.00000000       0.00000000
H        2.87158987       0.74316970       8.93355639       0.00000000       0.00000000       0.00000000
Pb       4.56836248       4.25487894      12.55806480       0.00000000       0.00000000       0.00000000
Pb       0.05266761       0.09028636       6.15224752       0.00000000       0.00000000       0.00000000
Pb       8.95663507       8.66420043      12.53646030       0.00000000       0.00000000       0.00000000
Pb       4.43911716       4.46811029       6.20340714       0.00000000       0.00000000       0.00000000
I        7.13798090       6.22697039       6.41742761       0.00000000       0.00000000       0.00000000
I        8.73169338       8.75000031       2.95226693       0.00000000       0.00000000       0.00000000
I        6.37561488       1.74970632      12.33662858       0.00000000       0.00000000       0.00000000
I        1.83222692       2.52298299       0.02184301       0.00000000       0.00000000       0.00000000
I        1.85777534       2.68104241       5.97148527       0.00000000       0.00000000       0.00000000
I        2.63642681       7.13349595       5.94168235       0.00000000       0.00000000       0.00000000
I        7.19008873       6.06279815      12.29167445       0.00000000       0.00000000       0.00000000
I        6.40046691       1.84837524       6.42622654       0.00000000       0.00000000       0.00000000
I        4.18549882       4.48313597       9.32575139       0.00000000       0.00000000       0.00000000
I        0.33227396       0.02189822       9.36884097       0.00000000       0.00000000       0.00000000
I        2.66576544       6.89648758       0.07615072       0.00000000       0.00000000       0.00000000
I        4.88460405       4.34666817       2.93807680       0.00000000       0.00000000       0.00000000
48
Lattice="9.01938999317578 0.0 0.0 0.0 8.777767844565316 0.0 0.0 0.0 12.796186806294449" Properties=species:S:1:pos:R:3:momenta:R:3 config_id=O-FAPI3_cage_rattle_13 phase=O-FAPI3 mode=cage_rattle seed=756447363 source=O-FAPI3/CONTCAR pbc="T T T"
C        4.58144029       0.35721994       3.16826706       0.00000000       0.00000000       0.00000000
C        0.07174524       4.03166402       9.56636042       0.00000000       0.00000000       0.00000000
C        8.94764466       4.74610384       3.16826714       0.00000000       0.00000000       0.00000000
C        4.43794979       8.42054792       9.56636048       0.00000000       0.00000000       0.00000000
N        5.14641592       8.21104204       2.42775928       0.00000000       0.00000000       0.00000000
N        0.63672090       4.95560973       8.82585276       0.00000000       0.00000000       0.00000000
N        1.18184367       5.12533409       3.07055868       0.00000000       0.00000000       0.00000000
N        5.69153871       8.04131766       9.46865213       0.00000000       0.00000000       0.00000000
N        3.32785132       0.73645021       3.07055870       0.00000000       0.00000000       0.00000000
N        7.83754632       3.65243376       9.46865215       0.00000000       0.00000000       0.00000000
N        8.38266906       3.82215805       2.42775938       0.00000000       0.00000000       0.00000000
N        3.87297416       0.56672577       8.82585280       0.00000000       0.00000000       0.00000000
H        5.19802154       0.84618877       3.92887723       0.00000000       0.00000000       0.00000000
H        0.68832651       3.54269529      10.32697070       0.00000000       0.00000000       0.00000000
H        8.33106347       5.23507262       3.92887735       0.00000000       0.00000000       0.00000000
H        3.82136857       7.93157924      10.32697083       0.00000000       0.00000000       0.00000000
H        6.14780018       8.03459813       2.53546294       0.00000000       0.00000000       0.00000000
H        1.63810518       5.13205364       8.93355632       0.00000000       0.00000000       0.00000000
H        1.55804586       5.80949951       3.73115812       0.00000000       0.00000000       0.00000000
H        6.06774094       7.35715222      10.12925155       0.00000000       0.00000000       0.00000000
H        4.63340450       7.72431708       1.68653056       0.00000000       0.00000000       0.00000000
H        0.12370953       5.44233472       8.08462394       0.00000000       0.00000000       0.00000000
H        1.82884427       4.71238905       2.40039504       0.00000000       0.00000000       0.00000000
H        6.33853940       8.45426265       8.79848842       0.00000000       0.00000000       0.00000000
H        2.68085064       0.32350507       2.40039511       0.00000000       0.00000000       0.00000000
H        7.19054559       4.06537885       8.79848849       0.00000000       0.00000000       0.00000000
H        8.89568041       3.33543309       1.68653065       0.00000000       0.00000000       0.00000000
H        4.38598548       1.05345074       8.08462396       0.00000000       0.00000000       0.00000000
H        2.95164911       1.42061566       3.73115812       0.00000000       0.00000000       0.00000000
H        7.46134412       2.96826826      10.12925150       0.00000000       0.00000000       0.00000000
H        7.38128478       3.64571414       2.53546309       0.00000000       0.00000000       0.00000000
H        2.87158987       0.74316970       8.93355639       0.00000000       0.00000000       0.00000000
Pb       4.52944747       4.23766375      12.59766655       0.00000000       0.00000000       0.00000000
Pb       0.06689401       0.13313096       6.13434196       0.00000000       0.00000000       0.00000000
Pb       0.00439899       8.69066166      12.58512091       0.00000000       0.00000000       0.00000000
Pb       4.54943703       4.50658136       6.11252370       0.00000000       0.00000000       0.00000000
I        7.12680675       6.20199717       6.44750313       0.00000000       0.00000000       0.00000000
I        8.68281703       8.67629564       2.97816282       0.00000000       0.00000000       0.00000000
I        6.34304357       1.66588577      12.31284072       0.00000000       0.00000000       0.00000000
I        1.85097918       2.53449726       0.04556349       0.00000000       0.00000000       0.00000000
I        1.83954759       2.66654580       5.90171776       0.00000000       0.00000000       0.00000000
I        2.64738882       7.07944671       5.91810008       0.00000000       0.00000000       0.00000000
I        7.19677415       6.07334354      12.32366645       0.00000000       0.00000000       0.00000000
I        6.36257203       1.82820989       6.42519631       0.00000000       0.00000000       0.00000000
I        4.17395085       4.43521399       9.40309106       0.00000000       0.00000000       0.00000000
I        0.35967762       0.04101991       9.33741819       0.00000000       0.00000000       0.00000000
I        2.63642835       6.91882080       0.05380448       0.00000000       0.00000000       0.00000000
I        4.83958205       4.33427876       2.99824751       0.00000000       0.00000000       0.00000000
48
Lattice="9.01938999317578 0.0 0.0 0.0 8.777767844565316 0.0 0.0 0.0 12.796186806294449" Properties=species:S:1:pos:R:3:momenta:R:3 config_id=O-FAPI3_cage_rattle_14 phase=O-FAPI3 mode=cage_rattle seed=286016455 source=O-FAPI3/CONTCAR pbc="T T T"
C        4.58144029       0.35721994       3.16826706       0.00000000       0.00000000       0.00000000
C        0.07174524       4.03166402       9.56636042       0.00000000       0.00000000       0.00000000
C        8.94764466       4.74610384       3.16826714       0.00000000       0.00000000       0.00000000
C        4.43794979       8.42054792       9.56636048       0.00000000       0.00000000       0.00000000
N        5.14641592       8.21104204       2.42775928       0.00000000       0.00000000       0.00000000
N        0.63672090       4.95560973       8.82585276       0.00000000       0.00000000       0.00000000
N        1.18184367       5.12533409       3.07055868       0.00000000       0.00000000       0.00000000
N        5.69153871       8.04131766       9.46865213       0.00000000       0.00000000       0.00000000
N        3.32785132       0.73645021       3.07055870       0.00000000       0.00000000       0.00000000
N        7.83754632       3.65243376       9.46865215       0.00000000       0.00000000       0.00000000
N        8.38266906       3.82215805       2.42775938       0.00000000       0.00000000       0.00000000
N        3.87297416       0.56672577       8.82585280       0.00000000       0.00000000       0.00000000
H        5.19802154       0.84618877       3.92887723       0.00000000       0.00000000       0.00000000
H        0.68832651       3.54269529      10.32697070       0.00000000       0.00000000       0.00000000
H        8.33106347       5.23507262       3.92887735       0.00000000       0.00000000       0.00000000
H        3.82136857       7.93157924      10.32697083       0.00000000       0.00000000       0.00000000
H        6.14780018       8.03459813       2.53546294       0.00000000       0.00000000       0.00000000
H        1.63810518       5.13205364       8.93355632       0.00000000       0.00000000       0.00000000
H        1.55804586       5.80949951       3.73115812       0.00000000       0.00000000       0.00000000
H        6.06774094       7.35715222      10.12925155       0.00000000       0.00000000       0.00000000
H        4.63340450       7.72431708       1.68653056       0.00000000       0.00000000       0.00000000
H        0.12370953       5.44233472       8.08462394       0.00000000       0.00000000       0.00000000
H        1.82884427       4.71238905       2.40039504       0.00000000       0.00000000       0.00000000
H        6.33853940       8.45426265       8.79848842       0.00000000       0.00000000       0.00000000
H        2.68085064       0.32350507       2.40039511       0.00000000       0.00000000       0.00000000
H        7.19054559       4.06537885       8.79848849       0.00000000       0.00000000       0.00000000
H        8.89568041       3.33543309       1.68653065       0.00000000       0.00000000       0.00000000
H        4.38598548       1.05345074       8.08462396       0.00000000       0.00000000       0.00000000
H        2.95164911       1.42061566       3.73115812       0.00000000       0.00000000       0.00000000
H        7.46134412       2.96826826      10.12925150       0.00000000       0.00000000       0.00000000
H        7.38128478       3.64571414       2.53546309       0.00000000       0.00000000       0.00000000
H        2.87158987       0.74316970       8.93355639       0.00000000       0.00000000       0.00000000
Pb       4.45610197       4.31963150      12.49774217       0.00000000       0.00000000       0.00000000
Pb       0.05777510       0.12503853       6.17434351       0.00000000       0.00000000       0.00000000
Pb       8.95066767       8.68613763      12.59068035       0.00000000       0.00000000       0.00000000
Pb       4.50112623       4.47345427       6.15959258       0.00000000       0.00000000       0.00000000
I        7.18517804       6.21727774       6.44102321       0.00000000       0.00000000       0.00000000
I        8.63692520       0.00552697       2.88374040       0.00000000       0.00000000       0.00000000
I        6.36655547       1.68126102      12.31238508       0.00000000       0.00000000       0.00000000
I        1.85541782       2.59173057       0.05259507       0.00000000       0.00000000       0.00000000
I        1.91402635       2.70148072       5.92766410       0.00000000       0.00000000       0.00000000
I        2.68845639       7.10251924       5.92542729       0.00000000       0.00000000       0.00000000
I        7.18861876       6.10910090      12.25237698       0.00000000       0.00000000       0.00000000
I        6.36236386       1.82853507       6.42552374       0.00000000       0.00000000       0.00000000
I        4.15622925       4.45555409       9.30694227       0.00000000       0.00000000       0.00000000
I        0.34789686       0.07768563       9.33632389       0.00000000       0.00000000       0.00000000
I        2.64239548       6.91669561       0.05581325       0.00000000       0.00000000       0.00000000
I        4.87015779       4.39316326       2.98015011       0.00000000       0.00000000       0.00000000
48
Lattice="9.01938999317578 0.0 0.0 0.0 8.777767844565316 0.0 0.0 0.0 12.796186806294449" Properties=species:S:1:pos:R:3:momenta:R:3 config_id=O-FAPI3_cage_rattle_15 phase=O-FAPI3 mode=cage_rattle seed=583389517 source=O-FAPI3/CONTCAR pbc="T T T"
C        4.58144029       0.35721994       3.16826706       0.00000000       0.00000000       0.00000000
C        0.07174524       4.03166402       9.56636042       0.00000000       0.00000000       0.00000000
C        8.94764466       4.74610384       3.16826714       0.00000000       0.00000000       0.00000000
C        4.43794979       8.42054792       9.56636048       0.00000000       0.00000000       0.00000000
N        5.14641592       8.21104204       2.42775928       0.00000000       0.00000000       0.00000000
N        0.63672090       4.95560973       8.82585276       0.00000000       0.00000000       0.00000000
N        1.18184367       5.12533409       3.07055868       0.00000000       0.00000000       0.00000000
N        5.69153871       8.04131766       9.46865213       0.00000000       0.00000000       0.00000000
N        3.32785132       0.73645021       3.07055870       0.00000000       0.00000000       0.00000000
N        7.83754632       3.65243376       9.46865215       0.00000000       0.00000000       0.00000000
N        8.38266906       3.82215805       2.42775938       0.00000000       0.00000000       0.00000000
N        3.87297416       0.56672577       8.82585280       0.00000000       0.00000000       0.00000000
H        5.19802154       0.84618877       3.92887723       0.00000000       0.00000000       0.00000000
H        0.68832651       3.54269529      10.32697070       0.00000000       0.00000000       0.00000000
H        8.33106347       5.23507262       3.92887735       0.00000000       0.00000000       0.00000000
H        3.82136857       7.93157924      10.32697083       0.00000000       0.00000000       0.00000000
H        6.14780018       8.03459813       2.53546294       0.00000000       0.00000000       0.00000000
H        1.63810518       5.13205364       8.93355632       0.00000000       0.00000000       0.00000000
H        1.55804586       5.80949951       3.73115812       0.00000000       0.00000000       0.00000000
H        6.06774094       7.35715222      10.12925155       0.00000000       0.00000000       0.00000000
H        4.63340450       7.72431708       1.68653056       0.00000000       0.00000000       0.00000000
H        0.12370953       5.44233472       8.08462394       0.00000000       0.00000000       0.00000000
H        1.82884427       4.71238905       2.40039504       0.00000000       0.00000000       0.00000000
H        6.33853940       8.45426265       8.79848842       0.00000000       0.00000000       0.00000000
H        2.68085064       0.32350507       2.40039511       0.00000000       0.00000000       0.00000000
H        7.19054559       4.06537885       8.79848849       0.00000000       0.00000000       0.00000000
H        8.89568041       3.33543309       1.68653065       0.00000000       0.00000000       0.00000000
H        4.38598548       1.05345074       8.08462396       0.00000000       0.00000000       0.00000000
H        2.95164911       1.42061566       3.73115812       0.00000000       0.00000000       0.00000000
H        7.46134412       2.96826826      10.12925150       0.00000000       0.00000000       0.00000000
H        7.38128478       3.64571414       2.53546309       0.00000000       0.00000000       0.00000000
H        2.87158987       0.74316970       8.93355639       0.00000000       0.00000000       0.00000000
Pb       4.51846067       4.26729064      12.59879605       0.00000000       0.00000000       0.00000000
Pb       9.00325803       0.20997392       6.12865846       0.00000000       0.00000000       0.00000000
Pb       8.88395066       8.56964418      12.53136192       0.00000000       0.00000000       0.00000000
Pb       4.52044366       4.49547852       6.15959140       0.00000000       0.00000000       0.00000000
I        7.13283555       6.31400502       6.49918706       0.00000000       0.00000000       0.00000000
I        8.77929069       0.00792867       2.99860675       0.00000000       0.00000000       0.00000000
I        6.43411021       1.75341776      12.25304822       0.00000000       0.00000000       0.00000000
I        1.89790256       2.56855690       0.01375717       0.00000000       0.00000000       0.00000000
I        1.94226552       2.68345708       5.96371992       0.00000000       0.00000000       0.00000000
I        2.63665599       7.05950976       5.86983433       0.00000000       0.00000000       0.00000000
I        7.09685339       6.03485551      12.34267136       0.00000000       0.00000000       0.00000000
I        6.40014060       1.74709879       6.37443114       0.00000000       0.00000000       0.00000000
I        4.09793607       4.41985267       9.31875211       0.00000000       0.00000000       0.00000000
I        0.27460001       0.02472199       9.28021094       0.00000000       0.00000000       0.00000000
I        2.67251055       6.93826972       0.15246273       0.00000000       0.00000000       0.00000000
I        4.87514727       4.28747167       2.96648788       0.00000000       0.00000000       0.00000000
48
Lattice="9.01938999317578 0.0 0.0 0.0 8.777767844565316 0.0 0.0 0.0 12.796186806294449" Properties=species:S:1:pos:R:3:momenta:R:3 config_id=O-FAPI3_cage_rattle_16 phase=O-FAPI3 mode=cage_rattle seed=3834880372 source=O-FAPI3/CONTCAR pbc="T T T"
C        4.58144029       0.35721994       3.16826706       0.00000000       0.00000000       0.00000000
C        0.07174524       4.03166402       9.56636042       0.00000000       0.00000000       0.00000000
C        8.94764466       4.74610384       3.16826714       0.00000000       0.00000000       0.00000000
C        4.43794979       8.42054792       9.56636048       0.00000000       0.00000000       0.00000000
N        5.14641592       8.21104204       2.42775928       0.00000000       0.00000000       0.00000000
N        0.63672090       4.95560973       8.82585276       0.00000000       0.00000000       0.00000000
N        1.18184367       5.12533409       3.07055868       0.00000000       0.00000000       0.00000000
N        5.69153871       8.04131766       9.46865213       0.00000000       0.00000000       0.00000000
N        3.32785132       0.73645021       3.07055870       0.00000000       0.00000000       0.00000000
N        7.83754632       3.65243376       9.46865215       0.00000000       0.00000000       0.00000000
N        8.38266906       3.82215805       2.42775938       0.00000000       0.00000000       0.00000000
N        3.87297416       0.56672577       8.82585280       0.00000000       0.00000000       0.00000000
H        5.19802154       0.84618877       3.92887723       0.00000000       0.00000000       0.00000000
H        0.68832651       3.54269529      10.32697070       0.00000000       0.00000000       0.00000000
H        8.33106347       5.23507262       3.92887735       0.00000000       0.00000000       0.00000000
H        3.82136857       7.93157924      10.32697083       0.00000000       0.00000000       0.00000000
H        6.14780018       8.03459813       2.53546294       0.00000000       0.00000000       0.00000000
H        1.63810518       5.13205364       8.93355632       0.00000000       0.00000000       0.00000000
H        1.55804586       5.80949951       3.73115812       0.00000000       0.00000000       0.00000000
H        6.06774094       7.35715222      10.12925155       0.00000000       0.00000000       0.00000000
H        4.63340450       7.72431708       1.68653056       0.00000000       0.00000000       0.00000000
H        0.12370953       5.44233472       8.08462394       0.00000000       0.00000000       0.00000000
H        1.82884427       4.71238905       2.40039504       0.00000000       0.00000000       0.00000000
H        6.33853940       8.45426265       8.79848842       0.00000000       0.00000000       0.00000000
H        2.68085064       0.32350507       2.40039511       0.00000000       0.00000000       0.00000000
H        7.19054559       4.06537885       8.79848849       0.00000000       0.00000000       0.00000000
H        8.89568041       3.33543309       1.68653065       0.00000000       0.00000000       0.00000000
H        4.38598548       1.05345074       8.08462396       0.00000000       0.00000000       0.00000000
H        2.95164911       1.42061566       3.73115812       0.00000000       0.00000000       0.00000000
H        7.46134412       2.96826826      10.12925150       0.00000000       0.00000000       0.00000000
H        7.38128478       3.64571414       2.53546309       0.00000000       0.00000000       0.00000000
H        2.87158987       0.74316970       8.93355639       0.00000000       0.00000000       0.00000000
Pb       4.54440286       4.27509684      12.49190697       0.00000000       0.00000000       0.00000000
Pb       0.09233271       0.13416897       6.18313165       0.00000000       0.00000000       0.00000000
Pb       9.01178915       8.67207669      12.54115005       0.00000000       0.00000000       0.00000000
Pb       4.48655132       4.47027007       6.18998009       0.00000000       0.00000000       0.00000000
I        7.21125759       6.17290671       6.40845005       0.00000000       0.00000000       0.00000000
I        8.67005746       8.70736698       2.94801147       0.00000000       0.00000000       0.00000000
I        6.39363958       1.73350027      12.31689705       0.00000000       0.00000000       0.00000000
I        1.79506242       2.56562434       0.04320302       0.00000000       0.00000000       0.00000000
I        1.84055837       2.69263249       5.89182166       0.00000000       0.00000000       0.00000000
I        2.62699879       7.04958084       5.90307525       0.00000000       0.00000000       0.00000000
I        7.17467288       6.15744493      12.34611503       0.00000000       0.00000000       0.00000000
I        6.34898637       1.86837364       6.49397194       0.00000000       0.00000000       0.00000000
I        4.17370779       4.54917081       9.39408273       0.00000000       0.00000000       0.00000000
I        0.34516581       8.75953306       9.38993987       0.00000000       0.00000000       0.00000000
I        2.61803388       6.94746698       0.06560800       0.00000000       0.00000000       0.00000000
I        4.87330233       4.37318584       2.88904808       0.00000000       0.00000000       0.00000000
48
Lattice="9.01938999317578 0.0 0.0 0.0 8.777767844565316 0.0 0.0 0.0 12.796186806294449" Properties=species:S:1:pos:R:3:momenta:R:3 config_id=O-FAPI3_cage_rattle_17 phase=O-FAPI3 mode=cage_rattle seed=1416337329 source=O-FAPI3/CONTCAR pbc="T T T"
C        4.58144029       0.35721994       3.16826706       0.00000000       0.00000000       0.00000000
C        0.07174524       4.03166402       9.56636042       0.00000000       0.00000000       0.00000000
C        8.94764466       4.74610384       3.16826714       0.00000000       0.00000000       0.00000000
C        4.43794979       8.42054792       9.56636048       0.00000000       0.00000000       0.00000000
N        5.14641592       8.21104204       2.42775928       0.00000000       0.00000000       0.00000000
N        0.63672090       4.95560973       8.82585276       0.00000000       0.00000000       0.00000000
N        1.18184367       5.12533409       3.07055868       0.00000000       0.00000000       0.00000000
N        5.69153871       8.04131766       9.46865213       0.00000000       0.00000000       0.00000000
N        3.32785132       0.73645021       3.07055870       0.00000000       0.00000000       0.00000000
N        7.83754632       3.65243376       9.46865215       0.00000000       0.00000000       0.00000000
N        8.38266906       3.82215805       2.42775938       0.00000000       0.00000000       0.00000000
N        3.87297416       0.56672577       8.82585280       0.00000000       0.00000000       0.00000000
H        5.19802154       0.84618877       3.92887723       0.00000000       0.00000000       0.00000000
H        0.68832651       3.54269529      10.32697070       0.00000000       0.00000000       0.00000000
H        8.33106347       5.23507262       3.92887735       0.00000000       0.00000000       0.00000000
H        3.82136857       7.93157924      10.32697083       0.00000000       0.00000000       0.00000000
H        6.14780018       8.03459813       2.53546294       0.00000000       0.00000000       0.00000000
H        1.63810518       5.13205364       8.93355632       0.00000000       0.00000000       0.00000000
H        1.55804586       5.80949951       3.73115812       0.00000000       0.00000000       0.00000000
H        6.06774094       7.35715222      10.12925155       0.00000000       0.00000000       0.00000000
H        4.63340450       7.72431708       1.68653056       0.00000000       0.00000000       0.00000000
H        0.12370953       5.44233472       8.08462394       0.00000000       0.00000000       0.00000000
H        1.82884427       4.71238905       2.40039504       0.00000000       0.00000000       0.00000000
H        6.33853940       8.45426265       8.79848842       0.00000000       0.00000000       0.00000000
H        2.68085064       0.32350507       2.40039511       0.00000000       0.00000000       0.00000000
H        7.19054559       4.06537885       8.79848849       0.00000000       0.00000000       0.00000000
H        8.89568041       3.33543309       1.68653065       0.00000000       0.00000000       0.00000000
H        4.38598548       1.05345074       8.08462396       0.00000000       0.00000000       0.00000000
H        2.95164911       1.42061566       3.73115812       0.00000000       0.00000000       0.00000000
H        7.46134412       2.96826826      10.12925150       0.00000000       0.00000000       0.00000000
H        7.38128478       3.64571414       2.53546309       0.00000000       0.00000000       0.00000000
H        2.87158987       0.74316970       8.93355639       0.00000000       0.00000000       0.00000000
Pb       4.51603991       4.25219365      12.55256914       0.00000000       0.00000000       0.00000000
Pb       8.99346475       0.11969076       6.11568149       0.00000000       0.00000000       0.00000000
Pb       0.02786943       8.72739101      12.59730210       0.00000000       0.00000000       0.00000000
Pb       4.56208755       4.55361926       6.16913822       0.00000000       0.00000000       0.00000000
I        7.18004126       6.18411172       6.44312990       0.00000000       0.00000000       0.00000000
I        8.66395251       8.76738838       2.95637348       0.00000000       0.00000000       0.00000000
I        6.39666897       1.74841700      12.28647477       0.00000000       0.00000000       0.00000000
I        1.92611745       2.52546295       0.00981231       0.00000000       0.00000000       0.00000000
I        1.85174290       2.71072951       5.82840996       0.00000000       0.00000000       0.00000000
I        2.61697108       7.08796226       5.85885151       0.00000000       0.00000000       0.00000000
I        7.13883054       6.11350119      12.29340601       0.00000000       0.00000000       0.00000000
I        6.32228512       1.78821911       6.49937768       0.00000000       0.00000000       0.00000000
I        4.06105029       4.53088274       9.38550933       0.00000000       0.00000000       0.00000000
I        0.37498893       8.76876325       9.33329432       0.00000000       0.00000000       0.00000000
I        2.70456755       6.98844255       0.05808949       0.00000000       0.00000000       0.00000000
I        4.84208814       4.35026676       2.94681432       0.00000000       0.00000000       0.00000000
48
Lattice="9.01938999317578 0.0 0.0 0.0 8.777767844565316 0.0 0.0 0.0 12.796186806294449" Properties=species:S:1:pos:R:3:momenta:R:3 config_id=O-FAPI3_all_rattle_01 phase=O-FAPI3 mode=all_rattle seed=1563858520 source=O-FAPI3/CONTCAR pbc="T T T"
C        4.64271101       0.33697155       3.16393459       0.00000000       0.00000000       0.00000000
C        0.08112873       4.00943161       9.66894160       0.00000000       0.00000000       0.00000000
C        8.93615787       4.66313764       3.17759631       0.00000000       0.00000000       0.00000000
C        4.45404225       8.40315974       9.59125147       0.00000000       0.00000000       0.00000000
N        5.10307780       8.23952058       2.42553630       0.00000000       0.00000000       0.00000000
N        0.58135594       4.98772243       8.82208982       0.00000000       0.00000000       0.00000000
N        1.28642375       5.17238753       3.01002063       0.00000000       0.00000000       0.00000000
N        5.72946222       8.03702827       9.44654915       0.00000000       0.00000000       0.00000000
N        3.31943615       0.76184497       3.02779107       0.00000000       0.00000000       0.00000000
N        7.81767539       3.69033631       9.50968351       0.00000000       0.00000000       0.00000000
N        8.41620436       3.81836076       2.41471330       0.00000000       0.00000000       0.00000000
N        3.86064169       0.51748513       8.78866991       0.00000000       0.00000000       0.00000000
H        5.16106030       0.85314295       3.93958831       0.00000000       0.00000000       0.00000000
H        0.69294836       3.57086829      10.34913043       0.00000000       0.00000000       0.00000000
H        8.32911644       5.15131468       4.01379711       0.00000000       0.00000000       0.00000000
H        3.83748212       7.90973114      10.33806292       0.00000000       0.00000000       0.00000000
H        6.16685448       8.03429765       2.56341448       0.00000000       0.00000000       0.00000000
H        1.64515915       5.12683533       8.90024130       0.00000000       0.00000000       0.00000000
H        1.54661786       5.91423756       3.69328800       0.00000000       0.00000000       0.00000000
H        6.04540358       7.33569835      10.00083223       0.00000000       0.00000000       0.00000000
H        4.61851101       7.67912824       1.70078941       0.00000000       0.00000000       0.00000000
H        0.07438930       5.38911416       8.15581835       0.00000000       0.00000000       0.00000000
H        1.82201813       4.67575800       2.41909407       0.00000000       0.00000000       0.00000000
H        6.28495112       8.38852708       8.78874626       0.00000000       0.00000000       0.00000000
H        2.68471160       0.31686246       2.38609401       0.00000000       0.00000000       0.00000000
H        7.10968557       4.02341595       8.78415940       0.00000000       0.00000000       0.00000000
H        8.90952364       3.37358245       1.68445721       0.00000000       0.00000000       0.00000000
H        4.32637554       1.04976675       8.02684517       0.00000000       0.00000000       0.00000000
H        2.88957273       1.42557308       3.80696810       0.00000000       0.00000000       0.00000000
H        7.44596512       2.96315666      10.01483962       0.00000000       0.00000000       0.00000000
H        7.47871172       3.63518796       2.48653223       0.00000000       0.00000000       0.00000000
H        2.84942975       0.71447101       8.96860862       0.00000000       0.00000000       0.00000000
Pb       4.51895385       4.27370733      12.54432974       0.00000000       0.00000000       0.00000000
Pb       0.05643814       0.11467610       6.18297933       0.00000000       0.00000000       0.00000000
Pb       9.00408827       8.65468990      12.55845669       0.00000000       0.00000000       0.00000000
Pb       4.52209974       4.55768706       6.14656585       0.00000000       0.00000000       0.00000000
I        7.18154594       6.18791672       6.42242890       0.00000000       0.00000000       0.00000000
I        8.70107637       8.67664423       2.92188851       0.00000000       0.00000000       0.00000000
I        6.33445001       1.70168303      12.26274143       0.00000000       0.00000000       0.00000000
I        1.80759040       2.58730775       0.09024979       0.00000000       0.00000000       0.00000000
I        1.93299615       2.70342603       5.85096695       0.00000000       0.00000000       0.00000000
I        2.76301285       7.14775763       5.90992215       0.00000000       0.00000000       0.00000000
I        7.08258264       6.08133673      12.32917252       0.00000000       0.00000000       0.00000000
I        6.38712792       1.81146029       6.49835438       0.00000000       0.00000000       0.00000000
I        4.11925101       4.45195977       9.36616304       0.00000000       0.00000000       0.00000000
I        0.40934271       8.75353010       9.37216131       0.00000000       0.00000000       0.00000000
I        2.68641203       6.99778537       0.01839241       0.00000000       0.00000000       0.00000000
I        4.85821727       4.28715831       2.99105763       0.00000000       0.00000000       0.00000000
48
Lattice="9.01938999317578 0.0 0.0 0.0 8.777767844565316 0.0 0.0 0.0 12.796186806294449" Properties=species:S:1:pos:R:3:momenta:R:3 config_id=O-FAPI3_all_rattle_02 phase=O-FAPI3 mode=all_rattle seed=4291043517 source=O-FAPI3/CONTCAR pbc="T T T"
C        4.53965153       0.33731997       3.12485742       0.00000000       0.00000000       0.00000000
C        0.20730945       3.96647062       9.64648380       0.00000000       0.00000000       0.00000000
C        8.89507338       4.66408842       3.18727346       0.00000000       0.00000000       0.00000000
C        4.44604893       8.41279385       9.46884405       0.00000000       0.00000000       0.00000000
N        5.20888612       8.24118276       2.40898007       0.00000000       0.00000000       0.00000000
N        0.76660219       4.98305124       8.75677461       0.00000000       0.00000000       0.00000000
N        1.14962427       5.12654478       3.11442744       0.00000000       0.00000000       0.00000000
N        5.66413806       8.12394168       9.42379180       0.00000000       0.00000000       0.00000000
N        3.32704799       0.68941440       3.11635064       0.00000000       0.00000000       0.00000000
N        7.74239597       3.78710901       9.52503496       0.00000000       0.00000000       0.00000000
N        8.33622362       3.65873638       2.34576804       0.00000000       0.00000000       0.00000000
N        3.87705694       0.44126759       8.80463907       0.00000000       0.00000000       0.00000000
H        5.20389937       0.94331623       3.82571923       0.00000000       0.00000000       0.00000000
H        0.75409303       3.51879543      10.42437273       0.00000000       0.00000000       0.00000000
H        8.36253888       5.27383732       3.92978998       0.00000000       0.00000000       0.00000000
H        3.77678575       7.92381693      10.33985568       0.00000000       0.00000000       0.00000000
H        6.13743066       8.03113055       2.53826562       0.00000000       0.00000000       0.00000000
H        1.61870988       5.23012629       9.01189182       0.00000000       0.00000000       0.00000000
H        1.51414711       5.89749215       3.67741373       0.00000000       0.00000000       0.00000000
H        5.97030596       7.42375998      10.21366358       0.00000000       0.00000000       0.00000000
H        4.61716688       7.69488836       1.68962997       0.00000000       0.00000000       0.00000000
H        0.13509869       5.55513794       8.09320355       0.00000000       0.00000000       0.00000000
H        1.85118708       4.76976673       2.44488903       0.00000000       0.00000000       0.00000000
H        6.42050554       8.49240771       8.85570017       0.00000000       0.00000000       0.00000000
H        2.74306186       0.24610173       2.36041464       0.00000000       0.00000000       0.00000000
H        7.15111030       4.09551579       8.73029321       0.00000000       0.00000000       0.00000000
H        8.86191606       3.45060506       1.52834538       0.00000000       0.00000000       0.00000000
H        4.54686782       1.01029861       7.96493024       0.00000000       0.00000000       0.00000000
H        3.01267569       1.37016569       3.77658941       0.00000000       0.00000000       0.00000000
H        7.50083853       2.96063248      10.19350777       0.00000000       0.00000000       0.00000000
H        7.48043071       3.62615413       2.51429147       0.00000000       0.00000000       0.00000000
H        2.85131743       0.73609957       8.92158459       0.00000000       0.00000000       0.00000000
Pb       4.56733240       4.28374504      12.56506592       0.00000000       0.00000000       0.00000000
Pb       8.95740735       0.20819806       6.31849127       0.00000000       0.00000000       0.00000000
Pb       8.88364764       0.03041102      12.60155143       0.00000000       0.00000000       0.00000000
Pb       4.48604876       4.49996059       6.29202817       0.00000000       0.00000000       0.00000000
I        7.17609203       6.23395705       6.57012386       0.00000000       0.00000000       0.00000000
I        8.54008876       8.59388070       3.00362353       0.00000000       0.00000000       0.00000000
I        6.30121556       1.69730003      12.27597048       0.00000000       0.00000000       0.00000000
I        1.82568737       2.61042829       0.03653663       0.00000000       0.00000000       0.00000000
I        1.83619071       2.66345328       5.89699888       0.00000000       0.00000000       0.00000000
I        2.64805233       7.04892720       5.80436049       0.00000000       0.00000000       0.00000000
I        7.12575375       6.16351803      12.18937684       0.00000000       0.00000000       0.00000000
I        6.38764514       1.84601734       6.40548245       0.00000000       0.00000000       0.00000000
I        4.12774940       4.26820142       9.41712856       0.00000000       0.00000000       0.00000000
I        0.44684955       8.71425941       9.50026043       0.00000000       0.00000000       0.00000000
I        2.54519474       6.85317473       0.04087819       0.00000000       0.00000000       0.00000000
I        5.14268030       4.34258534       2.97066841       0.00000000       0.00000000       0.00000000
48
Lattice="9.01938999317578 0.0 0.0 0.0 8.777767844565316 0.0 0.0 0.0 12.796186806294449" Properties=species:S:1:pos:R:3:momenta:R:3 config_id=O-FAPI3_all_rattle_03 phase=O-FAPI3 mode=all_rattle seed=801975523 source=O-FAPI3/CONTCAR pbc="T T T"
C        4.59064037       0.40246719       3.20220964       0.00000000       0.00000000       0.00000000
C        0.05397035       4.08355024       9.58722577       0.00000000       0.00000000       0.00000000
C        8.93196553       4.74731364       3.20446342       0.00000000       0.00000000       0.00000000
C        4.42685571       8.36520909       9.59931599       0.00000000       0.00000000       0.00000000
N        5.10079022       8.17272336       2.47910634       0.00000000       0.00000000       0.00000000
N        0.65963374       4.93946873       8.81240604       0.00000000       0.00000000       0.00000000
N        1.14796380       5.08356938       3.07353703       0.00000000       0.00000000       0.00000000
N        5.74517863       7.95481816       9.53066203       0.00000000       0.00000000       0.00000000
N        3.27426152       0.64648755       3.10071455       0.00000000       0.00000000       0.00000000
N        7.87575521       3.67911101       9.46588360       0.00000000       0.00000000       0.00000000
N        8.35124689       3.77172155       2.39250439       0.00000000       0.00000000       0.00000000
N        3.89135983       0.56299777       8.88205756       0.00000000       0.00000000       0.00000000
H        5.19679859       0.79627832       3.93707655       0.00000000       0.00000000       0.00000000
H        0.72053949       3.51537567      10.31119647       0.00000000       0.00000000       0.00000000
H        8.37007896       5.17210699       3.90334152       0.00000000       0.00000000       0.00000000
H        3.88482196       7.97752192      10.34202072       0.00000000       0.00000000       0.00000000
H        6.20831900       8.11785969       2.56031905       0.00000000       0.00000000       0.00000000
H        1.63854095       5.07277383       8.95332379       0.00000000       0.00000000       0.00000000
H        1.57455844       5.73995630       3.72588394       0.00000000       0.00000000       0.00000000
H        6.06437786       7.32484032      10.05186355       0.00000000       0.00000000       0.00000000
H        4.63200121       7.72902077       1.70134401       0.00000000       0.00000000       0.00000000
H        0.13346798       5.45592570       8.03112984       0.00000000       0.00000000       0.00000000
H        1.78564676       4.70153883       2.39656768       0.00000000       0.00000000       0.00000000
H        6.31665006       8.47960091       8.76978774       0.00000000       0.00000000       0.00000000
H        2.70901035       0.25463618       2.48985639       0.00000000       0.00000000       0.00000000
H        7.11211651       4.02467266       8.76705744       0.00000000       0.00000000       0.00000000
H        8.97951443       3.38499215       1.70357402       0.00000000       0.00000000       0.00000000
H        4.38771874       1.00604783       8.12567767       0.00000000       0.00000000       0.00000000
H        2.92447511       1.44572013       3.71696920       0.00000000       0.00000000       0.00000000
H        7.44011803       2.96365166      10.13365152       0.00000000       0.00000000       0.00000000
H        7.35096829       3.65552927       2.59985004       0.00000000       0.00000000       0.00000000
H        2.88188520       0.76978916       8.96513708       0.00000000       0.00000000       0.00000000
Pb       4.57779796       4.30227363      12.52021419       0.00000000       0.00000000       0.00000000
Pb       9.01224641       0.09247899       6.16457753       0.00000000       0.00000000       0.00000000
Pb       8.97481630       8.68128445      12.58574827       0.00000000       0.00000000       0.00000000
Pb       4.46438209       4.57260153       6.12924946       0.00000000       0.00000000       0.00000000
I        7.16887251       6.33086396       6.43337051       0.00000000       0.00000000       0.00000000
I        8.66481552       8.73573199       2.98023580       0.00000000       0.00000000       0.00000000
I        6.45561637       1.70411910      12.28183306       0.00000000       0.00000000       0.00000000
I        1.83790486       2.59364153       0.07146949       0.00000000       0.00000000       0.00000000
I        1.93696258       2.68784810       5.91541746       0.00000000       0.00000000       0.00000000
I        2.67598286       7.09279539       5.84959769       0.00000000       0.00000000       0.00000000
I        7.16498500       6.15144530      12.27779731       0.00000000       0.00000000       0.00000000
I        6.33447466       1.84381893       6.52368119       0.00000000       0.00000000       0.00000000
I        4.11234209       4.37412513       9.42082011       0.00000000       0.00000000       0.00000000
I        0.41065305       0.12350994       9.37636165       0.00000000       0.00000000       0.00000000
I        2.69305363       6.96168832       0.04448035       0.00000000       0.00000000       0.00000000
I        4.92488206       4.35395152       2.93883890       0.00000000       0.00000000       0.00000000
48
Lattice="9.01938999317578 0.0 0.0 0.0 8.777767844565316 0.0 0.0 0.0 12.796186806294449" Properties=species:S:1:pos:R:3:momenta:R:3 config_id=O-FAPI3_all_rattle_04 phase=O-FAPI3 mode=all_rattle seed=1399279438 source=O-FAPI3/CONTCAR pbc="T T T"
C        4.63250553       0.28653384       3.14597799       0.00000000       0.00000000       0.00000000
C        0.01685315       3.99051309       9.58197975       0.00000000       0.00000000       0.00000000
C        8.98238744       4.79307204       3.18043224       0.00000000       0.00000000       0.00000000
C        4.40921554       8.40516829       9.52200101       0.00000000       0.00000000       0.00000000
N        5.12667032       8.19961171       2.33444929       0.00000000       0.00000000       0.00000000
N        0.68158981       4.95049791       8.92779239       0.00000000       0.00000000       0.00000000
N        1.17852651       5.14660718       3.12487611       0.00000000       0.00000000       0.00000000
N        5.78816275       8.05981689       9.52609941       0.00000000       0.00000000       0.00000000
N        3.34658821       0.70881315       3.01815506       0.00000000       0.00000000       0.00000000
N        7.83313214       3.70589690       9.54151927       0.00000000       0.00000000       0.00000000
N        8.35322338       3.67912939       2.32403889       0.00000000       0.00000000       0.00000000
N        3.96131595       0.43156806       8.65956386       0.00000000       0.00000000       0.00000000
H        5.15357952       0.84525225       3.90120659       0.00000000       0.00000000       0.00000000
H        0.77977086       3.56420469      10.32229014       0.00000000       0.00000000       0.00000000
H        8.25850468       5.25824866       3.98483055       0.00000000       0.00000000       0.00000000
H        3.84279925       7.95061978      10.38783274       0.00000000       0.00000000       0.00000000
H        6.11773021       7.88075458       2.51597801       0.00000000       0.00000000       0.00000000
H        1.70919649       5.20954846       8.87167721       0.00000000       0.00000000       0.00000000
H        1.56415506       5.78521476       3.71527350       0.00000000       0.00000000       0.00000000
H        6.03567844       7.37247252      10.10900187       0.00000000       0.00000000       0.00000000
H        4.70841151       7.75882012       1.80071854       0.00000000       0.00000000       0.00000000
H        0.09117413       5.45050356       8.10128594       0.00000000       0.00000000       0.00000000
H        1.88014449       4.71892539       2.60323310       0.00000000       0.00000000       0.00000000
H        6.41201890       8.32461915       8.84024894       0.00000000       0.00000000       0.00000000
H        2.67266979       0.23265503       2.40832068       0.00000000       0.00000000       0.00000000
H        7.21180698       4.11865354       8.86574770       0.00000000       0.00000000       0.00000000
H        8.87790733       3.30632782       1.81867544       0.00000000       0.00000000       0.00000000
H        4.33641060       1.01397475       8.02926231       0.00000000       0.00000000       0.00000000
H        2.87780120       1.43884299       3.69707825       0.00000000       0.00000000       0.00000000
H        7.48573372       2.96816766      10.13448667       0.00000000       0.00000000       0.00000000
H        7.34491013       3.60055332       2.53444445       0.00000000       0.00000000       0.00000000
H        2.89046015       0.79825325       8.88057874       0.00000000       0.00000000       0.00000000
Pb       4.50078049       4.25161360      12.62096675       0.00000000       0.00000000       0.00000000
Pb       0.16964440       8.75831063       6.24398823       0.00000000       0.00000000       0.00000000
Pb       9.00083661       8.61725315      12.55026120       0.00000000       0.00000000       0.00000000
Pb       4.50819288       4.53135566       6.22046247       0.00000000       0.00000000       0.00000000
I        7.23452799       6.32888709       6.30530275       0.00000000       0.00000000       0.00000000
I        8.74084373       0.01300752       2.98921721       0.00000000       0.00000000       0.00000000
I        6.22856880       1.70452121      12.28002774       0.00000000       0.00000000       0.00000000
I        1.89583784       2.57564587       0.00765325       0.00000000       0.00000000       0.00000000
I        1.88578053       2.60170405       5.86504132       0.00000000       0.00000000       0.00000000
I        2.72998048       7.03917645       5.86355157       0.00000000       0.00000000       0.00000000
I        7.15670221       6.03591794      12.21607544       0.00000000       0.00000000       0.00000000
I        6.29997613       1.89242241       6.49381462       0.00000000       0.00000000       0.00000000
I        4.12644254       4.45584120       9.35984636       0.00000000       0.00000000       0.00000000
I        0.30917570       0.02787848       9.39591001       0.00000000       0.00000000       0.00000000
I        2.70876776       7.03648216      12.79501064       0.00000000       0.00000000       0.00000000
I        4.94240203       4.33821718       3.03654798       0.00000000       0.00000000       0.00000000
48
Lattice="9.01938999317578 0.0 0.0 0.0 8.777767844565316 0.0 0.0 0.0 12.796186806294449" Properties=species:S:1:pos:R:3:momenta:R:3 config_id=O-FAPI3_all_rattle_05 phase=O-FAPI3 mode=all_rattle seed=4221752773 source=O-FAPI3/CONTCAR pbc="T T T"
C        4.57574654       0.39301732       3.17088050       0.00000000       0.00000000       0.00000000
C        0.05762523       4.01483898       9.54152919       0.00000000       0.00000000       0.00000000
C        8.91784452       4.80125507       3.18758229       0.00000000       0.00000000       0.00000000
C        4.42770234       8.42168214       9.60783714       0.00000000       0.00000000       0.00000000
N        5.15463023       8.19374480       2.45928538       0.00000000       0.00000000       0.00000000
N        0.65802181       4.98605230       8.84019325       0.00000000       0.00000000       0.00000000
N        1.12582232       5.10574313       3.05258915       0.00000000       0.00000000       0.00000000
N        5.69727696       8.03189116       9.43186957       0.00000000       0.00000000       0.00000000
N        3.30643749       0.78246251       3.07003789       0.00000000       0.00000000       0.00000000
N        7.86088330       3.65743925       9.38734981       0.00000000       0.00000000       0.00000000
N        8.45262151       3.76973922       2.40071040       0.00000000       0.00000000       0.00000000
N        3.86892258       0.56859200       8.85833337       0.00000000       0.00000000       0.00000000
H        5.19153065       0.84326897       3.96708114       0.00000000       0.00000000       0.00000000
H        0.70869888       3.55179607      10.31374223       0.00000000       0.00000000       0.00000000
H        8.30186395       5.21703625       3.93899562       0.00000000       0.00000000       0.00000000
H        3.87839544       7.94058419      10.32288379       0.00000000       0.00000000       0.00000000
H        6.13167900       8.07918704       2.48865355       0.00000000       0.00000000       0.00000000
H        1.65644872       5.16612504       8.91412036       0.00000000       0.00000000       0.00000000
H        1.57978914       5.81781910       3.74398572       0.00000000       0.00000000       0.00000000
H        6.11127722       7.35667215      10.12822254       0.00000000       0.00000000       0.00000000
H        4.59865120       7.69998183       1.68315217       0.00000000       0.00000000       0.00000000
H        0.17846341       5.43945696       8.08673436       0.00000000       0.00000000       0.00000000
H        1.79370037       4.69920240       2.43174642       0.00000000       0.00000000       0.00000000
H        6.31251626       8.42183239       8.73388245       0.00000000       0.00000000       0.00000000
H        2.65507730       0.35807781       2.39552854       0.00000000       0.00000000       0.00000000
H        7.19086190       4.06627028       8.82621860       0.00000000       0.00000000       0.00000000
H        8.88959289       3.37067953       1.67096663       0.00000000       0.00000000       0.00000000
H        4.31643261       1.04288102       8.06220058       0.00000000       0.00000000       0.00000000
H        2.96858061       1.40939367       3.70942178       0.00000000       0.00000000       0.00000000
H        7.50219620       2.98901061      10.09781169       0.00000000       0.00000000       0.00000000
H        7.42074570       3.67420320       2.52622259       0.00000000       0.00000000       0.00000000
H        2.86301358       0.70801889       8.91810182       0.00000000       0.00000000       0.00000000
Pb       4.59759635       4.28360659      12.52594724       0.00000000       0.00000000       0.00000000
Pb       0.05842155       0.13643662       6.14827709       0.00000000       0.00000000       0.00000000
Pb       0.02384738       8.68732376      12.56400249       0.00000000       0.00000000       0.00000000
Pb       4.51683831       4.48492236       6.17548249       0.00000000       0.00000000       0.00000000
I        7.18384013       6.19911542       6.44997786       0.00000000       0.00000000       0.00000000
I        8.67747079       8.71273779       3.01299865       0.00000000       0.00000000       0.00000000
I        6.35392938       1.73716501      12.28373374       0.00000000       0.00000000       0.00000000
I        1.77844683       2.50954760       0.01083627       0.00000000       0.00000000       0.00000000
I        1.81683853       2.68526875       5.91755042       0.00000000       0.00000000       0.00000000
I        2.65036571       7.07497289       5.89139332       0.00000000       0.00000000       0.00000000
I        7.16136386       6.11948665      12.27490378       0.00000000       0.00000000       0.00000000
I        6.33328309       1.86778721       6.45267589       0.00000000       0.00000000       0.00000000
I        4.14987195       4.38965077       9.34620997       0.00000000       0.00000000       0.00000000
I        0.38891598       8.74259807       9.31063258       0.00000000       0.00000000       0.00000000
I        2.64651633       6.91887063       0.03503766       0.00000000       0.00000000       0.00000000
I        4.87406605       4.30522824       2.96330716       0.00000000       0.00000000       0.00000000
48
Lattice="9.01938999317578 0.0 0.0 0.0 8.777767844565316 0.0 0.0 0.0 12.796186806294449" Properties=species:S:1:pos:R:3:momenta:R:3 config_id=O-FAPI3_all_rattle_06 phase=O-FAPI3 mode=all_rattle seed=1810035654 source=O-FAPI3/CONTCAR pbc="T T T"
C        4.56265691       0.41871329       3.10018942       0.00000000       0.00000000       0.00000000
C        0.10835725       4.00455061       9.60754318       0.00000000       0.00000000       0.00000000
C        8.92680668       4.76262955       3.19402371       0.00000000       0.00000000       0.00000000
C        4.46399299       8.49575261       9.58744095       0.00000000       0.00000000       0.00000000
N        5.11904646       8.21865683       2.39432039       0.00000000       0.00000000       0.00000000
N        0.56031956       4.89633700       8.77843692       0.00000000       0.00000000       0.00000000
N        1.19042099       5.08782278       3.09148906       0.00000000       0.00000000       0.00000000
N        5.77940609       8.03916558       9.39501179       0.00000000       0.00000000       0.00000000
N        3.30938302       0.68453692       3.07502445       0.00000000       0.00000000       0.00000000
N        7.93524229       3.65615013       9.48437194       0.00000000       0.00000000       0.00000000
N        8.48509011       3.76093932       2.48781183       0.00000000       0.00000000       0.00000000
N        3.81430587       0.52549552       8.76881491       0.00000000       0.00000000       0.00000000
H        5.27040500       0.84464029       3.94157556       0.00000000       0.00000000       0.00000000
H        0.72488865       3.58322764      10.37466400       0.00000000       0.00000000       0.00000000
H        8.34260070       5.23877322       3.91013464       0.00000000       0.00000000       0.00000000
H        3.84650466       7.98137743      10.30098531       0.00000000       0.00000000       0.00000000
H        6.12383830       8.00693167       2.52682447       0.00000000       0.00000000       0.00000000
H        1.61282334       5.18058102       9.02119337       0.00000000       0.00000000       0.00000000
H        1.61128063       5.81857428       3.71583220       0.00000000       0.00000000       0.00000000
H        6.06183523       7.30492477      10.04797480       0.00000000       0.00000000       0.00000000
H        4.59584506       7.71160925       1.70770116       0.00000000       0.00000000       0.00000000
H        0.16997632       5.45338259       8.03048059       0.00000000       0.00000000       0.00000000
H        1.80477596       4.64652761       2.40802213       0.00000000       0.00000000       0.00000000
H        6.39691645       8.44148888       8.82278464       0.00000000       0.00000000       0.00000000
H        2.63844437       0.36049601       2.43952373       0.00000000       0.00000000       0.00000000
H        7.21476971       3.98823596       8.78042619       0.00000000       0.00000000       0.00000000
H        8.87580486       3.38741038       1.68361337       0.00000000       0.00000000       0.00000000
H        4.44387098       1.00633222       8.05886647       0.00000000       0.00000000       0.00000000
H        2.87912559       1.44418307       3.63872675       0.00000000       0.00000000       0.00000000
H        7.43566159       2.97252375      10.14077500       0.00000000       0.00000000       0.00000000
H        7.33931651       3.62308429       2.48221139       0.00000000       0.00000000       0.00000000
H        2.93291333       0.78906310       8.86819654       0.00000000       0.00000000       0.00000000
Pb       4.52558949       4.25762500      12.49571740       0.00000000       0.00000000       0.00000000
Pb       0.04368522       0.11993431       6.10876465       0.00000000       0.00000000       0.00000000
Pb       9.00124417       8.62938969      12.55300352       0.00000000       0.00000000       0.00000000
Pb       4.47542671       4.43940101       6.23889129       0.00000000       0.00000000       0.00000000
I        7.14719151       6.23443553       6.41981555       0.00000000       0.00000000       0.00000000
I        8.73503328       8.69478555       3.02065527       0.00000000       0.00000000       0.00000000
I        6.36608001       1.76629330      12.36463304       0.00000000       0.00000000       0.00000000
I        1.88194130       2.51498082       0.08158062       0.00000000       0.00000000       0.00000000
I        1.92941870       2.64779516       5.89623342       0.00000000       0.00000000       0.00000000
I        2.67442301       7.02148081       5.90423808       0.00000000       0.00000000       0.00000000
I        7.17514161       6.11015297      12.31446242       0.00000000       0.00000000       0.00000000
I        6.32774602       1.88128479       6.46475683       0.00000000       0.00000000       0.00000000
I        4.07756041       4.45721335       9.43307500       0.00000000       0.00000000       0.00000000
I        0.33159101       8.76762213       9.32732087       0.00000000       0.00000000       0.00000000
I        2.76481778       6.96353297       0.02155117       0.00000000       0.00000000       0.00000000
I        4.74787120       4.34677144       3.01933654       0.00000000       0.00000000       0.00000000
48
Lattice="9.01938999317578 0.0 0.0 0.0 8.777767844565316 0.0 0.0 0.0 12.796186806294449" Properties=species:S:1:pos:R:3:momenta:R:3 config_id=O-FAPI3_all_rattle_07 phase=O-FAPI3 mode=all_rattle seed=505649648 source=O-FAPI3/CONTCAR pbc="T T T"
C        4.55520731       0.35686853       3.15268325       0.00000000       0.00000000       0.00000000
C        0.10617482       3.99665955       9.58523256       0.00000000       0.00000000       0.00000000
C        8.94789259       4.73865679       3.16869737       0.00000000       0.00000000       0.00000000
C        4.44942539       8.40708092       9.56546066       0.00000000       0.00000000       0.00000000
N        5.18905295       8.19435598       2.42460203       0.00000000       0.00000000       0.00000000
N        0.57745196       4.88422078       8.76812750       0.00000000       0.00000000       0.00000000
N        1.19733555       5.14674141       3.04701144       0.00000000       0.00000000       0.00000000
N        5.67335891       8.02975206       9.46551595       0.00000000       0.00000000       0.00000000
N        3.35099942       0.71787498       3.13391208       0.00000000       0.00000000       0.00000000
N        7.84123295       3.62265551       9.44146963       0.00000000       0.00000000       0.00000000
N        8.40626904       3.82931520       2.45411971       0.00000000       0.00000000       0.00000000
N        3.85745987       0.55536445       8.81577917       0.00000000       0.00000000       0.00000000
H        5.25363016       0.82425122       3.89317557       0.00000000       0.00000000       0.00000000
H        0.65830487       3.62217672      10.33032025       0.00000000       0.00000000       0.00000000
H        8.35263537       5.24034034       3.91715859       0.00000000       0.00000000       0.00000000
H        3.79245179       7.90013172      10.32622851       0.00000000       0.00000000       0.00000000
H        6.16024085       8.04611701       2.52361218       0.00000000       0.00000000       0.00000000
H        1.64633070       5.14099739       8.98631601       0.00000000       0.00000000       0.00000000
H        1.59153231       5.74995859       3.81446386       0.00000000       0.00000000       0.00000000
H        6.06893310       7.35296678      10.16880493       0.00000000       0.00000000       0.00000000
H        4.66076429       7.74473498       1.66414093       0.00000000       0.00000000       0.00000000
H        0.10900729       5.43270890       8.06910913       0.00000000       0.00000000       0.00000000
H        1.84255454       4.68965922       2.41328316       0.00000000       0.00000000       0.00000000
H        6.36256605       8.41865862       8.83324650       0.00000000       0.00000000       0.00000000
H        2.64733694       0.33054473       2.40089078       0.00000000       0.00000000       0.00000000
H        7.13939802       4.07970276       8.82015588       0.00000000       0.00000000       0.00000000
H        8.89049623       3.33730748       1.71675450       0.00000000       0.00000000       0.00000000
H        4.34815047       1.02402675       8.06638407       0.00000000       0.00000000       0.00000000
H        2.93516051       1.46802611       3.74085404       0.00000000       0.00000000       0.00000000
H        7.46981067       2.94520764      10.05927012       0.00000000       0.00000000       0.00000000
H        7.42754638       3.65975511       2.52809519       0.00000000       0.00000000       0.00000000
H        2.81004737       0.70957721       8.96011521       0.00000000       0.00000000       0.00000000
Pb       4.55003079       4.27970427      12.57620409       0.00000000       0.00000000       0.00000000
Pb       8.97559757       0.15893634       6.12828115       0.00000000       0.00000000       0.00000000
Pb       8.99972198       8.64880919      12.57415287       0.00000000       0.00000000       0.00000000
Pb       4.52120614       4.52373727       6.15364177       0.00000000       0.00000000       0.00000000
I        7.18987631       6.21239742       6.47782570       0.00000000       0.00000000       0.00000000
I        8.66712775       8.75993935       2.97312532       0.00000000       0.00000000       0.00000000
I        6.33579755       1.75758408      12.31265616       0.00000000       0.00000000       0.00000000
I        1.83422619       2.55008332       0.02245461       0.00000000       0.00000000       0.00000000
I        1.87657166       2.69276184       5.92974792       0.00000000       0.00000000       0.00000000
I        2.61878284       7.00465668       5.89816876       0.00000000       0.00000000       0.00000000
I        7.16664566       6.09345088      12.25161211       0.00000000       0.00000000       0.00000000
I        6.36896852       1.86720151       6.46163621       0.00000000       0.00000000       0.00000000
I        4.18898320       4.42100244       9.41510941       0.00000000       0.00000000       0.00000000
I        0.37473754       0.02936612       9.34948240       0.00000000       0.00000000       0.00000000
I        2.63026350       6.91622592       0.07089460       0.00000000       0.00000000       0.00000000
I        4.90944594       4.35431361       2.93975786       0.00000000       0.00000000       0.00000000
48
Lattice="9.01938999317578 0.0 0.0 0.0 8.777767844565316 0.0 0.0 0.0 12.796186806294449" Properties=species:S:1:pos:R:3:momenta:R:3 config_id=O-FAPI3_all_rattle_08 phase=O-FAPI3 mode=all_rattle seed=1785881256 source=O-FAPI3/CONTCAR pbc="T T T"
C        4.63325906       0.44363676       3.22809091       0.00000000       0.00000000       0.00000000
C        0.16062957       4.04384043       9.52698457       0.00000000       0.00000000       0.00000000
C        8.92735347       4.69408664       3.24024170       0.00000000       0.00000000       0.00000000
C        4.43781761       8.40352707       9.73520746       0.00000000       0.00000000       0.00000000
N        5.22982937       8.13532750       2.46087217       0.00000000       0.00000000       0.00000000
N        0.60109792       4.99307888       8.78515692       0.00000000       0.00000000       0.00000000
N        1.20575087       5.18184397       3.07250364       0.00000000       0.00000000       0.00000000
N        5.52903153       8.05541067       9.47877064       0.00000000       0.00000000       0.00000000
N        3.22311296       0.84390171       3.10755988       0.00000000       0.00000000       0.00000000
N        7.72046632       3.70564736       9.46816755       0.00000000       0.00000000       0.00000000
N        8.40163185       3.79751238       2.38491609       0.00000000       0.00000000       0.00000000
N        3.80896548       0.55995987       8.83684364       0.00000000       0.00000000       0.00000000
H        5.23234968       0.80370704       3.88557792       0.00000000       0.00000000       0.00000000
H        0.69277911       3.62613778      10.28939126       0.00000000       0.00000000       0.00000000
H        8.36499881       5.13957860       4.01668685       0.00000000       0.00000000       0.00000000
H        3.75752267       7.96365164      10.34062530       0.00000000       0.00000000       0.00000000
H        6.06991120       8.02004433       2.57479927       0.00000000       0.00000000       0.00000000
H        1.66340458       5.14759284       8.89525487       0.00000000       0.00000000       0.00000000
H        1.59358505       5.79182606       3.64110616       0.00000000       0.00000000       0.00000000
H        6.09132350       7.40480450      10.14940090       0.00000000       0.00000000       0.00000000
H        4.65610955       7.83155654       1.67635458       0.00000000       0.00000000       0.00000000
H        0.09493996       5.45652633       8.12513606       0.00000000       0.00000000       0.00000000
H        1.76595766       4.69840377       2.36931653       0.00000000       0.00000000       0.00000000
H        6.40606821       8.39259113       8.78059973       0.00000000       0.00000000       0.00000000
H        2.72896954       0.24975676       2.47083710       0.00000000       0.00000000       0.00000000
H        7.19484997       4.12122136       8.82103081       0.00000000       0.00000000       0.00000000
H        8.81884855       3.29110264       1.77137140       0.00000000       0.00000000       0.00000000
H        4.34828255       1.14534995       8.07726577       0.00000000       0.00000000       0.00000000
H        3.07844069       1.50412707       3.79564110       0.00000000       0.00000000       0.00000000
H        7.40741556       3.07281271      10.12866349       0.00000000       0.00000000       0.00000000
H        7.37039324       3.85722858       2.50593209       0.00000000       0.00000000       0.00000000
H        2.90120874       0.76276493       8.88375737       0.00000000       0.00000000       0.00000000
Pb       4.49356994       4.24596090      12.58916950       0.00000000       0.00000000       0.00000000
Pb       8.96568674       0.15307319       6.20255927       0.00000000       0.00000000       0.00000000
Pb       0.07880549       8.57414906      12.47707691       0.00000000       0.00000000       0.00000000
Pb       4.35847797       4.49923063       6.08259831       0.00000000       0.00000000       0.00000000
I        7.13948555       6.15440769       6.43571235       0.00000000       0.00000000       0.00000000
I        8.58679750       8.77577892       2.98783684       0.00000000       0.00000000       0.00000000
I        6.46251479       1.76162162      12.33376955       0.00000000       0.00000000       0.00000000
I        1.78725177       2.52930620       0.11881722       0.00000000       0.00000000       0.00000000
I        1.83071901       2.68800927       5.90064052       0.00000000       0.00000000       0.00000000
I        2.72548751       6.99842788       5.98595511       0.00000000       0.00000000       0.00000000
I        7.24452907       6.04755259      12.39855255       0.00000000       0.00000000       0.00000000
I        6.24816848       1.95564531       6.48071649       0.00000000       0.00000000       0.00000000
I        4.19383952       4.46542434       9.33411226       0.00000000       0.00000000       0.00000000
I        0.34409791       0.11698058       9.44988866       0.00000000       0.00000000       0.00000000
I        2.68425787       6.88110393       0.05152465       0.00000000       0.00000000       0.00000000
I        4.78230134       4.32634365       2.95516867       0.00000000       0.00000000       0.00000000
48
Lattice="9.01938999317578 0.0 0.0 0.0 8.777767844565316 0.0 0.0 0.0 12.796186806294449" Properties=species:S:1:pos:R:3:momenta:R:3 config_id=O-FAPI3_all_rattle_09 phase=O-FAPI3 mode=all_rattle seed=3502927691 source=O-FAPI3/CONTCAR pbc="T T T"
C        4.60494799       0.37259341       3.20552797       0.00000000       0.00000000       0.00000000
C        0.05743613       3.98575888       9.55595796       0.00000000       0.00000000       0.00000000
C        8.95361122       4.73837656       3.24279237       0.00000000       0.00000000       0.00000000
C        4.47669315       8.41776747       9.57702232       0.00000000       0.00000000       0.00000000
N        5.19263849       8.21284993       2.45574840       0.00000000       0.00000000       0.00000000
N        0.65486520       4.93446674       8.79697683       0.00000000       0.00000000       0.00000000
N        1.17973208       5.13091828       3.07047803       0.00000000       0.00000000       0.00000000
N        5.75789169       7.97927758       9.48715292       0.00000000       0.00000000       0.00000000
N        3.33772450       0.70646398       3.09084441       0.00000000       0.00000000       0.00000000
N        7.80073891       3.58350817       9.41307181       0.00000000       0.00000000       0.00000000
N        8.38881337       3.77390971       2.39551569       0.00000000       0.00000000       0.00000000
N        3.92563043       0.57985374       8.80829876       0.00000000       0.00000000       0.00000000
H        5.16474963       0.85398101       3.90125871       0.00000000       0.00000000       0.00000000
H        0.71066168       3.54996784      10.42530638       0.00000000       0.00000000       0.00000000
H        8.36720521       5.26433817       3.91789110       0.00000000       0.00000000       0.00000000
H        3.83164126       7.96356432      10.34069760       0.00000000       0.00000000       0.00000000
H        6.15431788       7.97560674       2.53556920       0.00000000       0.00000000       0.00000000
H        1.63782426       5.15311963       8.90281954       0.00000000       0.00000000       0.00000000
H        1.58480840       5.87439423       3.64107269       0.00000000       0.00000000       0.00000000
H        6.13537907       7.29906376      10.16048968       0.00000000       0.00000000       0.00000000
H        4.58950997       7.68525124       1.66411548       0.00000000       0.00000000       0.00000000
H        0.18252278       5.40902033       8.03450301       0.00000000       0.00000000       0.00000000
H        1.78673862       4.70759378       2.44549237       0.00000000       0.00000000       0.00000000
H        6.32384456       8.47047934       8.82887145       0.00000000       0.00000000       0.00000000
H        2.61295396       0.31705425       2.43140806       0.00000000       0.00000000       0.00000000
H        7.16262133       4.01366156       8.85635761       0.00000000       0.00000000       0.00000000
H        8.87491069       3.27868947       1.76683363       0.00000000       0.00000000       0.00000000
H        4.34164366       1.08858366       8.07941775       0.00000000       0.00000000       0.00000000
H        2.94650751       1.41458203       3.74079072       0.00000000       0.00000000       0.00000000
H        7.38849926       2.97244809      10.18158714       0.00000000       0.00000000       0.00000000
H        7.32606461       3.65817260       2.48926495       0.00000000       0.00000000       0.00000000
H        2.91130369       0.76428320       8.96126717       0.00000000       0.00000000       0.00000000
Pb       4.44011158       4.34292373      12.51627054       0.00000000       0.00000000       0.00000000
Pb       0.08986419       0.12204160       6.12615572       0.00000000       0.00000000       0.00000000
Pb       9.00835796       8.63682053      12.53743722       0.00000000       0.00000000       0.00000000
Pb       4.52353471       4.43564518       6.22046610       0.00000000       0.00000000       0.00000000
I        7.22470999       6.24877489       6.35259665       0.00000000       0.00000000       0.00000000
I        8.64136526       8.70439297       3.01314614       0.00000000       0.00000000       0.00000000
I        6.38993286       1.64237132      12.30247227       0.00000000       0.00000000       0.00000000
I        1.84633370       2.58117126       0.12456220       0.00000000       0.00000000       0.00000000
I        1.87195602       2.71352392       5.96574444       0.00000000       0.00000000       0.00000000
I        2.61369358       7.05622409       6.02618975       0.00000000       0.00000000       0.00000000
I        7.12988720       6.13292606      12.38906780       0.00000000       0.00000000       0.00000000
I        6.36606090       1.89355768       6.44583507       0.00000000       0.00000000       0.00000000
I        4.10894524       4.46975039       9.45283849       0.00000000       0.00000000       0.00000000
I        0.40118193       0.09168456       9.41133045       0.00000000       0.00000000       0.00000000
I        2.61016428       6.90534336      12.78330074       0.00000000       0.00000000       0.00000000
I        4.91578111       4.32273086       2.97554612       0.00000000       0.00000000       0.00000000
48
Lattice="9.01938999317578 0.0 0.0 0.0 8.777767844565316 0.0 0.0 0.0 12.796186806294449" Properties=species:S:1:pos:R:3:momenta:R:3 config_id=O-FAPI3_all_rattle_10 phase=O-FAPI3 mode=all_rattle seed=1185326591 source=O-FAPI3/CONTCAR pbc="T T T"
C        4.54099606       0.37228221       3.16926056       0.00000000       0.00000000       0.00000000
C        0.05994814       4.03627451       9.56181495       0.00000000       0.00000000       0.00000000
C        8.97055266       4.70524564       3.18388287       0.00000000       0.00000000       0.00000000
C        4.48384447       8.40234987       9.51550956       0.00000000       0.00000000       0.00000000
N        5.09923654       8.22173102       2.43289326       0.00000000       0.00000000       0.00000000
N        0.63659521       4.96288826       8.80612942       0.00000000       0.00000000       0.00000000
N        1.17367975       5.17107956       3.08065219       0.00000000       0.00000000       0.00000000
N        5.70007458       8.04062141       9.46084466       0.00000000       0.00000000       0.00000000
N        3.33700663       0.70795460       3.00853598       0.00000000       0.00000000       0.00000000
N        7.84915986       3.68472614       9.42313669       0.00000000       0.00000000       0.00000000
N        8.38407077       3.84824633       2.42471174       0.00000000       0.00000000       0.00000000
N        3.87808962       0.55813847       8.83468320       0.00000000       0.00000000       0.00000000
H        5.22832789       0.83611683       3.92504931       0.00000000       0.00000000       0.00000000
H        0.68225466       3.53298584      10.30662764       0.00000000       0.00000000       0.00000000
H        8.32050002       5.26114180       3.92916606       0.00000000       0.00000000       0.00000000
H        3.86369492       7.93338271      10.33976738       0.00000000       0.00000000       0.00000000
H        6.16787004       7.99555837       2.53882068       0.00000000       0.00000000       0.00000000
H        1.64058428       5.10537173       8.89626627       0.00000000       0.00000000       0.00000000
H        1.55346123       5.82340655       3.75950753       0.00000000       0.00000000       0.00000000
H        6.10919514       7.40148392      10.07728523       0.00000000       0.00000000       0.00000000
H        4.66164236       7.71543765       1.72629606       0.00000000       0.00000000       0.00000000
H        0.13391827       5.43933594       8.06399671       0.00000000       0.00000000       0.00000000
H        1.84942764       4.66508126       2.38707824       0.00000000       0.00000000       0.00000000
H        6.30772501       8.44518571       8.78965742       0.00000000       0.00000000       0.00000000
H        2.69229172       0.27683094       2.40689968       0.00000000       0.00000000       0.00000000
H        7.21054044       4.09218650       8.78980704       0.00000000       0.00000000       0.00000000
H        8.90037447       3.34433815       1.67295546       0.00000000       0.00000000       0.00000000
H        4.38791720       1.05740731       8.09108109       0.00000000       0.00000000       0.00000000
H        2.93663393       1.43163969       3.75295621       0.00000000       0.00000000       0.00000000
H        7.48862029       2.95728248      10.13842722       0.00000000       0.00000000       0.00000000
H        7.37927299       3.67856269       2.55272192       0.00000000       0.00000000       0.00000000
H        2.84465582       0.75017978       8.93182091       0.00000000       0.00000000       0.00000000
Pb       4.55084132       4.32119244      12.54934885       0.00000000       0.00000000       0.00000000
Pb       8.98544834       0.11404451       6.17385837       0.00000000       0.00000000       0.00000000
Pb       9.00275716       8.68810641      12.57835576       0.00000000       0.00000000       0.00000000
Pb       4.50742676       4.49519999       6.18295491       0.00000000       0.00000000       0.00000000
I        7.15674229       6.23106051       6.42936178       0.00000000       0.00000000       0.00000000
I        8.67654837       8.73649153       2.96158622       0.00000000       0.00000000       0.00000000
I        6.38458011       1.74650040      12.28226183       0.00000000       0.00000000       0.00000000
I        1.79286669       2.52103490       0.06084778       0.00000000       0.00000000       0.00000000
I        1.91183961       2.64693340       5.96493778       0.00000000       0.00000000       0.00000000
I        2.64449941       7.05253670       5.89629596       0.00000000       0.00000000       0.00000000
I        7.15782732       6.08130069      12.27305555       0.00000000       0.00000000       0.00000000
I        6.34200967       1.85306698       6.44075849       0.00000000       0.00000000       0.00000000
I        4.15831761       4.43262612       9.33718279       0.00000000       0.00000000       0.00000000
I        0.32626624       0.02264362       9.37022936       0.00000000       0.00000000       0.00000000
I        2.61368230       6.91658663       0.09854471       0.00000000       0.00000000       0.00000000
I        4.88980010       4.34197575       2.96203328       0.00000000       0.00000000       0.00000000
48
Lattice="9.01938999317578 0.0 0.0 0.0 8.777767844565316 0.0 0.0 0.0 12.796186806294449" Properties=species:S:1:pos:R:3:momenta:R:3 config_id=O-FAPI3_all_rattle_11 phase=O-FAPI3 mode=all_rattle seed=642498790 source=O-FAPI3/CONTCAR pbc="T T T"
C        4.58528796       0.32410820       3.23904907       0.00000000       0.00000000       0.00000000
C        0.01938000       4.07982421       9.57656856       0.00000000       0.00000000       0.00000000
C        8.84289117       4.73765475       3.10855143       0.00000000       0.00000000       0.00000000
C        4.52948782       8.42832741       9.56633869       0.00000000       0.00000000       0.00000000
N        5.18393249       8.14036939       2.36429548       0.00000000       0.00000000       0.00000000
N        0.62277713       4.91013403       8.75939756       0.00000000       0.00000000       0.00000000
N        1.20178885       5.12562926       3.08747411       0.00000000       0.00000000       0.00000000
N        5.65304901       8.00229955       9.53448518       0.00000000       0.00000000       0.00000000
N        3.34608916       0.67864157       3.18704624       0.00000000       0.00000000       0.00000000
N        7.86518712       3.65935686       9.41276130       0.00000000       0.00000000       0.00000000
N        8.31540217       3.84121661       2.40353554       0.00000000       0.00000000       0.00000000
N        3.96437432       0.58776037       8.89035271       0.00000000       0.00000000       0.00000000
H        5.20574815       0.79169493       3.91552671       0.00000000       0.00000000       0.00000000
H        0.68366349       3.48750774      10.34614214       0.00000000       0.00000000       0.00000000
H        8.31892771       5.27151123       3.93283664       0.00000000       0.00000000       0.00000000
H        3.77776564       7.87005641      10.44332872       0.00000000       0.00000000       0.00000000
H        6.15360769       8.06213092       2.52566535       0.00000000       0.00000000       0.00000000
H        1.63891332       5.18770334       8.84237473       0.00000000       0.00000000       0.00000000
H        1.51034032       5.73142067       3.71484712       0.00000000       0.00000000       0.00000000
H        6.03267556       7.44368007      10.12488888       0.00000000       0.00000000       0.00000000
H        4.48581116       7.75265140       1.72561747       0.00000000       0.00000000       0.00000000
H        0.12872435       5.43832781       7.95916045       0.00000000       0.00000000       0.00000000
H        1.78982850       4.68406113       2.40808878       0.00000000       0.00000000       0.00000000
H        6.40527164       8.44477722       8.82791504       0.00000000       0.00000000       0.00000000
H        2.73677960       0.22780986       2.36145107       0.00000000       0.00000000       0.00000000
H        7.16605414       4.06653623       8.87953590       0.00000000       0.00000000       0.00000000
H        8.98826841       3.38289101       1.67655541       0.00000000       0.00000000       0.00000000
H        4.38634436       1.05360071       8.06814102       0.00000000       0.00000000       0.00000000
H        2.91332686       1.40237958       3.75074960       0.00000000       0.00000000       0.00000000
H        7.51292088       2.92524565      10.06215125       0.00000000       0.00000000       0.00000000
H        7.37053955       3.63141614       2.44259587       0.00000000       0.00000000       0.00000000
H        2.90083674       0.67588616       8.96326770       0.00000000       0.00000000       0.00000000
Pb       4.48264447       4.18361105      12.54598150       0.00000000       0.00000000       0.00000000
Pb       0.07572911       0.15708625       6.11576235       0.00000000       0.00000000       0.00000000
Pb       0.01165157       8.69543087      12.53339155       0.00000000       0.00000000       0.00000000
Pb       4.51072282       4.45752649       6.17779345       0.00000000       0.00000000       0.00000000
I        7.28270178       6.22238613       6.57206839       0.00000000       0.00000000       0.00000000
I        8.70593303       8.61383839       2.97179679       0.00000000       0.00000000       0.00000000
I        6.35302612       1.71983540      12.23619472       0.00000000       0.00000000       0.00000000
I        1.79705912       2.55913585      12.77546220       0.00000000       0.00000000       0.00000000
I        1.90135298       2.64717877       5.92527571       0.00000000       0.00000000       0.00000000
I        2.66625464       7.09093736       5.94638138       0.00000000       0.00000000       0.00000000
I        7.13116398       6.14424974      12.21916043       0.00000000       0.00000000       0.00000000
I        6.36094866       1.86107219       6.51634284       0.00000000       0.00000000       0.00000000
I        4.14611296       4.49599557       9.37695660       0.00000000       0.00000000       0.00000000
I        0.31226246       8.76988226       9.32459162       0.00000000       0.00000000       0.00000000
I        2.74274999       6.98922467       0.02041073       0.00000000       0.00000000       0.00000000
I        4.92843528       4.35856709       2.83671686       0.00000000       0.00000000       0.00000000
48
Lattice="9.01938999317578 0.0 0.0 0.0 8.777767844565316 0.0 0.0 0.0 12.796186806294449" Properties=species:S:1:pos:R:3:momenta:R:3 config_id=O-FAPI3_all_rattle_12 phase=O-FAPI3 mode=all_rattle seed=1398200938 source=O-FAPI3/CONTCAR pbc="T T T"
C        4.58692690       0.34662724       3.15987168       0.00000000       0.00000000       0.00000000
C        0.07591824       4.05249886       9.58770971       0.00000000       0.00000000       0.00000000
C        8.94979900       4.73935347       3.15614711       0.00000000       0.00000000       0.00000000
C        4.44875064       8.41772966       9.52433096       0.00000000       0.00000000       0.00000000
N        5.14180347       8.20523641       2.42611030       0.00000000       0.00000000       0.00000000
N        0.64061056       4.98725270       8.82515149       0.00000000       0.00000000       0.00000000
N        1.19154972       5.10500644       3.07075269       0.00000000       0.00000000       0.00000000
N        5.68488732       8.03642555       9.47451891       0.00000000       0.00000000       0.00000000
N        3.29441717       0.72697988       3.06037091       0.00000000       0.00000000       0.00000000
N        7.84882847       3.66779499       9.47960960       0.00000000       0.00000000       0.00000000
N        8.35592548       3.80043222       2.43631670       0.00000000       0.00000000       0.00000000
N        3.86919898       0.57079141       8.78429800       0.00000000       0.00000000       0.00000000
H        5.19512281       0.86270769       3.91941904       0.00000000       0.00000000       0.00000000
H        0.67751131       3.55875312      10.33159211       0.00000000       0.00000000       0.00000000
H        8.34340779       5.23651360       3.91140378       0.00000000       0.00000000       0.00000000
H        3.82946877       7.93189923      10.33015212       0.00000000       0.00000000       0.00000000
H        6.13825302       8.02949273       2.52851393       0.00000000       0.00000000       0.00000000
H        1.64265300       5.14667274       8.94094633       0.00000000       0.00000000       0.00000000
H        1.57693789       5.83894892       3.71404195       0.00000000       0.00000000       0.00000000
H        6.09148183       7.35725079      10.15384126       0.00000000       0.00000000       0.00000000
H        4.61534949       7.73084377       1.68262866       0.00000000       0.00000000       0.00000000
H        0.13857430       5.45303496       8.05088910       0.00000000       0.00000000       0.00000000
H        1.85839065       4.75522727       2.41543876       0.00000000       0.00000000       0.00000000
H        6.32802396       8.45217205       8.77826997       0.00000000       0.00000000       0.00000000
H        2.69449940       0.32945661       2.37741852       0.00000000       0.00000000       0.00000000
H        7.19063673       4.01063936       8.81612673       0.00000000       0.00000000       0.00000000
H        8.87538202       3.32544960       1.68015513       0.00000000       0.00000000       0.00000000
H        4.37177594       1.07205897       8.07067774       0.00000000       0.00000000       0.00000000
H        2.91163100       1.43285830       3.73087610       0.00000000       0.00000000       0.00000000
H        7.44678574       3.01469885      10.13448266       0.00000000       0.00000000       0.00000000
H        7.38569986       3.64314136       2.54970780       0.00000000       0.00000000       0.00000000
H        2.87211420       0.74450040       8.92507820       0.00000000       0.00000000       0.00000000
Pb       4.54867667       4.32682917      12.53814676       0.00000000       0.00000000       0.00000000
Pb       0.00873660       0.08055470       6.17042389       0.00000000       0.00000000       0.00000000
Pb       9.00626483       8.65915148      12.52880537       0.00000000       0.00000000       0.00000000
Pb       4.46840328       4.49160886       6.16485409       0.00000000       0.00000000       0.00000000
I        7.13918553       6.26934764       6.44784011       0.00000000       0.00000000       0.00000000
I        8.67029697       8.74218425       2.94785548       0.00000000       0.00000000       0.00000000
I        6.36759030       1.73853569      12.31470093       0.00000000       0.00000000       0.00000000
I        1.83693150       2.52001861       0.07451488       0.00000000       0.00000000       0.00000000
I        1.86006269       2.65746024       5.87447841       0.00000000       0.00000000       0.00000000
I        2.67328343       7.05676068       5.88709963       0.00000000       0.00000000       0.00000000
I        7.16015973       6.10344110      12.27932816       0.00000000       0.00000000       0.00000000
I        6.36683106       1.87236864       6.42005472       0.00000000       0.00000000       0.00000000
I        4.16658486       4.41096482       9.36459057       0.00000000       0.00000000       0.00000000
I        0.37499042       0.04080566       9.34956746       0.00000000       0.00000000       0.00000000
I        2.67544407       6.93281217       0.05204269       0.00000000       0.00000000       0.00000000
I        4.87424392       4.32013148       2.95204722       0.00000000       0.00000000       0.00000000
48
Lattice="9.01938999317578 0.0 0.0 0.0 8.777767844565316 0.0 0.0 0.0 12.796186806294449" Properties=species:S:1:pos:R:3:momenta:R:3 config_id=O-FAPI3_all_rattle_13 phase=O-FAPI3 mode=all_rattle seed=1058797482 source=O-FAPI3/CONTCAR pbc="T T T"
C        4.53094707       0.22279522       3.18216075       0.00000000       0.00000000       0.00000000
C        0.00979582       4.00473569       9.52259648       0.00000000       0.00000000       0.00000000
C        8.92255196       4.85967329       3.12302263       0.00000000       0.00000000       0.00000000
C        4.33158096       8.31814031       9.55426438       0.00000000       0.00000000       0.00000000
N        5.04811661       8.16775898       2.43964334       0.00000000       0.00000000       0.00000000
N        0.63207915       4.89151198       8.90773911       0.00000000       0.00000000       0.00000000
N        1.07847399       5.16544600       3.14829420       0.00000000       0.00000000       0.00000000
N        5.68416841       7.97742191       9.38693461       0.00000000       0.00000000       0.00000000
N        3.23257366       0.74675532       3.02141544       0.00000000       0.00000000       0.00000000
N        7.83634277       3.73533543       9.49053501       0.00000000       0.00000000       0.00000000
N        8.34161800       3.71053929       2.40124200       0.00000000       0.00000000       0.00000000
N        3.87237515       0.60332860       8.89923386       0.00000000       0.00000000       0.00000000
H        5.03859081       0.82336661       3.98154861       0.00000000       0.00000000       0.00000000
H        0.66811207       3.56955160      10.38086215       0.00000000       0.00000000       0.00000000
H        8.40896317       5.25499928       3.84922320       0.00000000       0.00000000       0.00000000
H        3.67602061       7.95335431      10.31924608       0.00000000       0.00000000       0.00000000
H        6.15135583       7.97533785       2.67888942       0.00000000       0.00000000       0.00000000
H        1.60028548       5.17949718       8.90352361       0.00000000       0.00000000       0.00000000
H        1.44131381       5.73636868       3.81426703       0.00000000       0.00000000       0.00000000
H        6.04020812       7.40812826      10.08867950       0.00000000       0.00000000       0.00000000
H        4.67574923       7.69693405       1.57435110       0.00000000       0.00000000       0.00000000
H        0.10114435       5.41212008       8.11511825       0.00000000       0.00000000       0.00000000
H        1.83260340       4.76647516       2.33872084       0.00000000       0.00000000       0.00000000
H        6.37113967       8.39395055       8.81514894       0.00000000       0.00000000       0.00000000
H        2.57363113       0.31294454       2.41868792       0.00000000       0.00000000       0.00000000
H        7.21371291       4.02816623       8.80019216       0.00000000       0.00000000       0.00000000
H        8.79352528       3.31477496       1.72546954       0.00000000       0.00000000       0.00000000
H        4.36968065       0.93499645       8.10975186       0.00000000       0.00000000       0.00000000
H        2.99253250       1.51768964       3.73781735       0.00000000       0.00000000       0.00000000
H        7.47633442       2.98417780      10.13454786       0.00000000       0.00000000       0.00000000
H        7.38497594       3.61143997       2.46156036       0.00000000       0.00000000       0.00000000
H        2.81779807       0.73328774       8.86477805       0.00000000       0.00000000       0.00000000
Pb       4.58179128       4.17347994      12.58479289       0.00000000       0.00000000       0.00000000
Pb       9.00291467       0.19416326       6.10557952       0.00000000       0.00000000       0.00000000
Pb       8.97792874       8.74393305      12.54105494       0.00000000       0.00000000       0.00000000
Pb       4.53041605       4.47247039       6.10494578       0.00000000       0.00000000       0.00000000
I        7.12365433       6.20295057       6.43882145       0.00000000       0.00000000       0.00000000
I        8.56139575       8.75683292       2.87382034       0.00000000       0.00000000       0.00000000
I        6.36535911       1.83805513      12.30843626       0.00000000       0.00000000       0.00000000
I        1.87794806       2.52283795       0.12922521       0.00000000       0.00000000       0.00000000
I        1.99853962       2.68587832       5.94250361       0.00000000       0.00000000       0.00000000
I        2.75133756       7.17530826       5.95480112       0.00000000       0.00000000       0.00000000
I        7.09086835       6.06788438      12.30256658       0.00000000       0.00000000       0.00000000
I        6.26672411       1.75604007       6.52110685       0.00000000       0.00000000       0.00000000
I        4.19673095       4.38167688       9.38475440       0.00000000       0.00000000       0.00000000
I        0.31630669       0.10682172       9.26457917       0.00000000       0.00000000       0.00000000
I        2.57010781       7.05444762      12.73341927       0.00000000       0.00000000       0.00000000
I        4.93886500       4.28829189       2.95576083       0.00000000       0.00000000       0.00000000
48
Lattice="9.01938999317578 0.0 0.0 0.0 8.777767844565316 0.0 0.0 0.0 12.796186806294449" Properties=species:S:1:pos:R:3:momenta:R:3 config_id=O-FAPI3_all_rattle_14 phase=O-FAPI3 mode=all_rattle seed=200719959 source=O-FAPI3/CONTCAR pbc="T T T"
C        4.61329801       0.33226771       3.23527675       0.00000000       0.00000000       0.00000000
C        0.03397713       4.10690162       9.58146151       0.00000000       0.00000000       0.00000000
C        8.94439467       4.66688099       3.15481239       0.00000000       0.00000000       0.00000000
C        4.45969051       8.56005743       9.59529663       0.00000000       0.00000000       0.00000000
N        5.24555250       8.22596294       2.32220154       0.00000000       0.00000000       0.00000000
N        0.75133876       4.94992557       8.74517057       0.00000000       0.00000000       0.00000000
N        1.12481255       5.13312780       3.03201662       0.00000000       0.00000000       0.00000000
N        5.65821039       7.99326596       9.45470280       0.00000000       0.00000000       0.00000000
N        3.33463384       0.77119220       3.01950191       0.00000000       0.00000000       0.00000000
N        7.84215964       3.55628884       9.44216812       0.00000000       0.00000000       0.00000000
N        8.39194669       3.86670178       2.38987150       0.00000000       0.00000000       0.00000000
N        3.88108273       0.56256081       8.78228928       0.00000000       0.00000000       0.00000000
H        5.24144246       0.86933072       3.95941363       0.00000000       0.00000000       0.00000000
H        0.64977133       3.41763478      10.26032358       0.00000000       0.00000000       0.00000000
H        8.38863164       5.25752517       3.88033759       0.00000000       0.00000000       0.00000000
H        3.96226344       7.92580561      10.35926886       0.00000000       0.00000000       0.00000000
H        6.03920469       8.02617735       2.52163779       0.00000000       0.00000000       0.00000000
H        1.65689190       5.15465671       8.87984434       0.00000000       0.00000000       0.00000000
H        1.47135629       5.76349324       3.72079822       0.00000000       0.00000000       0.00000000
H        6.10637327       7.34793595      10.14508099       0.00000000       0.00000000       0.00000000
H        4.64336343       7.76906840       1.68579611       0.00000000       0.00000000       0.00000000
H        0.03876089       5.44081123       8.08603892       0.00000000       0.00000000       0.00000000
H        1.75143435       4.69045059       2.36022834       0.00000000       0.00000000       0.00000000
H        6.38893827       8.49001540       8.73975124       0.00000000       0.00000000       0.00000000
H        2.67668333       0.34171614       2.36225451       0.00000000       0.00000000       0.00000000
H        7.16720503       3.98796683       8.79246806       0.00000000       0.00000000       0.00000000
H        8.90540598       3.35172460       1.74954351       0.00000000       0.00000000       0.00000000
H        4.43996119       1.01997605       8.05854623       0.00000000       0.00000000       0.00000000
H        2.98575220       1.41805434       3.68979587       0.00000000       0.00000000       0.00000000
H        7.42328209       2.99797593      10.12265457       0.00000000       0.00000000       0.00000000
H        7.34453240       3.71161290       2.50847470       0.00000000       0.00000000       0.00000000
H        2.91245156       0.78442964       8.88369311       0.00000000       0.00000000       0.00000000
Pb       4.44312779       4.23205340      12.56035494       0.00000000       0.00000000       0.00000000
Pb       0.08918103       0.02326415       6.18816325       0.00000000       0.00000000       0.00000000
Pb       8.89575092       8.70927958      12.51243999       0.00000000       0.00000000       0.00000000
Pb       4.50948245       4.47805994       6.18908342       0.00000000       0.00000000       0.00000000
I        7.09168498       6.18538849       6.40807116       0.00000000       0.00000000       0.00000000
I        8.65384398       8.70228666       2.92344161       0.00000000       0.00000000       0.00000000
I        6.29917275       1.70010747      12.35820743       0.00000000       0.00000000       0.00000000
I        1.81699769       2.46628922       0.03792295       0.00000000       0.00000000       0.00000000
I        1.84770502       2.64332951       5.81503939       0.00000000       0.00000000       0.00000000
I        2.66737099       7.04899785       5.94632286       0.00000000       0.00000000       0.00000000
I        7.25600391       6.18991031      12.41348920       0.00000000       0.00000000       0.00000000
I        6.39953343       1.77765169       6.48205076       0.00000000       0.00000000       0.00000000
I        4.07937655       4.39759303       9.32746549       0.00000000       0.00000000       0.00000000
I        0.34505393       0.10108292       9.46010875       0.00000000       0.00000000       0.00000000
I        2.57258969       6.94089599       0.09366243       0.00000000       0.00000000       0.00000000
I        4.75685909       4.29856595       3.01332440       0.00000000       0.00000000       0.00000000
48
Lattice="9.01938999317578 0.0 0.0 0.0 8.777767844565316 0.0 0.0 0.0 12.796186806294449" Properties=species:S:1:pos:R:3:momenta:R:3 config_id=O-FAPI3_all_rattle_15 phase=O-FAPI3 mode=all_rattle seed=600379232 source=O-FAPI3/CONTCAR pbc="T T T"
C        4.61620778       0.34488998       3.16926389       0.00000000       0.00000000       0.00000000
C        0.08073078       4.06380893       9.60726356       0.00000000       0.00000000       0.00000000
C        8.97886061       4.75279018       3.15717296       0.00000000       0.00000000       0.00000000
C        4.45650979       8.42595107       9.53276227       0.00000000       0.00000000       0.00000000
N        5.16594172       8.16773112       2.38278739       0.00000000       0.00000000       0.00000000
N        0.66460338       5.02877482       8.84040424       0.00000000       0.00000000       0.00000000
N        1.12049102       5.11191555       3.07609246       0.00000000       0.00000000       0.00000000
N        5.70074874       7.98197538       9.47403689       0.00000000       0.00000000       0.00000000
N        3.28899612       0.79241126       3.07285297       0.00000000       0.00000000       0.00000000
N        7.86845974       3.66858584       9.53114420       0.00000000       0.00000000       0.00000000
N        8.38801757       3.91462477       2.37792140       0.00000000       0.00000000       0.00000000
N        3.84225116       0.60815711       8.79858469       0.00000000       0.00000000       0.00000000
H        5.18937410       0.77829630       3.90384893       0.00000000       0.00000000       0.00000000
H        0.74386155       3.49675981      10.31256210       0.00000000       0.00000000       0.00000000
H        8.32970553       5.24657725       3.86541370       0.00000000       0.00000000       0.00000000
H        3.78578766       8.00102034      10.37359321       0.00000000       0.00000000       0.00000000
H        6.10495250       8.03866462       2.51836892       0.00000000       0.00000000       0.00000000
H        1.66065462       5.09121434       8.90540400       0.00000000       0.00000000       0.00000000
H        1.52108771       5.78131828       3.71384313       0.00000000       0.00000000       0.00000000
H        6.06243636       7.36266924      10.14427796       0.00000000       0.00000000       0.00000000
H        4.60935391       7.73592202       1.68541556       0.00000000       0.00000000       0.00000000
H        0.10257424       5.42250160       8.14325547       0.00000000       0.00000000       0.00000000
H        1.74430648       4.71322300       2.42371663       0.00000000       0.00000000       0.00000000
H        6.28548390       8.48409240       8.77402164       0.00000000       0.00000000       0.00000000
H        2.67437635       0.26904423       2.40556162       0.00000000       0.00000000       0.00000000
H        7.18010742       4.05812106       8.77636243       0.00000000       0.00000000       0.00000000
H        8.95755845       3.28847893       1.68759219       0.00000000       0.00000000       0.00000000
H        4.45304589       1.06114379       8.10714121       0.00000000       0.00000000       0.00000000
H        2.95341265       1.40873409       3.75215962       0.00000000       0.00000000       0.00000000
H        7.49089223       3.07667127      10.06847948       0.00000000       0.00000000       0.00000000
H        7.34688895       3.63966045       2.56916026       0.00000000       0.00000000       0.00000000
H        2.88232663       0.75460475       8.90941873       0.00000000       0.00000000       0.00000000
Pb       4.51443430       4.27480839      12.51694360       0.00000000       0.00000000       0.00000000
Pb       0.04497954       0.10616276       6.17993999       0.00000000       0.00000000       0.00000000
Pb       8.96851632       8.65998276      12.58817243       0.00000000       0.00000000       0.00000000
Pb       4.43078733       4.50834635       6.24970836       0.00000000       0.00000000       0.00000000
I        7.26623958       6.20551056       6.35594174       0.00000000       0.00000000       0.00000000
I        8.62803136       8.73071511       2.93535884       0.00000000       0.00000000       0.00000000
I        6.35429830       1.70086983      12.24616425       0.00000000       0.00000000       0.00000000
I        1.82241452       2.57557165       0.08575224       0.00000000       0.00000000       0.00000000
I        1.79270991       2.69782827       5.90798239       0.00000000       0.00000000       0.00000000
I        2.64631606       7.05432709       5.82183859       0.00000000       0.00000000       0.00000000
I        7.17682309       6.12260050      12.30652694       0.00000000       0.00000000       0.00000000
I        6.34895525       1.84174122       6.43280705       0.00000000       0.00000000       0.00000000
I        4.13550292       4.44476082       9.39319545       0.00000000       0.00000000       0.00000000
I        0.29058240       0.04595058       9.42966138       0.00000000       0.00000000       0.00000000
I        2.61235462       6.92526984       0.08856943       0.00000000       0.00000000       0.00000000
I        4.95963881       4.25692097       3.01114213       0.00000000       0.00000000       0.00000000
48
Lattice="9.01938999317578 0.0 0.0 0.0 8.777767844565316 0.0 0.0 0.0 12.796186806294449" Properties=species:S:1:pos:R:3:momenta:R:3 config_id=O-FAPI3_all_rattle_16 phase=O-FAPI3 mode=all_rattle seed=2685357719 source=O-FAPI3/CONTCAR pbc="T T T"
C        4.57504058       0.39060767       3.24108559       0.00000000       0.00000000       0.00000000
C        0.10717001       4.08551601       9.60204648       0.00000000       0.00000000       0.00000000
C        8.91529045       4.70744549       3.10368915       0.00000000       0.00000000       0.00000000
C        4.38510883       8.46558299       9.54618444       0.00000000       0.00000000       0.00000000
N        5.13001264       8.30774724       2.45349941       0.00000000       0.00000000       0.00000000
N        0.58510296       4.98335939       8.75538470       0.00000000       0.00000000       0.00000000
N        1.13043714       5.07195363       3.11864169       0.00000000       0.00000000       0.00000000
N        5.61883774       7.96531203       9.51719462       0.00000000       0.00000000       0.00000000
N        3.34963529       0.65205891       3.09896284       0.00000000       0.00000000       0.00000000
N        7.73217707       3.59020216       9.57574296       0.00000000       0.00000000       0.00000000
N        8.32448444       3.84717008       2.41820377       0.00000000       0.00000000       0.00000000
N        3.80866528       0.54749966       8.74812090       0.00000000       0.00000000       0.00000000
H        5.23895780       0.81231452       4.00312507       0.00000000       0.00000000       0.00000000
H        0.74954793       3.54852394      10.43326177       0.00000000       0.00000000       0.00000000
H        8.24145393       5.32525698       3.90404814       0.00000000       0.00000000       0.00000000
H        3.93691513       7.96573314      10.34177355       0.00000000       0.00000000       0.00000000
H        6.19332287       8.08040117       2.56411320       0.00000000       0.00000000       0.00000000
H        1.63768463       5.16447294       8.94787409       0.00000000       0.00000000       0.00000000
H        1.54424947       5.74723141       3.73791659       0.00000000       0.00000000       0.00000000
H        6.07559139       7.35459288      10.19578235       0.00000000       0.00000000       0.00000000
H        4.68254017       7.68295397       1.67214126       0.00000000       0.00000000       0.00000000
H        0.14783728       5.46667259       8.05614300       0.00000000       0.00000000       0.00000000
H        1.84166515       4.71408242       2.34689593       0.00000000       0.00000000       0.00000000
H        6.30381785       8.42382101       8.78770555       0.00000000       0.00000000       0.00000000
H        2.66873613       0.28163813       2.42342939       0.00000000       0.00000000       0.00000000
H        7.22136376       4.02833927       8.75586285       0.00000000       0.00000000       0.00000000
H        8.87104694       3.31828318       1.70783800       0.00000000       0.00000000       0.00000000
H        4.34891183       0.90992972       8.11249851       0.00000000       0.00000000       0.00000000
H        2.92597382       1.48371938       3.72458394       0.00000000       0.00000000       0.00000000
H        7.52184101       2.99557072      10.12294904       0.00000000       0.00000000       0.00000000
H        7.47468510       3.75787685       2.60056596       0.00000000       0.00000000       0.00000000
H        2.97019840       0.75845467       8.92573837       0.00000000       0.00000000       0.00000000
Pb       4.57176746       4.24111411      12.55934888       0.00000000       0.00000000       0.00000000
Pb       0.02191338       8.77406799       6.11610631       0.00000000       0.00000000       0.00000000
Pb       8.87942970       8.66456049      12.58558495       0.00000000       0.00000000       0.00000000
Pb       4.51136128       4.45611380       6.11549973       0.00000000       0.00000000       0.00000000
I        7.15372962       6.23678166       6.51879797       0.00000000       0.00000000       0.00000000
I        8.70395812       0.02697518       2.88305166       0.00000000       0.00000000       0.00000000
I        6.40971246       1.71835804      12.26199843       0.00000000       0.00000000       0.00000000
I        1.83218815       2.46054552       0.13666100       0.00000000       0.00000000       0.00000000
I        1.86085970       2.66850077       6.02077324       0.00000000       0.00000000       0.00000000
I        2.67313966       7.09503633       5.89422441       0.00000000       0.00000000       0.00000000
I        7.14431183       6.03750436      12.35273559       0.00000000       0.00000000       0.00000000
I        6.32795921       1.83040540       6.34611532       0.00000000       0.00000000       0.00000000
I        4.12921149       4.46102191       9.34529043       0.00000000       0.00000000       0.00000000
I        0.32996674       0.02323263       9.36464512       0.00000000       0.00000000       0.00000000
I        2.73454426       6.89066045       0.11638835       0.00000000       0.00000000       0.00000000
I        4.82848397       4.27310010       2.99062418       0.00000000       0.00000000       0.00000000
48
Lattice="9.01938999317578 0.0 0.0 0.0 8.777767844565316 0.0 0.0 0.0 12.796186806294449" Properties=species:S:1:pos:R:3:momenta:R:3 config_id=O-FAPI3_all_rattle_17 phase=O-FAPI3 mode=all_rattle seed=2992568113 source=O-FAPI3/CONTCAR pbc="T T T"
C        4.54230936       0.27929509       3.14442717       0.00000000       0.00000000       0.00000000
C        0.01951829       4.12523387       9.58489835       0.00000000       0.00000000       0.00000000
C        8.93136880       4.70925762       3.23263021       0.00000000       0.00000000       0.00000000
C        4.49534208       8.40781117       9.53939476       0.00000000       0.00000000       0.00000000
N        5.07961015       8.21243487       2.49217609       0.00000000       0.00000000       0.00000000
N        0.61606692       4.93359150       8.86294565       0.00000000       0.00000000       0.00000000
N        1.19503979       5.15356861       3.09532944       0.00000000       0.00000000       0.00000000
N        5.68434406       8.11792319       9.51929755       0.00000000       0.00000000       0.00000000
N        3.36184315       0.85959884       3.01945991       0.00000000       0.00000000       0.00000000
N        7.79187157       3.58334095       9.45662243       0.00000000       0.00000000       0.00000000
N        8.32803579       3.83165478       2.40976903       0.00000000       0.00000000       0.00000000
N        3.90175295       0.50433045       8.67897995       0.00000000       0.00000000       0.00000000
H        5.24106483       0.91017407       3.90221578       0.00000000       0.00000000       0.00000000
H        0.64024698       3.61669325      10.35814892       0.00000000       0.00000000       0.00000000
H        8.37989505       5.22389689       4.05476256       0.00000000       0.00000000       0.00000000
H        3.79757403       7.96469095      10.37470660       0.00000000       0.00000000       0.00000000
H        6.11838413       7.99971010       2.54495524       0.00000000       0.00000000       0.00000000
H        1.70401093       5.13251187       8.88621628       0.00000000       0.00000000       0.00000000
H        1.55833923       5.75233360       3.67582510       0.00000000       0.00000000       0.00000000
H        6.04042553       7.49779897      10.10753023       0.00000000       0.00000000       0.00000000
H        4.61749741       7.85047043       1.70398661       0.00000000       0.00000000       0.00000000
H        0.11456194       5.49750417       8.08421062       0.00000000       0.00000000       0.00000000
H        1.77584400       4.73169193       2.35113562       0.00000000       0.00000000       0.00000000
H        6.29597385       8.46788898       8.71667108       0.00000000       0.00000000       0.00000000
H        2.61336220       0.36776514       2.40914420       0.00000000       0.00000000       0.00000000
H        7.18673878       4.09127704       8.79491870       0.00000000       0.00000000       0.00000000
H        8.90119014       3.30343116       1.72837522       0.00000000       0.00000000       0.00000000
H        4.40994820       1.14677695       8.07648740       0.00000000       0.00000000       0.00000000
H        2.87561609       1.44377717       3.65861918       0.00000000       0.00000000       0.00000000
H        7.40965802       2.92520257      10.08784668       0.00000000       0.00000000       0.00000000
H        7.39965673       3.68078798       2.48766203       0.00000000       0.00000000       0.00000000
H        2.91430097       0.69782432       8.95865814       0.00000000       0.00000000       0.00000000
Pb       4.54782191       4.33015960      12.64128068       0.00000000       0.00000000       0.00000000
Pb       0.07498786       8.76722243       6.11133549       0.00000000       0.00000000       0.00000000
Pb       8.93262758       8.71547146      12.61673818       0.00000000       0.00000000       0.00000000
Pb       4.44246133       4.53336172       6.12803452       0.00000000       0.00000000       0.00000000
I        7.14509187       6.23641296       6.39396793       0.00000000       0.00000000       0.00000000
I        8.67905467       8.74188813       2.94566937       0.00000000       0.00000000       0.00000000
I        6.38042072       1.73049119      12.27460955       0.00000000       0.00000000       0.00000000
I        1.81116928       2.55101031       0.03315085       0.00000000       0.00000000       0.00000000
I        1.81489747       2.62882137       5.89946797       0.00000000       0.00000000       0.00000000
I        2.66431563       7.01581447       5.99320910       0.00000000       0.00000000       0.00000000
I        7.11140064       6.01820170      12.19525090       0.00000000       0.00000000       0.00000000
I        6.43332420       1.85336814       6.42588707       0.00000000       0.00000000       0.00000000
I        4.18605233       4.36377098       9.37153405       0.00000000       0.00000000       0.00000000
I        0.36144671       0.10455161       9.31133516       0.00000000       0.00000000       0.00000000
I        2.62660407       6.93313307       0.13393298       0.00000000       0.00000000       0.00000000
I        4.73658414       4.29327603       2.96942490       0.00000000       0.00000000       0.00000000
48
Lattice="8.934964798641698 -0.0395866456891463 0.0187401385368518 -0.0385261515321213 8.658251682150471 0.0161257510992727 0.0265874203992544 0.0235080406672934 12.681357149653095" Properties=species:S:1:pos:R:3:momenta:R:3 config_id=O-FAPI3_strain_rattle_01 phase=O-FAPI3 mode=strain_rattle seed=2022465068 source=O-FAPI3/CONTCAR pbc="T T T"
C        4.54357117       0.33806836       3.15001124       0.00000000       0.00000000       0.00000000
C        0.07325507       3.99402936       9.48807008       0.00000000       0.00000000       0.00000000
C        8.84964299       4.64803064       3.16714613       0.00000000       0.00000000       0.00000000
C        4.37932708       8.30399164       9.50520495       0.00000000       0.00000000       0.00000000
N        5.06724890       8.08111443       2.43175084       0.00000000       0.00000000       0.00000000
N        0.62734847       4.90155472       8.75707882       0.00000000       0.00000000       0.00000000
N        1.15466561       5.05600244       3.05487569       0.00000000       0.00000000       0.00000000
N        5.62264335       7.92424332       9.41028137       0.00000000       0.00000000       0.00000000
N        3.29984883       0.71745769       3.05127173       0.00000000       0.00000000       0.00000000
N        7.76782652       3.58569854       9.40667741       0.00000000       0.00000000       0.00000000
N        8.29247246       3.73778441       2.43041222       0.00000000       0.00000000       0.00000000
N        3.85257216       0.55822473       8.75574014       0.00000000       0.00000000       0.00000000
H        5.15381522       0.81907061       3.90597530       0.00000000       0.00000000       0.00000000
H        0.68779137       3.51040943      10.24223766       0.00000000       0.00000000       0.00000000
H        8.23826751       5.13444528       3.92054800       0.00000000       0.00000000       0.00000000
H        3.77224379       7.82578419      10.25681038       0.00000000       0.00000000       0.00000000
H        6.06025800       7.90287567       2.54024448       0.00000000       0.00000000       0.00000000
H        1.61880874       5.07139894       8.86622066       0.00000000       0.00000000       0.00000000
H        1.52571613       5.73041484       3.71158563       0.00000000       0.00000000       0.00000000
H        5.99969957       7.24895574      10.06447751       0.00000000       0.00000000       0.00000000
H        4.55963564       7.60190653       1.69521362       0.00000000       0.00000000       0.00000000
H        0.11546274       5.38254249       8.02232985       0.00000000       0.00000000       0.00000000
H        1.79603003       4.64460908       2.39131161       0.00000000       0.00000000       0.00000000
H        6.26038296       8.32749485       8.74823448       0.00000000       0.00000000       0.00000000
H        2.65932434       0.31174368       2.38501907       0.00000000       0.00000000       0.00000000
H        7.12367709       3.99462962       8.74194193       0.00000000       0.00000000       0.00000000
H        8.80127798       3.25407324       1.69600683       0.00000000       0.00000000       0.00000000
H        4.35710512       1.03470920       8.02312298       0.00000000       0.00000000       0.00000000
H        2.92553775       1.39517246       3.70641833       0.00000000       0.00000000       0.00000000
H        7.39952113       2.91371326      10.05931017       0.00000000       0.00000000       0.00000000
H        7.30145976       3.56833592       2.53474464       0.00000000       0.00000000       0.00000000
H        2.86001059       0.73685924       8.86072074       0.00000000       0.00000000       0.00000000
Pb       4.49925827       4.22107021      12.45473439       0.00000000       0.00000000       0.00000000
Pb       0.02332584       0.04172851       6.05770385       0.00000000       0.00000000       0.00000000
Pb       0.00412027       8.60549274      12.50614233       0.00000000       0.00000000       0.00000000
Pb       4.42747213       4.46828970       6.13103742       0.00000000       0.00000000       0.00000000
I        7.07506672       6.13564216       6.38717331       0.00000000       0.00000000       0.00000000
I        8.58732157       8.56990528       3.00085323       0.00000000       0.00000000       0.00000000
I        6.35870657       1.68311405      12.22364722       0.00000000       0.00000000       0.00000000
I        1.79905448       2.44495463       0.01914786       0.00000000       0.00000000       0.00000000
I        1.82093335       2.63881342       5.85945880       0.00000000       0.00000000       0.00000000
I        2.67944793       6.97084635       5.86397494       0.00000000       0.00000000       0.00000000
I        7.10772390       6.03678721      12.19868041       0.00000000       0.00000000       0.00000000
I        6.30828538       1.82029619       6.38767639       0.00000000       0.00000000       0.00000000
I        4.13963867       4.36198057       9.34193231       0.00000000       0.00000000       0.00000000
I        0.35923005       0.08170576       9.31082617       0.00000000       0.00000000       0.00000000
I        2.63636801       6.82166096       0.02485477       0.00000000       0.00000000       0.00000000
I        4.77298823       4.26503253       2.93750660       0.00000000       0.00000000       0.00000000
48
Lattice="8.890386809396396 -0.042134314448819 -0.0367902938629898 -0.0410055703103512 8.805288205915193 0.0806690056440661 -0.0521959326834168 0.1175988798038905 12.55397929530005" Properties=species:S:1:pos:R:3:momenta:R:3 config_id=O-FAPI3_strain_rattle_02 phase=O-FAPI3 mode=strain_rattle seed=441987521 source=O-FAPI3/CONTCAR pbc="T T T"
C        4.50132034       0.36605444       3.09289289       0.00000000       0.00000000       0.00000000
C        0.01286365       4.13188536       9.42204634       0.00000000       0.00000000       0.00000000
C        8.78457266       4.74830169       3.11541762       0.00000000       0.00000000       0.00000000
C        4.29611615       8.51413260       9.44457106       0.00000000       0.00000000       0.00000000
N        5.02454641       8.23505544       2.43627477       0.00000000       0.00000000       0.00000000
N        0.56846285       5.04928318       8.70174173       0.00000000       0.00000000       0.00000000
N        1.12847190       5.16410109       3.05472066       0.00000000       0.00000000       0.00000000
N        5.53394529       8.12695924       9.34011353       0.00000000       0.00000000       0.00000000
N        3.26428826       0.75143190       3.00563257       0.00000000       0.00000000       0.00000000
N        7.66976162       3.71429003       9.29102544       0.00000000       0.00000000       0.00000000
N        8.23501462       3.81729303       2.38273962       0.00000000       0.00000000       0.00000000
N        3.77893118       0.63152080       8.64820651       0.00000000       0.00000000       0.00000000
H        5.10369593       0.86066605       3.84108480       0.00000000       0.00000000       0.00000000
H        0.61980773       3.64549334      10.16125097       0.00000000       0.00000000       0.00000000
H        8.17142357       5.24867400       3.86863967       0.00000000       0.00000000       0.00000000
H        3.68753550       8.03350139      10.18880585       0.00000000       0.00000000       0.00000000
H        6.01199294       8.05437016       2.53623359       0.00000000       0.00000000       0.00000000
H        1.55426087       5.22259211       8.80494354       0.00000000       0.00000000       0.00000000
H        1.49340263       5.85472511       3.70756925       0.00000000       0.00000000       0.00000000
H        5.90526824       7.44496235       9.98038694       0.00000000       0.00000000       0.00000000
H        4.52416976       7.74238903       1.70669561       0.00000000       0.00000000       0.00000000
H        0.06353876       5.53311872       7.98110862       0.00000000       0.00000000       0.00000000
H        1.77088123       4.74067999       2.39080779       0.00000000       0.00000000       0.00000000
H        6.17249654       8.53201753       8.68379064       0.00000000       0.00000000       0.00000000
H        2.63120425       0.33405566       2.34699800       0.00000000       0.00000000       0.00000000
H        7.03281938       4.12539338       8.63998086       0.00000000       0.00000000       0.00000000
H        8.74598567       3.31983353       1.64897528       0.00000000       0.00000000       0.00000000
H        4.28535471       1.11056322       7.92338822       0.00000000       0.00000000       0.00000000
H        2.88757613       1.44557082       3.66155021       0.00000000       0.00000000       0.00000000
H        7.29944168       3.03580796       9.93436785       0.00000000       0.00000000       0.00000000
H        7.24833795       3.64596373       2.49086783       0.00000000       0.00000000       0.00000000
H        2.79060597       0.81418573       8.75957770       0.00000000       0.00000000       0.00000000
Pb       4.40277872       4.41694394      12.33259984       0.00000000       0.00000000       0.00000000
Pb      -0.02224942       0.17346317       6.04494990       0.00000000       0.00000000       0.00000000
Pb       8.79836492       8.79008610      12.32771717       0.00000000       0.00000000       0.00000000
Pb       4.38440504       4.55690266       6.06953066       0.00000000       0.00000000       0.00000000
I        7.03274317       6.27718450       6.34117908       0.00000000       0.00000000       0.00000000
I        8.45764841       8.76392180       2.95998117       0.00000000       0.00000000       0.00000000
I        6.19405718       1.80152713      12.02625096       0.00000000       0.00000000       0.00000000
I        1.81176579       2.56412416       0.06941323       0.00000000       0.00000000       0.00000000
I        1.82392379       2.72763897       5.82100047       0.00000000       0.00000000       0.00000000
I        2.56832015       7.13023908       5.86551899       0.00000000       0.00000000       0.00000000
I        7.00858616       6.22405201      12.07984473       0.00000000       0.00000000       0.00000000
I        6.19505250       1.88449464       6.30209019       0.00000000       0.00000000       0.00000000
I        4.04467763       4.48005207       9.22922954       0.00000000       0.00000000       0.00000000
I        0.32668686       0.13959480       9.18587512       0.00000000       0.00000000       0.00000000
I        2.59940495       6.94819049       0.07789089       0.00000000       0.00000000       0.00000000
I        4.76463730       4.35694383       2.93501707       0.00000000       0.00000000       0.00000000
48
Lattice="9.055115773885678 -0.0883953764209784 0.0280413119283551 -0.0860273359222054 8.95232989763729 -0.0832901571096647 0.0397833851291823 -0.1214199815230659 12.815101885001619" Properties=species:S:1:pos:R:3:momenta:R:3 config_id=O-FAPI3_strain_rattle_03 phase=O-FAPI3 mode=strain_rattle seed=169275482 source=O-FAPI3/CONTCAR pbc="T T T"
C        4.60593655       0.28936014       3.18380446       0.00000000       0.00000000       0.00000000
C        0.06225856       4.02036500       9.54246879       0.00000000       0.00000000       0.00000000
C        8.94642177       4.72273368       3.15573401       0.00000000       0.00000000       0.00000000
C        4.40274397       8.45373853       9.51439831       0.00000000       0.00000000       0.00000000
N        5.09387569       8.30085934       2.36943554       0.00000000       0.00000000       0.00000000
N        0.61811463       4.96417448       8.79385593       0.00000000       0.00000000       0.00000000
N        1.14584001       5.18654221       3.03013880       0.00000000       0.00000000       0.00000000
N        5.66471127       8.05560779       9.42404137       0.00000000       0.00000000       0.00000000
N        3.34336166       0.68934515       3.07845584       0.00000000       0.00000000       0.00000000
N        7.86223288       3.55841072       9.47235841       0.00000000       0.00000000       0.00000000
N        8.38596128       3.79297712       2.42114224       0.00000000       0.00000000       0.00000000
N        3.91020036       0.45629228       8.84556257       0.00000000       0.00000000       0.00000000
H        5.22253263       0.77479291       3.94281620       0.00000000       0.00000000       0.00000000
H        0.68843904       3.50841211      10.31076005       0.00000000       0.00000000       0.00000000
H        8.32497086       5.22025212       3.91091188       0.00000000       0.00000000       0.00000000
H        3.79087740       7.95387142      10.27885574       0.00000000       0.00000000       0.00000000
H        6.10129053       8.11007039       2.48208594       0.00000000       0.00000000       0.00000000
H        1.62207099       5.13329117       8.90315776       0.00000000       0.00000000       0.00000000
H        1.51888092       5.87435824       3.68639245       0.00000000       0.00000000       0.00000000
H        6.05116266       7.34788119      10.09327877       0.00000000       0.00000000       0.00000000
H        4.58129793       7.81651612       1.63013461       0.00000000       0.00000000       0.00000000
H        0.09599655       5.47264005       8.04531806       0.00000000       0.00000000       0.00000000
H        1.79736695       4.76540303       2.36491440       0.00000000       0.00000000       0.00000000
H        6.30814407       8.47678299       8.75098022       0.00000000       0.00000000       0.00000000
H        2.69576178       0.28088786       2.40920844       0.00000000       0.00000000       0.00000000
H        7.20653872       3.99226800       8.79527426       0.00000000       0.00000000       0.00000000
H        8.90347039       3.29857828       1.68503121       0.00000000       0.00000000       0.00000000
H        4.41816904       0.95470221       8.10021459       0.00000000       0.00000000       0.00000000
H        2.96101789       1.38453522       3.73237025       0.00000000       0.00000000       0.00000000
H        7.49329957       2.85805806      10.13925652       0.00000000       0.00000000       0.00000000
H        7.38267463       3.62181649       2.52756609       0.00000000       0.00000000       0.00000000
H        2.90345518       0.64503732       8.94863783       0.00000000       0.00000000       0.00000000
Pb       4.52934394       4.19970604      12.57548649       0.00000000       0.00000000       0.00000000
Pb       0.04620791       0.07304656       6.13384693       0.00000000       0.00000000       0.00000000
Pb      -0.03967620       8.70783044      12.53101083       0.00000000       0.00000000       0.00000000
Pb       4.49513003       4.48379054       6.13072725       0.00000000       0.00000000       0.00000000
I        7.13269181       6.26739659       6.42314488       0.00000000       0.00000000       0.00000000
I        8.63942902       8.80198795       2.91366140       0.00000000       0.00000000       0.00000000
I        6.43601472       1.56899679      12.29544298       0.00000000       0.00000000       0.00000000
I        1.83689252       2.58048258      -0.00617126       0.00000000       0.00000000       0.00000000
I        1.86108395       2.70733318       5.96222299       0.00000000       0.00000000       0.00000000
I        2.60918591       7.08142953       5.89589613       0.00000000       0.00000000       0.00000000
I        7.15597390       6.05174993      12.29561721       0.00000000       0.00000000       0.00000000
I        6.38024640       1.70434351       6.43188543       0.00000000       0.00000000       0.00000000
I        4.16443163       4.42645733       9.32233106       0.00000000       0.00000000       0.00000000
I        0.40574865      -0.07061437       9.37436381       0.00000000       0.00000000       0.00000000
I        2.59839411       7.01881806      -0.03260043       0.00000000       0.00000000       0.00000000
I        4.86774410       4.31082085       2.94870215       0.00000000       0.00000000       0.00000000
48
Lattice="9.055884708433235 0.0531484776795731 0.0045512983979874 0.0517246730340228 8.6614972972257 -0.0118320705777413 0.0064571178933276 -0.0172487343136763 12.923343182607558" Properties=species:S:1:pos:R:3:momenta:R:3 config_id=O-FAPI3_strain_rattle_04 phase=O-FAPI3 mode=strain_rattle seed=2271020152 source=O-FAPI3/CONTCAR pbc="T T T"
C        4.60368169       0.37521451       3.20158063       0.00000000       0.00000000       0.00000000
C        0.10062019       3.96578820       9.65602353       0.00000000       0.00000000       0.00000000
C        9.01341514       4.73169183       3.19786792       0.00000000       0.00000000       0.00000000
C        4.51035384       8.32226552       9.65231080       0.00000000       0.00000000       0.00000000
N        5.21684982       8.12933207       2.44341285       0.00000000       0.00000000       0.00000000
N        0.67295274       4.88182270       8.90719706       0.00000000       0.00000000       0.00000000
N        1.21837715       5.06026903       3.09475861       0.00000000       0.00000000       0.00000000
N        5.76673111       7.95557727       9.55477528       0.00000000       0.00000000       0.00000000
N        3.34720576       0.74216618       3.10175758       0.00000000       0.00000000       0.00000000
N        7.89555967       3.63747441       9.56177424       0.00000000       0.00000000       0.00000000
N        8.44033532       3.81765360       2.45096204       0.00000000       0.00000000       0.00000000
N        3.89643837       0.57014426       8.91474619       0.00000000       0.00000000       0.00000000
H        5.22602293       0.86031450       3.96940105       0.00000000       0.00000000       0.00000000
H        0.71719878       3.48590441      10.42516228       0.00000000       0.00000000       0.00000000
H        8.39760427       5.20952513       3.96506610       0.00000000       0.00000000       0.00000000
H        3.88878025       7.83511514      10.42082735       0.00000000       0.00000000       0.00000000
H        6.22130056       7.96098102       2.55292991       0.00000000       0.00000000       0.00000000
H        1.67948295       5.06168511       9.01623834       0.00000000       0.00000000       0.00000000
H        1.60046648       5.73669836       3.76119007       0.00000000       0.00000000       0.00000000
H        6.14075731       7.28180069      10.22305117       0.00000000       0.00000000       0.00000000
H        4.69852047       7.64703042       1.69521571       0.00000000       0.00000000       0.00000000
H        0.16035969       5.36007665       8.15768765       0.00000000       0.00000000       0.00000000
H        1.86522416       4.65750980       2.41881865       0.00000000       0.00000000       0.00000000
H        6.41844491       8.36776832       8.87772197       0.00000000       0.00000000       0.00000000
H        2.69481562       0.33178170       2.42516468       0.00000000       0.00000000       0.00000000
H        7.24803619       4.04204039       8.88406800       0.00000000       0.00000000       0.00000000
H        8.95218029       3.34139798       1.70328264       0.00000000       0.00000000       0.00000000
H        4.41401954       1.05444422       8.16575450       0.00000000       0.00000000       0.00000000
H        2.97384626       1.41416185       3.76780934       0.00000000       0.00000000       0.00000000
H        7.51413703       2.95926408      10.22967039       0.00000000       0.00000000       0.00000000
H        7.43391381       3.63750084       2.55946854       0.00000000       0.00000000       0.00000000
H        2.89209630       0.73820498       9.02277689       0.00000000       0.00000000       0.00000000
Pb       4.58812550       4.23505683      12.67779003       0.00000000       0.00000000       0.00000000
Pb       0.03483352       0.10520057       6.22492571       0.00000000       0.00000000       0.00000000
Pb       9.10765249       8.59765452      12.68221020       0.00000000       0.00000000       0.00000000
Pb       4.56531955       4.49034427       6.22028133       0.00000000       0.00000000       0.00000000
I        7.25473632       6.20716908       6.49135459       0.00000000       0.00000000       0.00000000
I        8.76750003       8.65912062       2.99887985       0.00000000       0.00000000       0.00000000
I        6.41263147       1.72804546      12.40972641       0.00000000       0.00000000       0.00000000
I        1.87807363       2.52595832       0.00981364       0.00000000       0.00000000       0.00000000
I        1.87362653       2.62831108       5.99224293       0.00000000       0.00000000       0.00000000
I        2.75460930       7.00184351       5.97063722       0.00000000       0.00000000       0.00000000
I        7.23060089       6.03045136      12.45220076       0.00000000       0.00000000       0.00000000
I        6.37932938       1.86848414       6.49438952       0.00000000       0.00000000       0.00000000
I        4.20391318       4.40263745       9.48435930       0.00000000       0.00000000       0.00000000
I        0.34880733       0.04905657       9.43381778       0.00000000       0.00000000       0.00000000
I        2.70190679       6.83051422       0.01600465       0.00000000       0.00000000       0.00000000
I        4.89386847       4.28313350       3.01515938       0.00000000       0.00000000       0.00000000
48
Lattice="8.963556209069928 -0.0559264992569637 0.0291874796626195 -0.0544282736646617 8.746717510503595 0.0478729146681882 0.0414095013576735 0.0697888996272794 13.019018663183557" Properties=species:S:1:pos:R:3:momenta:R:3 config_id=O-FAPI3_strain_rattle_05 phase=O-FAPI3 mode=strain_rattle seed=1128934061 source=O-FAPI3/CONTCAR pbc="T T T"
C        4.56111703       0.34482755       3.24021317       0.00000000       0.00000000       0.00000000
C        0.07725950       4.06913141       9.75516872       0.00000000       0.00000000       0.00000000
C        8.87307863       4.69111278       3.27827911       0.00000000       0.00000000       0.00000000
C        4.38922129       8.41541663       9.79323463       0.00000000       0.00000000       0.00000000
N        5.07149971       8.16332578       2.53147238       0.00000000       0.00000000       0.00000000
N        0.63061227       4.98226689       9.00863331       0.00000000       0.00000000       0.00000000
N        1.15268350       5.11662202       3.15580667       0.00000000       0.00000000       0.00000000
N        5.63708528       8.02922184       9.69581323       0.00000000       0.00000000       0.00000000
N        3.31262061       0.72995657       3.13881490       0.00000000       0.00000000       0.00000000
N        7.79702234       3.64255637       9.67882145       0.00000000       0.00000000       0.00000000
N        8.31493323       3.76989994       2.51800880       0.00000000       0.00000000       0.00000000
N        3.87404592       0.58884107       8.99516967       0.00000000       0.00000000       0.00000000
H        5.17331083       0.83239176       4.01873064       0.00000000       0.00000000       0.00000000
H        0.69551722       3.58221739      10.52835274       0.00000000       0.00000000       0.00000000
H        8.25974378       5.18632340       4.05280600       0.00000000       0.00000000       0.00000000
H        3.78195030       7.93614914      10.56242811       0.00000000       0.00000000       0.00000000
H        6.06812760       7.98188415       2.64332984       0.00000000       0.00000000       0.00000000
H        1.62505203       5.15246477       9.12241527       0.00000000       0.00000000       0.00000000
H        1.52445230       5.79963741       3.83285852       0.00000000       0.00000000       0.00000000
H        6.01733871       7.34874667      10.36540234       0.00000000       0.00000000       0.00000000
H        4.56228339       7.67746101       1.77302127       0.00000000       0.00000000       0.00000000
H        0.11535995       5.46640860       8.25549117       0.00000000       0.00000000       0.00000000
H        1.79607074       4.69747088       2.47381445       0.00000000       0.00000000       0.00000000
H        6.27535151       8.43303924       9.01832523       0.00000000       0.00000000       0.00000000
H        2.67001697       0.31882904       2.45263522       0.00000000       0.00000000       0.00000000
H        7.14929756       4.05439757       8.99714601       0.00000000       0.00000000       0.00000000
H        8.82538819       3.27767311       1.76287798       0.00000000       0.00000000       0.00000000
H        4.37846478       1.06662071       8.24534781       0.00000000       0.00000000       0.00000000
H        2.93664270       1.41763741       3.81343188       0.00000000       0.00000000       0.00000000
H        7.42952904       2.96674657      10.34597565       0.00000000       0.00000000       0.00000000
H        7.32119055       3.60087686       2.62338520       0.00000000       0.00000000       0.00000000
H        2.87811508       0.77145754       9.10247055       0.00000000       0.00000000       0.00000000
Pb       4.54990303       4.31499268      12.79387522       0.00000000       0.00000000       0.00000000
Pb       0.05199992       0.17654929       6.23640324       0.00000000       0.00000000       0.00000000
Pb       8.91588987       8.69676143      12.84484434       0.00000000       0.00000000       0.00000000
Pb       4.46163187       4.51680854       6.26667388       0.00000000       0.00000000       0.00000000
I        7.09292222       6.18153713       6.65763047       0.00000000       0.00000000       0.00000000
I        8.61640608       8.59950401       3.13644228       0.00000000       0.00000000       0.00000000
I        6.34404364       1.75654583      12.51976665       0.00000000       0.00000000       0.00000000
I        1.76166207       2.58243514       0.07754686       0.00000000       0.00000000       0.00000000
I        1.83085811       2.67440291       6.07623825       0.00000000       0.00000000       0.00000000
I        2.60312033       6.99858890       6.07247427       0.00000000       0.00000000       0.00000000
I        7.15392298       6.06427326      12.57971465       0.00000000       0.00000000       0.00000000
I        6.32333170       1.83656107       6.54994687       0.00000000       0.00000000       0.00000000
I        4.09239507       4.40706912       9.53011614       0.00000000       0.00000000       0.00000000
I        0.47128104       0.09038907       9.59610437       0.00000000       0.00000000       0.00000000
I        2.59241294       6.88099088       0.10821319       0.00000000       0.00000000       0.00000000
I        4.78103656       4.35818426       3.05672087       0.00000000       0.00000000       0.00000000
48
Lattice="8.86486558552366 -0.0295391793364695 -0.0071192927983849 -0.0287478486605737 8.825264940257528 -0.0594130755242664 -0.0101004392365524 -0.0866120893839432 12.98225133300595" Properties=species:S:1:pos:R:3:momenta:R:3 config_id=O-FAPI3_strain_rattle_06 phase=O-FAPI3 mode=strain_rattle seed=1824129788 source=O-FAPI3/CONTCAR pbc="T T T"
C        4.49927818       0.32270363       3.20830148       0.00000000       0.00000000       0.00000000
C        0.04976103       3.98849392       9.67811597       0.00000000       0.00000000       0.00000000
C        8.77630476       4.72103643       3.17514864       0.00000000       0.00000000       0.00000000
C        4.32678780       8.38682672       9.64496311       0.00000000       0.00000000       0.00000000
N        5.02943703       8.22218515       2.40342104       0.00000000       0.00000000       0.00000000
N        0.60261577       4.92060102       8.92014110       0.00000000       0.00000000       0.00000000
N        1.14238622       5.12841365       3.07958238       0.00000000       0.00000000       0.00000000
N        5.56021878       8.00210017       9.54741137       0.00000000       0.00000000       0.00000000
N        3.26600140       0.70875289       3.10759503       0.00000000       0.00000000       0.00000000
N        7.68383391       3.58243939       9.57542401       0.00000000       0.00000000       0.00000000
N        8.22461909       3.79895364       2.43057320       0.00000000       0.00000000       0.00000000
N        3.79779796       0.49736954       8.94729320       0.00000000       0.00000000       0.00000000
H        5.10309409       0.80715070       3.97617509       0.00000000       0.00000000       0.00000000
H        0.65677978       3.48971174      10.45260893       0.00000000       0.00000000       0.00000000
H        8.16808535       5.20952215       3.94399566       0.00000000       0.00000000       0.00000000
H        3.72177117       7.89208329      10.42042952       0.00000000       0.00000000       0.00000000
H        6.01415796       8.04077788       2.51309462       0.00000000       0.00000000       0.00000000
H        1.58618099       5.09399107       9.02742604       0.00000000       0.00000000       0.00000000
H        1.50938102       5.81057772       3.74485957       0.00000000       0.00000000       0.00000000
H        5.93169499       7.30852925      10.22195020       0.00000000       0.00000000       0.00000000
H        4.52739389       7.73952371       1.65511377       0.00000000       0.00000000       0.00000000
H        0.09738457       5.41665694       8.16524485       0.00000000       0.00000000       0.00000000
H        1.78018352       4.71565122       2.40195851       0.00000000       0.00000000       0.00000000
H        6.19531130       8.41969672       8.86419731       0.00000000       0.00000000       0.00000000
H        2.63196684       0.30022831       2.43099260       0.00000000       0.00000000       0.00000000
H        7.04709445       4.00427399       8.89323140       0.00000000       0.00000000       0.00000000
H        8.73102043       3.31293190       1.68145604       0.00000000       0.00000000       0.00000000
H        4.30101114       0.99006513       8.19158705       0.00000000       0.00000000       0.00000000
H        2.89348233       1.39338117       3.77346609       0.00000000       0.00000000       0.00000000
H        7.31579624       2.89133259      10.25055667       0.00000000       0.00000000       0.00000000
H        7.24088385       3.62410558       2.54182769       0.00000000       0.00000000       0.00000000
H        2.81290697       0.67731883       9.05615902       0.00000000       0.00000000       0.00000000
Pb       4.42861452       4.20490941      12.70377297       0.00000000       0.00000000       0.00000000
Pb       0.00373698       0.00102122       6.25413955       0.00000000       0.00000000       0.00000000
Pb       8.81398481       8.61731394      12.66001123       0.00000000       0.00000000       0.00000000
Pb       4.37276728       4.46018474       6.22115497       0.00000000       0.00000000       0.00000000
I        7.01934767       6.20458783       6.48299011       0.00000000       0.00000000       0.00000000
I        8.46911543       8.74249528       2.94353556       0.00000000       0.00000000       0.00000000
I        6.21815940       1.61718167      12.45954614       0.00000000       0.00000000       0.00000000
I        1.79072435       2.52879767       0.00826212       0.00000000       0.00000000       0.00000000
I        1.80463432       2.62413949       5.96944384       0.00000000       0.00000000       0.00000000
I        2.61281965       7.04347370       5.94132902       0.00000000       0.00000000       0.00000000
I        7.00635402       6.01235037      12.42537298       0.00000000       0.00000000       0.00000000
I        6.24659668       1.78768210       6.50380159       0.00000000       0.00000000       0.00000000
I        4.07612504       4.36719826       9.49610778       0.00000000       0.00000000       0.00000000
I        0.33837042      -0.03114023       9.49930488       0.00000000       0.00000000       0.00000000
I        2.56393407       6.96695891      -0.01964302       0.00000000       0.00000000       0.00000000
I        4.77942257       4.31207229       2.97432074       0.00000000       0.00000000       0.00000000
48
Lattice="8.888269815937083 -0.080081938832808 -0.0517592781979835 -0.0779366085898187 8.653606834973917 0.0615014255788044 -0.0734330584752941 0.0896564758256908 12.700125426436673" Properties=species:S:1:pos:R:3:momenta:R:3 config_id=O-FAPI3_strain_rattle_07 phase=O-FAPI3 mode=strain_rattle seed=3850387983 source=O-FAPI3/CONTCAR pbc="T T T"
C        4.49348386       0.33368756       3.12069427       0.00000000       0.00000000       0.00000000
C       -0.01999252       4.04102605       9.52238158       0.00000000       0.00000000       0.00000000
C        8.75724584       4.62172402       3.12638887       0.00000000       0.00000000       0.00000000
C        4.24376964       8.32906251       9.52807616       0.00000000       0.00000000       0.00000000
N        4.98476262       8.06621310       2.43753111       0.00000000       0.00000000       0.00000000
N        0.53281569       4.94169790       8.79066435       0.00000000       0.00000000       0.00000000
N        1.10153445       5.06385698       3.07663634       0.00000000       0.00000000       0.00000000
N        5.48306226       7.94338140       9.42125030       0.00000000       0.00000000       0.00000000
N        3.25531263       0.71799949       3.03357043       0.00000000       0.00000000       0.00000000
N        7.63684040       3.59752390       9.37818438       0.00000000       0.00000000       0.00000000
N        8.21293674       3.71067536       2.38820871       0.00000000       0.00000000       0.00000000
N        3.76098995       0.58616019       8.74134189       0.00000000       0.00000000       0.00000000
H        5.09239513       0.81559463       3.87548213       0.00000000       0.00000000       0.00000000
H        0.58760174       3.55882843      10.27031762       0.00000000       0.00000000       0.00000000
H        8.14092188       5.11458013       3.88825347       0.00000000       0.00000000       0.00000000
H        3.63612862       7.85781402      10.28308898       0.00000000       0.00000000       0.00000000
H        5.97253771       7.88412845       2.53744336       0.00000000       0.00000000       0.00000000
H        1.51745756       5.10750949       8.89304902       0.00000000       0.00000000       0.00000000
H        1.46240200       5.73963316       3.73491134       0.00000000       0.00000000       0.00000000
H        5.85607906       7.27018168      10.06993807       0.00000000       0.00000000       0.00000000
H        4.48778437       7.58573437       1.70140058       0.00000000       0.00000000       0.00000000
H        0.02719437       5.42089973       8.06135420       0.00000000       0.00000000       0.00000000
H        1.74664156       4.64631289       2.40489742       0.00000000       0.00000000       0.00000000
H        6.12083648       8.34004518       8.75529790       0.00000000       0.00000000       0.00000000
H        2.62523011       0.31194457       2.36925739       0.00000000       0.00000000       0.00000000
H        6.99942485       4.00567703       8.71965788       0.00000000       0.00000000       0.00000000
H        8.72706538       3.22108673       1.64619017       0.00000000       0.00000000       0.00000000
H        4.26647542       1.05625209       8.00614372       0.00000000       0.00000000       0.00000000
H        2.87471392       1.40045620       3.69616321       0.00000000       0.00000000       0.00000000
H        7.26839092       2.93100461      10.03118989       0.00000000       0.00000000       0.00000000
H        7.22705873       3.54637302       2.49961425       0.00000000       0.00000000       0.00000000
H        2.77197867       0.76975411       8.85521982       0.00000000       0.00000000       0.00000000
Pb       4.36618927       4.28839492      12.44952889       0.00000000       0.00000000       0.00000000
Pb      -0.01803789       0.05677448       6.13933536       0.00000000       0.00000000       0.00000000
Pb       8.71910071       8.52826081      12.49057778       0.00000000       0.00000000       0.00000000
Pb       4.30445983       4.43870520       6.15039362       0.00000000       0.00000000       0.00000000
I        6.97706932       6.18952800       6.41349355       0.00000000       0.00000000       0.00000000
I        8.46136007       8.51880905       2.93182448       0.00000000       0.00000000       0.00000000
I        6.23755065       1.73129912      12.16538069       0.00000000       0.00000000       0.00000000
I        1.81739845       2.48372936       0.02129795       0.00000000       0.00000000       0.00000000
I        1.67867483       2.66662323       5.86614935       0.00000000       0.00000000       0.00000000
I        2.54681556       7.03581195       5.82810894       0.00000000       0.00000000       0.00000000
I        6.95875019       6.06602095      12.22220420       0.00000000       0.00000000       0.00000000
I        6.18771948       1.85164508       6.32121073       0.00000000       0.00000000       0.00000000
I        4.02523420       4.43386687       9.21151893       0.00000000       0.00000000       0.00000000
I        0.12937733       8.69221407       9.33557557       0.00000000       0.00000000       0.00000000
I        2.41033036       6.88097949      12.72806752       0.00000000       0.00000000       0.00000000
I        4.72052514       4.29395429       3.01033055       0.00000000       0.00000000       0.00000000
48
Lattice="8.930968929981336 -0.05042321411063861 -0.03115764366855029 -0.04907241706754854 8.848925596365149 -0.052954652713925555 -0.04420465565059159 -0.07719703236505397 12.647171415805513" Properties=species:S:1:pos:R:3:momenta:R:3 config_id=O-FAPI3_strain_rattle_08 phase=O-FAPI3 mode=strain_rattle seed=2874504269 source=O-FAPI3/CONTCAR pbc="T T T"
C        4.52358453       0.31538950       3.11338994       0.00000000       0.00000000       0.00000000
C        0.01545557       4.00623388       9.43038719       0.00000000       0.00000000       0.00000000
C        8.82244885       4.71544286       3.07182956       0.00000000       0.00000000       0.00000000
C        4.31432008       8.40628723       9.38882679       0.00000000       0.00000000       0.00000000
N        5.04167248       8.23418814       2.33217322       0.00000000       0.00000000       0.00000000
N        0.57228527       4.93897847       8.69097725       0.00000000       0.00000000       0.00000000
N        1.13099687       5.14175181       2.99979822       0.00000000       0.00000000       0.00000000
N        5.55807715       8.01756394       9.29021356       0.00000000       0.00000000       0.00000000
N        3.28050247       0.70529172       3.01886215       0.00000000       0.00000000       0.00000000
N        7.70758271       3.58110383       9.30927749       0.00000000       0.00000000       0.00000000
N        8.27073541       3.79163288       2.34747095       0.00000000       0.00000000       0.00000000
N        3.80134832       0.49642325       8.70627491       0.00000000       0.00000000       0.00000000
H        5.12876002       0.80028657       3.86006273       0.00000000       0.00000000       0.00000000
H        0.62609828       3.50526564      10.18295980       0.00000000       0.00000000       0.00000000
H        8.20655114       5.20723391       3.82276237       0.00000000       0.00000000       0.00000000
H        3.70388953       7.91221308      10.14565946       0.00000000       0.00000000       0.00000000
H        6.03385408       8.05006584       2.43622779       0.00000000       0.00000000       0.00000000
H        1.56249405       5.11060471       8.79290281       0.00000000       0.00000000       0.00000000
H        1.49740409       5.82537503       3.64727774       0.00000000       0.00000000       0.00000000
H        5.93213410       7.32176380       9.94594795       0.00000000       0.00000000       0.00000000
H        4.53897197       7.75085720       1.60428485       0.00000000       0.00000000       0.00000000
H        0.06414271       5.43698885       7.95721614       0.00000000       0.00000000       0.00000000
H        1.77627832       4.72588509       2.33769498       0.00000000       0.00000000       0.00000000
H        6.19874151       8.43428240       8.62312781       0.00000000       0.00000000       0.00000000
H        2.64446830       0.29665906       2.36122910       0.00000000       0.00000000       0.00000000
H        7.06693132       4.00505655       8.64666193       0.00000000       0.00000000       0.00000000
H        8.78399913       3.30256594       1.61603816       0.00000000       0.00000000       0.00000000
H        4.30916990       0.98869759       7.96896937       0.00000000       0.00000000       0.00000000
H        2.90188144       1.39312132       3.66894084       0.00000000       0.00000000       0.00000000
H        7.33661138       2.88950998       9.96761100       0.00000000       0.00000000       0.00000000
H        7.27978250       3.61870713       2.45844417       0.00000000       0.00000000       0.00000000
H        2.80842256       0.67924605       8.81511911       0.00000000       0.00000000       0.00000000
Pb       4.39598330       4.19192355      12.35976695       0.00000000       0.00000000       0.00000000
Pb      -0.00885833       0.06842861       6.06988190       0.00000000       0.00000000       0.00000000
Pb       8.83175725       8.64494074      12.33880661       0.00000000       0.00000000       0.00000000
Pb       4.40820075       4.49002098       6.03872655       0.00000000       0.00000000       0.00000000
I        7.07511912       6.21649655       6.31078210       0.00000000       0.00000000       0.00000000
I        8.48388410       8.70429037       2.86511089       0.00000000       0.00000000       0.00000000
I        6.21558376       1.60088749      12.11306708       0.00000000       0.00000000       0.00000000
I        1.78936642       2.55183073       0.00487268       0.00000000       0.00000000       0.00000000
I        1.82439010       2.64572512       5.78436250       0.00000000       0.00000000       0.00000000
I        2.54549272       7.04999401       5.81851746       0.00000000       0.00000000       0.00000000
I        7.02250655       6.01194129      12.12956830       0.00000000       0.00000000       0.00000000
I        6.26191785       1.77243206       6.30270523       0.00000000       0.00000000       0.00000000
I        4.05989879       4.39112926       9.19963672       0.00000000       0.00000000       0.00000000
I        0.35662504       0.00106485       9.25511517       0.00000000       0.00000000       0.00000000
I        2.63191631       6.93568297      -0.01799855       0.00000000       0.00000000       0.00000000
I        4.77151214       4.31451115       2.91505108       0.00000000       0.00000000       0.00000000
48
Lattice="8.964880529913767 -0.02511883856783774 0.05933967398951548 -0.02444592523889283 8.818587641659901 -0.0032925974327369847 0.08418768386431534 -0.0047999323487820525 12.685721535840848" Properties=species:S:1:pos:R:3:momenta:R:3 config_id=O-FAPI3_strain_rattle_09 phase=O-FAPI3 mode=strain_rattle seed=3251871765 source=O-FAPI3/CONTCAR pbc="T T T"
C        4.57360153       0.34493347       3.17092431       0.00000000       0.00000000       0.00000000
C        0.12302179       4.04662450       9.48273690       0.00000000       0.00000000       0.00000000
C        8.90119540       4.74206747       3.19800389       0.00000000       0.00000000       0.00000000
C        4.45061584       8.44375850       9.50981646       0.00000000       0.00000000       0.00000000
N        5.10841803       8.23398301       2.43758012       0.00000000       0.00000000       0.00000000
N        0.67713790       4.97357122       8.75199226       0.00000000       0.00000000       0.00000000
N        1.18062871       5.14472555       3.04990450       0.00000000       0.00000000       0.00000000
N        5.69704191       8.05931011       9.42134135       0.00000000       0.00000000       0.00000000
N        3.32588975       0.72945518       3.06566967       0.00000000       0.00000000       0.00000000
N        7.84230290       3.64403972       9.43710652       0.00000000       0.00000000       0.00000000
N        8.33733556       3.81567622       2.46051822       0.00000000       0.00000000       0.00000000
N        3.90605556       0.55526445       8.77493030       0.00000000       0.00000000       0.00000000
H        5.19009879       0.83417371       3.92884154       0.00000000       0.00000000       0.00000000
H        0.74224261       3.55337941      10.24102106       0.00000000       0.00000000       0.00000000
H        8.29198295       5.23474200       3.94780802       0.00000000       0.00000000       0.00000000
H        3.84412690       7.95394779      10.25998756       0.00000000       0.00000000       0.00000000
H        6.10495033       8.05388934       2.55100842       0.00000000       0.00000000       0.00000000
H        1.67268743       5.14800642       8.86528809       0.00000000       0.00000000       0.00000000
H        1.55699808       5.83077707       3.70701965       0.00000000       0.00000000       0.00000000
H        6.07722207       7.37066754      10.07896975       0.00000000       0.00000000       0.00000000
H        4.59498592       7.74670137       1.69955759       0.00000000       0.00000000       0.00000000
H        0.16099481       5.46426643       8.01360448       0.00000000       0.00000000       0.00000000
H        1.82046007       4.72830966       2.38993777       0.00000000       0.00000000       0.00000000
H        6.33457325       8.47262495       8.76106474       0.00000000       0.00000000       0.00000000
H        2.67954023       0.31664296       2.39718958       0.00000000       0.00000000       0.00000000
H        7.19365323       4.06095842       8.76831656       0.00000000       0.00000000       0.00000000
H        8.84372537       3.32553713       1.72924602       0.00000000       0.00000000       0.00000000
H        4.40973429       1.04310219       8.04329284       0.00000000       0.00000000       0.00000000
H        2.95440192       1.41760216       3.71783464       0.00000000       0.00000000       0.00000000
H        7.47462586       2.95749252      10.08978469       0.00000000       0.00000000       0.00000000
H        7.34320323       3.64116021       2.56077012       0.00000000       0.00000000       0.00000000
H        2.91094042       0.73527735       8.87504971       0.00000000       0.00000000       0.00000000
Pb       4.59389957       4.24880912      12.45618985       0.00000000       0.00000000       0.00000000
Pb       0.07305733       0.09676542       6.07345696       0.00000000       0.00000000       0.00000000
Pb       9.00189221       8.70350491      12.50754437       0.00000000       0.00000000       0.00000000
Pb       4.48760118       4.53013702       6.12743979       0.00000000       0.00000000       0.00000000
I        7.13885268       6.24827976       6.44231359       0.00000000       0.00000000       0.00000000
I        8.57613130       8.73679033       2.98844131       0.00000000       0.00000000       0.00000000
I        6.40415166       1.69480310      12.25478675       0.00000000       0.00000000       0.00000000
I        1.84061065       2.54161105       0.03775156       0.00000000       0.00000000       0.00000000
I        1.87079076       2.66921050       5.86002806       0.00000000       0.00000000       0.00000000
I        2.67173490       7.09134917       5.82667373       0.00000000       0.00000000       0.00000000
I        7.18105620       6.12116585      12.22671406       0.00000000       0.00000000       0.00000000
I        6.36749181       1.86156985       6.40317847       0.00000000       0.00000000       0.00000000
I        4.17416245       4.45108251       9.29215453       0.00000000       0.00000000       0.00000000
I        0.42278172       0.06114854       9.29433776       0.00000000       0.00000000       0.00000000
I        2.62725929       6.95823880       0.06442775       0.00000000       0.00000000       0.00000000
I        4.82277630       4.35563723       2.99543106       0.00000000       0.00000000       0.00000000
48
Lattice="8.938261494169526 0.0348677259391739 0.04971372091126376 0.03393364781804172 8.621155939468883 0.07678113638148727 0.07053094057334658 0.11193116310832857 12.925736357517199" Properties=species:S:1:pos:R:3:momenta:R:3 config_id=O-FAPI3_strain_rattle_10 phase=O-FAPI3 mode=strain_rattle seed=3301168938 source=O-FAPI3/CONTCAR pbc="T T T"
C        4.55907475       0.39627124       3.22871982       0.00000000       0.00000000       0.00000000
C        0.13941431       4.04368804       9.69887231       0.00000000       0.00000000       0.00000000
C        8.90297237       4.72372833       3.29117643       0.00000000       0.00000000       0.00000000
C        4.48331212       8.37114513       9.76132890       0.00000000       0.00000000       0.00000000
N        5.14524869       8.10567309       2.55252834       0.00000000       0.00000000       0.00000000
N        0.69879833       4.94685554       8.96206373       0.00000000       0.00000000       0.00000000
N        1.20795147       5.06531620       3.15299188       0.00000000       0.00000000       0.00000000
N        5.72362053       8.00267258       9.66622374       0.00000000       0.00000000       0.00000000
N        3.31768918       0.76303444       3.12642986       0.00000000       0.00000000       0.00000000
N        7.83335819       3.70039080       9.63966171       0.00000000       0.00000000       0.00000000
N        8.33542524       3.80760597       2.53197568       0.00000000       0.00000000       0.00000000
N        3.88897501       0.64878845       8.94151101       0.00000000       0.00000000       0.00000000
H        5.17619258       0.88555280       4.00470611       0.00000000       0.00000000       0.00000000
H        0.75275160       3.57248027      10.46630446       0.00000000       0.00000000       0.00000000
H        8.29801994       5.20824261       4.06036572       0.00000000       0.00000000       0.00000000
H        3.87457908       7.89517018      10.52196408       0.00000000       0.00000000       0.00000000
H        6.13753715       7.93719060       2.66529850       0.00000000       0.00000000       0.00000000
H        1.69245102       5.12496469       9.07792058       0.00000000       0.00000000       0.00000000
H        1.58705579       5.74450758       3.82833741       0.00000000       0.00000000       0.00000000
H        6.09743510       7.33794670      10.32960015       0.00000000       0.00000000       0.00000000
H        4.63088458       7.61916529       1.79671021       0.00000000       0.00000000       0.00000000
H        0.18819751       5.41642952       8.21476049       0.00000000       0.00000000       0.00000000
H        1.84384212       4.65637802       2.47599752       0.00000000       0.00000000       0.00000000
H        6.36270404       8.40488900       8.99645355       0.00000000       0.00000000       0.00000000
H        2.67121796       0.34909374       2.44230316       0.00000000       0.00000000       0.00000000
H        7.19007970       4.09760488       8.96275920       0.00000000       0.00000000       0.00000000
H        8.83785494       3.32506464       1.78181285       0.00000000       0.00000000       0.00000000
H        4.39516789       1.12232887       8.19986306       0.00000000       0.00000000       0.00000000
H        2.95115690       1.43931716       3.79762820       0.00000000       0.00000000       0.00000000
H        7.46153614       3.03275617      10.29889089       0.00000000       0.00000000       0.00000000
H        7.34295985       3.63138104       2.63370690       0.00000000       0.00000000       0.00000000
H        2.89787382       0.81915518       9.04632889       0.00000000       0.00000000       0.00000000
Pb       4.56421707       4.31031059      12.75524871       0.00000000       0.00000000       0.00000000
Pb       0.05203193       0.15303744       6.21738208       0.00000000       0.00000000       0.00000000
Pb       8.99781073       8.65167685      12.79558864       0.00000000       0.00000000       0.00000000
Pb       4.48082633       4.48235718       6.26511301       0.00000000       0.00000000       0.00000000
I        7.20264770       6.20680245       6.57302634       0.00000000       0.00000000       0.00000000
I        8.63637400       8.62729862       3.13570479       0.00000000       0.00000000       0.00000000
I        6.39595837       1.78322379      12.44600288       0.00000000       0.00000000       0.00000000
I        1.83630339       2.49419699       0.07971941       0.00000000       0.00000000       0.00000000
I        1.90494706       2.69311527       6.00060734       0.00000000       0.00000000       0.00000000
I        2.71355638       7.00795821       6.05108270       0.00000000       0.00000000       0.00000000
I        7.17155756       6.14099887      12.48961530       0.00000000       0.00000000       0.00000000
I        6.32541836       1.88388798       6.56732765       0.00000000       0.00000000       0.00000000
I        4.16141154       4.45539972       9.52462293       0.00000000       0.00000000       0.00000000
I        0.40402272       0.13773663       9.47092937       0.00000000       0.00000000       0.00000000
I        2.66140383       6.84598048       0.09884391       0.00000000       0.00000000       0.00000000
I        4.86322964       4.30646544       3.10136437       0.00000000       0.00000000       0.00000000
48
Lattice="8.886643020317234 0.07208093962824261 0.06346988829455245 0.07014994966994004 8.810440455084715 0.05877341174425457 0.09004739209705288 0.08567959067046675 12.88382242137158" Properties=species:S:1:pos:R:3:momenta:R:3 config_id=O-FAPI3_strain_rattle_11 phase=O-FAPI3 mode=strain_rattle seed=1362190370 source=O-FAPI3/CONTCAR pbc="T T T"
C        4.53916094       0.41637723       3.22459682       0.00000000       0.00000000       0.00000000
C        0.17022839       4.11129765       9.65937608       0.00000000       0.00000000       0.00000000
C        8.87617867       4.85649116       3.28470881       0.00000000       0.00000000       0.00000000
C        4.50724632       8.55141158       9.71948804       0.00000000       0.00000000       0.00000000
N        5.15337627       8.29898976       2.53558033       0.00000000       0.00000000       0.00000000
N        0.72906174       5.03823941       8.92395923       0.00000000       0.00000000       0.00000000
N        1.22701754       5.17441621       3.13422208       0.00000000       0.00000000       0.00000000
N        5.73866668       8.18013393       9.62739287       0.00000000       0.00000000       0.00000000
N        3.30636537       0.78634644       3.11993696       0.00000000       0.00000000       0.00000000
N        7.81801447       3.79206414       9.61310775       0.00000000       0.00000000       0.00000000
N        8.30692341       3.91963288       2.52896739       0.00000000       0.00000000       0.00000000
N        3.88260901       0.65888255       8.91734623       0.00000000       0.00000000       0.00000000
H        5.15592755       0.91718651       3.99802900       0.00000000       0.00000000       0.00000000
H        0.77917957       3.63052929      10.42626037       0.00000000       0.00000000       0.00000000
H        8.27793248       5.34744524       4.04946319       0.00000000       0.00000000       0.00000000
H        3.90118464       8.06078811      10.47769458       0.00000000       0.00000000       0.00000000
H        6.13937002       8.13061309       2.64988697       0.00000000       0.00000000       0.00000000
H        1.71787571       5.22406407       9.04062861       0.00000000       0.00000000       0.00000000
H        1.60779917       5.86855795       3.80657401       0.00000000       0.00000000       0.00000000
H        6.10851295       7.50085159      10.29058283       0.00000000       0.00000000       0.00000000
H        4.63880946       7.80139019       1.78240619       0.00000000       0.00000000       0.00000000
H        0.22227459       5.51771316       8.17730293       0.00000000       0.00000000       0.00000000
H        1.85647948       4.76061757       2.46125679       0.00000000       0.00000000       0.00000000
H        6.37472903       8.59529945       8.95995743       0.00000000       0.00000000       0.00000000
H        2.66087108       0.36220633       2.43786576       0.00000000       0.00000000       0.00000000
H        7.17912045       4.19688838       8.93656640       0.00000000       0.00000000       0.00000000
H        8.80327842       3.43023305       1.78301342       0.00000000       0.00000000       0.00000000
H        4.38674358       1.14655603       8.17791009       0.00000000       0.00000000       0.00000000
H        2.94581646       1.47447515       3.78699416       0.00000000       0.00000000       0.00000000
H        7.44653017       3.10676869      10.27100293       0.00000000       0.00000000       0.00000000
H        7.31962528       3.73525052       2.62918051       0.00000000       0.00000000       0.00000000
H        2.89813106       0.82870156       9.01992207       0.00000000       0.00000000       0.00000000
Pb       4.59949721       4.36785455      12.68700062       0.00000000       0.00000000       0.00000000
Pb       0.12113691       0.10539763       6.22819012       0.00000000       0.00000000       0.00000000
Pb       8.95906690       8.85604666      12.77237702       0.00000000       0.00000000       0.00000000
Pb       4.53345580       4.60800390       6.24409001       0.00000000       0.00000000       0.00000000
I        7.16932774       6.37615339       6.57805535       0.00000000       0.00000000       0.00000000
I        8.59002814       8.85889420       3.13279160       0.00000000       0.00000000       0.00000000
I        6.37408632       1.81782138      12.45987699       0.00000000       0.00000000       0.00000000
I        1.77699912       2.54675173       0.10588935       0.00000000       0.00000000       0.00000000
I        1.85324571       2.74695277       5.94842764       0.00000000       0.00000000       0.00000000
I        2.66700357       7.17308975       6.05216907       0.00000000       0.00000000       0.00000000
I        7.17160592       6.28142528      12.44818936       0.00000000       0.00000000       0.00000000
I        6.29726253       1.87363045       6.56344970       0.00000000       0.00000000       0.00000000
I        4.18840879       4.52033631       9.45876524       0.00000000       0.00000000       0.00000000
I        0.40818904       0.11962500       9.45780667       0.00000000       0.00000000       0.00000000
I        2.69330863       6.98420089       0.10742708       0.00000000       0.00000000       0.00000000
I        4.82333940       4.38270446       2.98242224       0.00000000       0.00000000       0.00000000
48
Lattice="9.121835753936928 -0.04263623520549526 -0.085274848042071 -0.04149404501671227 8.794460571781483 -0.020140232971867934 -0.12098300286940997 -0.029360332603222926 12.94780034627435" Properties=species:S:1:pos:R:3:momenta:R:3 config_id=O-FAPI3_strain_rattle_12 phase=O-FAPI3 mode=strain_rattle seed=326179776 source=O-FAPI3/CONTCAR pbc="T T T"
C        4.60183470       0.32897253       3.16167038       0.00000000       0.00000000       0.00000000
C       -0.03694448       4.01704228       9.66977708       0.00000000       0.00000000       0.00000000
C        8.99688510       4.70556299       3.11031957       0.00000000       0.00000000       0.00000000
C        4.35810611       8.39363272       9.61842625       0.00000000       0.00000000       0.00000000
N        5.14310237       8.19675862       2.38902692       0.00000000       0.00000000       0.00000000
N        0.53708196       4.94177339       8.91303405       0.00000000       0.00000000       0.00000000
N        1.14200821       5.12244891       3.08400595       0.00000000       0.00000000       0.00000000
N        5.62865027       8.00797954       9.50857814       0.00000000       0.00000000       0.00000000
N        3.33313808       0.71507411       3.07378641       0.00000000       0.00000000       0.00000000
N        7.81978010       3.60060472       9.49835860       0.00000000       0.00000000       0.00000000
N        8.43686116       3.78422993       2.36849961       0.00000000       0.00000000       0.00000000
N        3.83084088       0.52924473       8.89250668       0.00000000       0.00000000       0.00000000
H        5.21591661       0.81421137       3.92434106       0.00000000       0.00000000       0.00000000
H        0.58176033       3.52248379      10.43469171       0.00000000       0.00000000       0.00000000
H        8.36379783       5.19663114       3.88464936       0.00000000       0.00000000       0.00000000
H        3.72964168       7.90490367      10.39500002       0.00000000       0.00000000       0.00000000
H        6.15567653       8.01499833       2.48894382       0.00000000       0.00000000       0.00000000
H        1.54798798       5.11357200       9.01214117       0.00000000       0.00000000       0.00000000
H        1.51300358       5.80462132       3.74730575       0.00000000       0.00000000       0.00000000
H        6.00611401       7.31921892      10.17501751       0.00000000       0.00000000       0.00000000
H        4.63357282       7.71323386       1.64498296       0.00000000       0.00000000       0.00000000
H        0.02295081       5.43354980       8.16675645       0.00000000       0.00000000       0.00000000
H        1.80464591       4.70719775       2.40073233       0.00000000       0.00000000       0.00000000
H        6.28738392       8.42018901       8.82340947       0.00000000       0.00000000       0.00000000
H        2.68707672       0.30593982       2.40274712       0.00000000       0.00000000       0.00000000
H        7.16981455       4.01893126       8.82542427       0.00000000       0.00000000       0.00000000
H        8.96500836       3.29585499       1.61475500       0.00000000       0.00000000       0.00000000
H        4.35438638       1.01617093       8.13652841       0.00000000       0.00000000       0.00000000
H        2.94318294       1.40080330       3.74419989       0.00000000       0.00000000       0.00000000
H        7.43629330       2.91540079      10.17191159       0.00000000       0.00000000       0.00000000
H        7.42391855       3.61193707       2.48735198       0.00000000       0.00000000       0.00000000
H        2.81623009       0.71051080       9.01054924       0.00000000       0.00000000       0.00000000
Pb       4.39258762       4.24212496      12.61594458       0.00000000       0.00000000       0.00000000
Pb      -0.00006721       0.08961564       6.21968488       0.00000000       0.00000000       0.00000000
Pb       8.94297199       8.64491877      12.60602504       0.00000000       0.00000000       0.00000000
Pb       4.48321550       4.46773413       6.17665934       0.00000000       0.00000000       0.00000000
I        7.13865104       6.18338318       6.44625786       0.00000000       0.00000000       0.00000000
I        8.70121459       8.67157273       2.88298149       0.00000000       0.00000000       0.00000000
I        6.32029369       1.67258164      12.37390861       0.00000000       0.00000000       0.00000000
I        1.85100931       2.52446133       0.01726507       0.00000000       0.00000000       0.00000000
I        1.84831624       2.65345674       5.89517554       0.00000000       0.00000000       0.00000000
I        2.60787734       7.06174637       5.96259520       0.00000000       0.00000000       0.00000000
I        7.10642697       6.06770339      12.36321835       0.00000000       0.00000000       0.00000000
I        6.31850681       1.79929802       6.44260191       0.00000000       0.00000000       0.00000000
I        4.10046912       4.42565749       9.43619225       0.00000000       0.00000000       0.00000000
I        0.29101372       0.05751214       9.47382729       0.00000000       0.00000000       0.00000000
I        2.65369324       6.92100051      -0.01405520       0.00000000       0.00000000       0.00000000
I        4.86761783       4.31469948       2.92611740       0.00000000       0.00000000       0.00000000
48
Lattice="8.839340765132778 -0.015508472599309745 -0.0427719792132924 -0.015093013186428507 8.948029074970467 0.04036088182875409 -0.0606824005284551 0.058837895088245905 12.65231451648178" Properties=species:S:1:pos:R:3:momenta:R:3 config_id=O-FAPI3_strain_rattle_13 phase=O-FAPI3 mode=strain_rattle seed=3994126595 source=O-FAPI3/CONTCAR pbc="T T T"
C        4.47434461       0.37083923       3.11256135       0.00000000       0.00000000       0.00000000
C        0.01801491       4.15372922       9.47699996       0.00000000       0.00000000       0.00000000
C        8.74584227       4.83734624       3.11203635       0.00000000       0.00000000       0.00000000
C        4.28951276       8.62023622       9.47647493       0.00000000       0.00000000       0.00000000
N        5.01804926       8.37262454       2.41381265       0.00000000       0.00000000       0.00000000
N        0.57363523       5.09122022       8.74638723       0.00000000       0.00000000       0.00000000
N        1.13487707       5.23683607       3.05399737       0.00000000       0.00000000       0.00000000
N        5.51919239       8.23104531       9.37217662       0.00000000       0.00000000       0.00000000
N        3.24559164       0.75913161       3.02364010       0.00000000       0.00000000       0.00000000
N        7.62990691       3.75334083       9.34181935       0.00000000       0.00000000       0.00000000
N        8.19724532       3.89304533       2.37828526       0.00000000       0.00000000       0.00000000
N        3.75283142       0.61164104       8.71085979       0.00000000       0.00000000       0.00000000
H        5.07416963       0.87172970       3.86394406       0.00000000       0.00000000       0.00000000
H        0.61952148       3.65771318      10.22388613       0.00000000       0.00000000       0.00000000
H        8.13712182       5.34035702       3.86926702       0.00000000       0.00000000       0.00000000
H        3.68247379       8.12634061      10.22920911       0.00000000       0.00000000       0.00000000
H        5.99923606       8.19153157       2.51474526       0.00000000       0.00000000       0.00000000
H        1.55421527       5.26985998       8.84894235       0.00000000       0.00000000       0.00000000
H        1.49926024       5.93666279       3.70853126       0.00000000       0.00000000       0.00000000
H        5.88592838       7.53599983      10.02041879       0.00000000       0.00000000       0.00000000
H        4.51963078       7.87393251       1.68111265       0.00000000       0.00000000       0.00000000
H        0.07354300       5.58486002       8.01816314       0.00000000       0.00000000       0.00000000
H        1.77285007       4.81168724       2.38640166       0.00000000       0.00000000       0.00000000
H        6.15574538       8.64780619       8.70837834       0.00000000       0.00000000       0.00000000
H        2.61539479       0.33620765       2.36218088       0.00000000       0.00000000       0.00000000
H        6.99828993       4.17232678       8.68415756       0.00000000       0.00000000       0.00000000
H        8.70436768       3.39258910       1.64071963       0.00000000       0.00000000       0.00000000
H        4.25827994       1.10351662       7.97777004       0.00000000       0.00000000       0.00000000
H        2.87259024       1.46025208       3.68174204       0.00000000       0.00000000       0.00000000
H        7.25925831       3.05958901       9.99362952       0.00000000       0.00000000       0.00000000
H        7.21564378       3.71539603       2.48871551       0.00000000       0.00000000       0.00000000
H        2.77062308       0.79372450       8.82291252       0.00000000       0.00000000       0.00000000
Pb       4.36086812       4.40057485      12.40488519       0.00000000       0.00000000       0.00000000
Pb      -0.00014610       0.14335404       6.08412668       0.00000000       0.00000000       0.00000000
Pb       8.73694837       8.87813312      12.42282777       0.00000000       0.00000000       0.00000000
Pb       4.36540582       4.59675206       6.09648239       0.00000000       0.00000000       0.00000000
I        6.99454298       6.39768939       6.33640411       0.00000000       0.00000000       0.00000000
I        8.47604657       8.89746948       2.92489879       0.00000000       0.00000000       0.00000000
I        6.17499756       1.79642966      12.13113052       0.00000000       0.00000000       0.00000000
I        1.80588528       2.57753391       0.04828012       0.00000000       0.00000000       0.00000000
I        1.79665955       2.75839641       5.83536424       0.00000000       0.00000000       0.00000000
I        2.55740002       7.20865648       5.85350841       0.00000000       0.00000000       0.00000000
I        6.95332797       6.25081045      12.15205665       0.00000000       0.00000000       0.00000000
I        6.19916380       1.90897397       6.34019688       0.00000000       0.00000000       0.00000000
I        4.00165509       4.57466925       9.26497749       0.00000000       0.00000000       0.00000000
I        0.31799651       0.10228599       9.26781852       0.00000000       0.00000000       0.00000000
I        2.60634042       7.07635909       0.06567320       0.00000000       0.00000000       0.00000000
I        4.75187084       4.42708249       2.92927754       0.00000000       0.00000000       0.00000000
48
Lattice="9.069713339467167 0.08366818561638757 0.0035608947825656145 0.08142678272835784 8.947336901810278 -0.043859340798529274 0.00505199075211791 -0.06393793137356607 12.729648585794704" Properties=species:S:1:pos:R:3:momenta:R:3 config_id=O-FAPI3_strain_rattle_14 phase=O-FAPI3 mode=strain_rattle seed=229437633 source=O-FAPI3/CONTCAR pbc="T T T"
C        4.61156686       0.39078967       3.15181642       0.00000000       0.00000000       0.00000000
C        0.11332203       4.06241366       9.49650036       0.00000000       0.00000000       0.00000000
C        9.04284568       4.90496110       3.13161063       0.00000000       0.00000000       0.00000000
C        4.54460104       8.57658509       9.47629455       0.00000000       0.00000000       0.00000000
N        5.25225821       8.40527306       2.37613951       0.00000000       0.00000000       0.00000000
N        0.68972855       5.01314920       8.75544966       0.00000000       0.00000000       0.00000000
N        1.23719504       5.21996624       3.02944939       0.00000000       0.00000000       0.00000000
N        5.80162782       8.20214596       9.38148406       0.00000000       0.00000000       0.00000000
N        3.35446288       0.76620523       3.05222634       0.00000000       0.00000000       0.00000000
N        7.91889561       3.74838493       9.40426101       0.00000000       0.00000000       0.00000000
N        8.46585450       3.96162558       2.39934697       0.00000000       0.00000000       0.00000000
N        3.90332498       0.56950175       8.77865705       0.00000000       0.00000000       0.00000000
H        5.23642450       0.89112362       3.90627177       0.00000000       0.00000000       0.00000000
H        0.72910787       3.56591823      10.25584221       0.00000000       0.00000000       0.00000000
H        8.42766050       5.39385559       3.88557915       0.00000000       0.00000000       0.00000000
H        3.92034401       8.06865031      10.23514961       0.00000000       0.00000000       0.00000000
H        6.25763540       8.23417177       2.48456011       0.00000000       0.00000000       0.00000000
H        1.69837932       5.20175283       8.86210690       0.00000000       0.00000000       0.00000000
H        1.62210370       5.91753744       3.68334381       0.00000000       0.00000000       0.00000000
H        6.17384321       7.50495285      10.04221552       0.00000000       0.00000000       0.00000000
H        4.73157672       7.90809025       1.64099452       0.00000000       0.00000000       0.00000000
H        0.17807731       5.50822147       8.01544058       0.00000000       0.00000000       0.00000000
H        1.88371031       4.80839438       2.36508928       0.00000000       0.00000000       0.00000000
H        6.45580452       8.63241869       8.71299720       0.00000000       0.00000000       0.00000000
H        2.69975702       0.34262949       2.38735539       0.00000000       0.00000000       0.00000000
H        7.27185105       4.16665397       8.73526331       0.00000000       0.00000000       0.00000000
H        8.97692045       3.47396065       1.66460704       0.00000000       0.00000000       0.00000000
H        4.42342108       1.07409188       8.03905304       0.00000000       0.00000000       0.00000000
H        2.98276911       1.45679679       3.70582369       0.00000000       0.00000000       0.00000000
H        7.53450856       3.04421210      10.06469534       0.00000000       0.00000000       0.00000000
H        7.45728879       3.77194564       2.50697692       0.00000000       0.00000000       0.00000000
H        2.89803280       0.73952675       8.88452363       0.00000000       0.00000000       0.00000000
Pb       4.57572147       4.35556634      12.43643475       0.00000000       0.00000000       0.00000000
Pb       0.04654295       0.08697686       6.09931159       0.00000000       0.00000000       0.00000000
Pb       9.13477108       8.89308212      12.43940091       0.00000000       0.00000000       0.00000000
Pb       4.55710231       4.62341646       6.09704822       0.00000000       0.00000000       0.00000000
I        7.25741945       6.38239304       6.40683400       0.00000000       0.00000000       0.00000000
I        8.74685584       8.97105253       2.90454446       0.00000000       0.00000000       0.00000000
I        6.43659631       1.72319858      12.22693129       0.00000000       0.00000000       0.00000000
I        1.87571038       2.60119555       0.04017740       0.00000000       0.00000000       0.00000000
I        1.89973496       2.73144170       5.88332418       0.00000000       0.00000000       0.00000000
I        2.76507098       7.20934646       5.81409583       0.00000000       0.00000000       0.00000000
I        7.28826428       6.24623277      12.20263273       0.00000000       0.00000000       0.00000000
I        6.40700564       1.88169439       6.38063126       0.00000000       0.00000000       0.00000000
I        4.21385380       4.51721553       9.28119954       0.00000000       0.00000000       0.00000000
I        0.35408122       0.00988729       9.30532184       0.00000000       0.00000000       0.00000000
I        2.74525551       7.09099307       0.04218409       0.00000000       0.00000000       0.00000000
I        4.92183857       4.44870861       2.90272292       0.00000000       0.00000000       0.00000000
48
Lattice="8.993386710669089 0.08360636067893563 0.03952661281740348 0.08136661403087736 8.629943865435703 -0.03702948836916351 0.056078063130018375 -0.05398140608226449 13.01420734426455" Properties=species:S:1:pos:R:3:momenta:R:3 config_id=O-FAPI3_strain_rattle_15 phase=O-FAPI3 mode=strain_rattle seed=319534206 source=O-FAPI3/CONTCAR pbc="T T T"
C        4.58542773       0.38030682       3.24081854       0.00000000       0.00000000       0.00000000
C        0.15083406       3.92407672       9.71265803       0.00000000       0.00000000       0.00000000
C        8.97972745       4.73575181       3.24143835       0.00000000       0.00000000       0.00000000
C        4.54513397       8.27952170       9.71327782       0.00000000       0.00000000       0.00000000
N        5.21833129       8.11022584       2.45703822       0.00000000       0.00000000       0.00000000
N        0.71950030       4.84082349       8.95811189       0.00000000       0.00000000       0.00000000
N        1.23940271       5.03702167       3.10643246       0.00000000       0.00000000       0.00000000
N        5.79116523       7.91871044       9.62099825       0.00000000       0.00000000       0.00000000
N        3.33854003       0.74194247       3.13435190       0.00000000       0.00000000       0.00000000
N        7.89030250       3.62363122       9.64891769       0.00000000       0.00000000       0.00000000
N        8.40457086       3.82525270       2.48973564       0.00000000       0.00000000       0.00000000
N        3.90574000       0.55585038       8.99080924       0.00000000       0.00000000       0.00000000
H        5.20809721       0.86354787       4.01502730       0.00000000       0.00000000       0.00000000
H        0.76443845       3.44584937      10.49099238       0.00000000       0.00000000       0.00000000
H        8.37278975       5.20756185       4.01024293       0.00000000       0.00000000       0.00000000
H        3.92913112       7.78986346      10.48620803       0.00000000       0.00000000       0.00000000
H        6.21566495       7.94558148       2.57170974       0.00000000       0.00000000       0.00000000
H        1.72010512       5.02312407       9.07129462       0.00000000       0.00000000       0.00000000
H        1.62375728       5.71036573       3.77704963       0.00000000       0.00000000       0.00000000
H        6.16283590       7.24676732      10.29738778       0.00000000       0.00000000       0.00000000
H        4.69903877       7.63006918       1.70298555       0.00000000       0.00000000       0.00000000
H        0.20923136       5.31772318       8.19995256       0.00000000       0.00000000       0.00000000
H        1.87777322       4.63985550       2.42942807       0.00000000       0.00000000       0.00000000
H        6.43719150       8.33352572       8.94050973       0.00000000       0.00000000       0.00000000
H        2.68663991       0.33278129       2.45167672       0.00000000       0.00000000       0.00000000
H        7.24605801       4.02645168       8.96275838       0.00000000       0.00000000       0.00000000
H        8.90834306       3.35460688       1.74017940       0.00000000       0.00000000       0.00000000
H        4.41853568       1.04226089       8.23714634       0.00000000       0.00000000       0.00000000
H        2.97265940       1.40831205       3.80167171       0.00000000       0.00000000       0.00000000
H        7.51173796       2.94471353      10.32200981       0.00000000       0.00000000       0.00000000
H        7.40491005       3.64204342       2.59563027       0.00000000       0.00000000       0.00000000
H        2.90935032       0.71958606       9.09521507       0.00000000       0.00000000       0.00000000
Pb       4.63976641       4.19586819      12.79510243       0.00000000       0.00000000       0.00000000
Pb       0.03635681       0.06497590       6.25395509       0.00000000       0.00000000       0.00000000
Pb       9.05253458       8.56602586      12.82502846       0.00000000       0.00000000       0.00000000
Pb       4.50454359       4.44206321       6.25708068       0.00000000       0.00000000       0.00000000
I        7.32182581       6.10918917       6.57825234       0.00000000       0.00000000       0.00000000
I        8.73775790       8.67802753       3.00337926       0.00000000       0.00000000       0.00000000
I        6.45347885       1.77865614      12.56996156       0.00000000       0.00000000       0.00000000
I        1.84821065       2.49547116       0.04460615       0.00000000       0.00000000       0.00000000
I        1.87693717       2.60115328       5.97412217       0.00000000       0.00000000       0.00000000
I        2.76459095       6.95326606       5.98101555       0.00000000       0.00000000       0.00000000
I        7.24394877       6.01042448      12.46816691       0.00000000       0.00000000       0.00000000
I        6.43951267       1.90550584       6.61361834       0.00000000       0.00000000       0.00000000
I        4.20392359       4.34514836       9.50360399       0.00000000       0.00000000       0.00000000
I        0.43343737      -0.03245440       9.56923083       0.00000000       0.00000000       0.00000000
I        2.76104562       6.87554900       0.01596429       0.00000000       0.00000000       0.00000000
I        4.89012984       4.32392411       3.03336472       0.00000000       0.00000000       0.00000000
48
Lattice="8.945670407358405 -0.043589669493177045 0.015518110704992929 -0.04242193757248947 8.890029571367988 0.08565678080547615 0.022016194400296528 0.12487003391087843 12.938947980489527" Properties=species:S:1:pos:R:3:momenta:R:3 config_id=O-FAPI3_strain_rattle_16 phase=O-FAPI3 mode=strain_rattle seed=476823344 source=O-FAPI3/CONTCAR pbc="T T T"
C        4.54771878       0.37056412       3.21498234       0.00000000       0.00000000       0.00000000
C        0.06813345       4.17623171       9.71255385       0.00000000       0.00000000       0.00000000
C        8.85702520       4.79447752       3.26532299       0.00000000       0.00000000       0.00000000
C        4.37744006       8.60014511       9.76289448       0.00000000       0.00000000       0.00000000
N        5.06884593       8.31487468       2.54382568       0.00000000       0.00000000       0.00000000
N        0.62275192       5.10203745       8.97377296       0.00000000       0.00000000       0.00000000
N        1.15269675       5.21513561       3.15686383       0.00000000       0.00000000       0.00000000
N        5.62244749       8.20905283       9.66255220       0.00000000       0.00000000       0.00000000
N        3.30237508       0.75974946       3.11772773       0.00000000       0.00000000       0.00000000
N        7.77212577       3.75366666       9.62341610       0.00000000       0.00000000       0.00000000
N        8.29985866       3.85421940       2.50656545       0.00000000       0.00000000       0.00000000
N        3.85376478       0.64138219       8.93651266       0.00000000       0.00000000       0.00000000
H        5.15820595       0.87022899       3.98991068       0.00000000       0.00000000       0.00000000
H        0.68334691       3.68545185      10.47793921       0.00000000       0.00000000       0.00000000
H        8.24442913       5.30010207       4.03812967       0.00000000       0.00000000       0.00000000
H        3.76957021       8.11532504      10.52615822       0.00000000       0.00000000       0.00000000
H        6.06308346       8.13238562       2.65273204       0.00000000       0.00000000       0.00000000
H        1.61528401       5.27694940       9.08612283       0.00000000       0.00000000       0.00000000
H        1.52365417       5.91267929       3.83215689       0.00000000       0.00000000       0.00000000
H        6.00001792       7.52076561      10.32449255       0.00000000       0.00000000       0.00000000
H        4.56110456       7.81717098       1.78869512       0.00000000       0.00000000       0.00000000
H        0.11030604       5.59023346       8.22814158       0.00000000       0.00000000       0.00000000
H        1.79525181       4.78724269       2.47630700       0.00000000       0.00000000       0.00000000
H        6.26101120       8.61761252       8.99005464       0.00000000       0.00000000       0.00000000
H        2.66150531       0.33811021       2.43494458       0.00000000       0.00000000       0.00000000
H        7.12726452       4.16848020       8.94869222       0.00000000       0.00000000       0.00000000
H        8.80975392       3.35155704       1.75320018       0.00000000       0.00000000       0.00000000
H        4.35895544       1.12461953       8.19264657       0.00000000       0.00000000       0.00000000
H        2.92707783       1.46092945       3.79172624       0.00000000       0.00000000       0.00000000
H        7.40344151       3.06901566      10.28406184       0.00000000       0.00000000       0.00000000
H        7.30769720       3.68140947       2.61202605       0.00000000       0.00000000       0.00000000
H        2.85989784       0.82597330       9.04541676       0.00000000       0.00000000       0.00000000
Pb       4.49914934       4.43857590      12.75458440       0.00000000       0.00000000       0.00000000
Pb       0.02967204       0.14866749       6.21457426       0.00000000       0.00000000       0.00000000
Pb       8.89297204       8.87115954      12.82114702       0.00000000       0.00000000       0.00000000
Pb       4.43964907       4.58224158       6.27928512       0.00000000       0.00000000       0.00000000
I        7.11926222       6.33281485       6.56576098       0.00000000       0.00000000       0.00000000
I        8.58520404       8.82136461       3.08352388       0.00000000       0.00000000       0.00000000
I        6.31249886       1.85612628      12.49122707       0.00000000       0.00000000       0.00000000
I        1.83685017       2.58481488       0.09321049       0.00000000       0.00000000       0.00000000
I        1.84330079       2.75136956       5.99347020       0.00000000       0.00000000       0.00000000
I        2.59357336       7.20798956       6.03042132       0.00000000       0.00000000       0.00000000
I        7.11163536       6.26103585      12.52471377       0.00000000       0.00000000       0.00000000
I        6.32948656       1.91801022       6.52537413       0.00000000       0.00000000       0.00000000
I        4.11888681       4.57629218       9.52343545       0.00000000       0.00000000       0.00000000
I        0.34907309       0.13019953       9.46959616       0.00000000       0.00000000       0.00000000
I        2.60628158       7.01164665       0.10173867       0.00000000       0.00000000       0.00000000
I        4.82705640       4.41109014       3.06140543       0.00000000       0.00000000       0.00000000
48
Lattice="9.192824550546938 0.0797879444679978 -0.06392181931931153 0.07765049009578899 8.665210783113698 0.057148844600736194 -0.09068856559334838 0.08331130467612935 12.828465556088425" Properties=species:S:1:pos:R:3:momenta:R:3 config_id=O-FAPI3_strain_rattle_17 phase=O-FAPI3 mode=strain_rattle seed=2934708372 source=O-FAPI3/CONTCAR pbc="T T T"
C        4.65024323       0.41379540       3.14611545       0.00000000       0.00000000       0.00000000
C        0.04099173       4.04288387       9.61623207       0.00000000       0.00000000       0.00000000
C        9.13923092       4.78502539       3.14374598       0.00000000       0.00000000       0.00000000
C        4.52997962       8.41411385       9.61386258       0.00000000       0.00000000       0.00000000
N        5.30080793       8.16708492       2.45086902       0.00000000       0.00000000       0.00000000
N        0.63025292       4.95515860       8.87586786       0.00000000       0.00000000       0.00000000
N        1.22814798       5.09005827       3.10329752       0.00000000       0.00000000       0.00000000
N        5.80501160       8.05019990       9.50455434       0.00000000       0.00000000       0.00000000
N        3.37659614       0.77643708       3.05951403       0.00000000       0.00000000       0.00000000
N        7.95345972       3.73657869       9.46077085       0.00000000       0.00000000       0.00000000
N        8.56046599       3.86310822       2.39935887       0.00000000       0.00000000       0.00000000
N        3.88991110       0.65118194       8.82435764       0.00000000       0.00000000       0.00000000
H        5.27761575       0.90690070       3.90745797       0.00000000       0.00000000       0.00000000
H        0.65971318       3.57059167      10.37120770       0.00000000       0.00000000       0.00000000
H        8.50972843       5.26722175       3.91382816       0.00000000       0.00000000       0.00000000
H        3.89182599       7.93091282      10.37757790       0.00000000       0.00000000       0.00000000
H        6.31912371       8.00246328       2.55059864       0.00000000       0.00000000       0.00000000
H        1.65169045       5.13889971       8.97789489       0.00000000       0.00000000       0.00000000
H        1.61295474       5.77307957       3.76735149       0.00000000       0.00000000       0.00000000
H        6.17771377       7.38243639      10.15969959       0.00000000       0.00000000       0.00000000
H        4.77887927       7.67723711       1.70823743       0.00000000       0.00000000       0.00000000
H        0.11693572       5.42627823       8.13957394       0.00000000       0.00000000       0.00000000
H        1.88868635       4.68376876       2.42416945       0.00000000       0.00000000       0.00000000
H        6.47285609       8.45921006       8.83080326       0.00000000       0.00000000       0.00000000
H        2.71825077       0.35870040       2.38955679       0.00000000       0.00000000       0.00000000
H        7.30242033       4.13414186       8.79619061       0.00000000       0.00000000       0.00000000
H        9.08428958       3.38233689       1.64945569       0.00000000       0.00000000       0.00000000
H        4.42234606       1.13137802       8.08079212       0.00000000       0.00000000       0.00000000
H        2.99453045       1.45280243       3.72890039       0.00000000       0.00000000       0.00000000
H        7.55928941       3.06215916      10.12124844       0.00000000       0.00000000       0.00000000
H        7.53750183       3.68076955       2.51328247       0.00000000       0.00000000       0.00000000
H        2.87006867       0.81720604       8.94057865       0.00000000       0.00000000       0.00000000
Pb       4.60388841       4.39188408      12.63107475       0.00000000       0.00000000       0.00000000
Pb      -0.02229323       0.17917347       6.12730960       0.00000000       0.00000000       0.00000000
Pb       9.17590191       8.72363638      12.59760882       0.00000000       0.00000000       0.00000000
Pb       4.56803219       4.53404490       6.18412949       0.00000000       0.00000000       0.00000000
I        7.32528875       6.25923520       6.42002221       0.00000000       0.00000000       0.00000000
I        8.91966174       8.70546823       2.99861413       0.00000000       0.00000000       0.00000000
I        6.44062848       1.86048923      12.31191493       0.00000000       0.00000000       0.00000000
I        1.87968405       2.53550923       0.04838243       0.00000000       0.00000000       0.00000000
I        1.89589642       2.68396812       5.93435791       0.00000000       0.00000000       0.00000000
I        2.70205832       7.02035766       5.96604121       0.00000000       0.00000000       0.00000000
I        7.21899098       6.16073404      12.36700301       0.00000000       0.00000000       0.00000000
I        6.43532268       1.93067985       6.42525947       0.00000000       0.00000000       0.00000000
I        4.20717520       4.47000869       9.38371842       0.00000000       0.00000000       0.00000000
I        0.26756481       0.10769577       9.40364568       0.00000000       0.00000000       0.00000000
I        2.79140317       6.84805644       0.08768452       0.00000000       0.00000000       0.00000000
I        4.99959432       4.36146015       2.96880394       0.00000000       0.00000000       0.00000000
48
Lattice="9.041406483309798 0.0660644272930697 0.0229800260159591 0.0642946148244494 8.814737200352978 0.0502054039542464 0.0326027265631275 0.0731891910403817 12.846785816113204" Properties=species:S:1:pos:R:3:momenta:R:3 config_id=O-FAPI3_mixed_01 phase=O-FAPI3 mode=mixed seed=3408005148 source=O-FAPI3/CONTCAR pbc="T T T"
C        4.66597106       0.43598948       3.01925281       0.00000000       0.00000000       0.00000000
C        0.11910685       4.15251078       9.58175702       0.00000000       0.00000000       0.00000000
C        8.93612020       4.93379557       2.96514451       0.00000000       0.00000000       0.00000000
C        4.56135033       8.56531639       9.65559726       0.00000000       0.00000000       0.00000000
N        4.97934988       8.17897875       2.35461332       0.00000000       0.00000000       0.00000000
N        0.66214477       5.00855712       8.91209921       0.00000000       0.00000000       0.00000000
N        1.06906197       5.25665682       3.45029735       0.00000000       0.00000000       0.00000000
N        5.73112696       8.14913298       9.55321534       0.00000000       0.00000000       0.00000000
N        3.56954241       0.87933929       3.44700047       0.00000000       0.00000000       0.00000000
N        7.93045997       3.80400684       9.53444135       0.00000000       0.00000000       0.00000000
N        8.67135363       3.78217034       2.41137925       0.00000000       0.00000000       0.00000000
N        3.91073227       0.67854790       8.85918522       0.00000000       0.00000000       0.00000000
H        5.62267521       1.01505394       3.24431108       0.00000000       0.00000000       0.00000000
H        0.77406532       3.65169635      10.39972217       0.00000000       0.00000000       0.00000000
H        8.09245335       5.63657223       3.04717390       0.00000000       0.00000000       0.00000000
H        3.91166711       8.04880885      10.44532836       0.00000000       0.00000000       0.00000000
H        5.86112405       7.95227195       1.93561401       0.00000000       0.00000000       0.00000000
H        1.72168762       5.24335354       8.98464960       0.00000000       0.00000000       0.00000000
H        1.18174995       6.19424610       3.86293478       0.00000000       0.00000000       0.00000000
H        6.17366583       7.48535699      10.24073694       0.00000000       0.00000000       0.00000000
H        4.13043190       7.55133570       2.03729420       0.00000000       0.00000000       0.00000000
H        0.16100947       5.49368565       8.13719491       0.00000000       0.00000000       0.00000000
H        1.87934756       4.64719033       3.40500522       0.00000000       0.00000000       0.00000000
H        6.45478915       8.57596135       8.91062078       0.00000000       0.00000000       0.00000000
H        2.70644601       0.38644304       3.28852723       0.00000000       0.00000000       0.00000000
H        7.25477397       4.16612961       8.87451955       0.00000000       0.00000000       0.00000000
H        0.35076424       2.95116941       2.28144089       0.00000000       0.00000000       0.00000000
H        4.41711516       1.09482565       8.13976383       0.00000000       0.00000000       0.00000000
H        3.55783358       1.70298001       4.04326228       0.00000000       0.00000000       0.00000000
H        7.55302609       3.09056853      10.19041328       0.00000000       0.00000000       0.00000000
H        7.73716422       3.59243121       2.03465907       0.00000000       0.00000000       0.00000000
H        2.88066329       0.84268623       8.96527690       0.00000000       0.00000000       0.00000000
Pb       4.63911698       4.43974398      12.65038345       0.00000000       0.00000000       0.00000000
Pb       9.02406733       0.20248814       6.19615653       0.00000000       0.00000000       0.00000000
Pb       9.11425231       8.82406027      12.72197745       0.00000000       0.00000000       0.00000000
Pb       4.56201997       4.60259498       6.22248322       0.00000000       0.00000000       0.00000000
I        7.26065656       6.37719979       6.52565646       0.00000000       0.00000000       0.00000000
I        8.75434794       8.84570090       3.05593039       0.00000000       0.00000000       0.00000000
I        6.45076602       1.81810573      12.40942711       0.00000000       0.00000000       0.00000000
I        1.87186264       2.56277955       0.05492122       0.00000000       0.00000000       0.00000000
I        1.91229275       2.68879060       5.92654561       0.00000000       0.00000000       0.00000000
I        2.68954671       7.12637990       5.97610195       0.00000000       0.00000000       0.00000000
I        7.22927674       6.28728141      12.41973277       0.00000000       0.00000000       0.00000000
I        6.38201595       1.95986349       6.51535237       0.00000000       0.00000000       0.00000000
I        4.20448802       4.56171773       9.39562188       0.00000000       0.00000000       0.00000000
I        0.38626013       0.10653738       9.44533482       0.00000000       0.00000000       0.00000000
I        2.71228787       7.01108875       0.08467339       0.00000000       0.00000000       0.00000000
I        4.91014886       4.41227128       2.99487184       0.00000000       0.00000000       0.00000000
48
Lattice="8.96257242529294 0.0020435109028962 -0.0527163242494232 0.0019887669018673 8.835326721727647 -0.0163114868518703 -0.0747908598416521 -0.0237788053342261 12.608797329174168" Properties=species:S:1:pos:R:3:momenta:R:3 config_id=O-FAPI3_mixed_02 phase=O-FAPI3 mode=mixed seed=2868466720 source=O-FAPI3/CONTCAR pbc="T T T"
C        4.52415277       0.31216392       3.12060294       0.00000000       0.00000000       0.00000000
C       -0.05440200       4.02502953       9.47293812       0.00000000       0.00000000       0.00000000
C        0.10451407       4.80780597       3.20346474       0.00000000       0.00000000       0.00000000
C        4.26088726       8.40267084       9.38493888       0.00000000       0.00000000       0.00000000
N        5.07357382       8.26600387       2.34538273       0.00000000       0.00000000       0.00000000
N        0.52986745       4.91968317       8.70043743       0.00000000       0.00000000       0.00000000
N        1.33252004       4.54179511       2.75231802       0.00000000       0.00000000       0.00000000
N        5.65872099       8.20039585       9.31456239       0.00000000       0.00000000       0.00000000
N        3.28288372       0.70142125       2.99793379       0.00000000       0.00000000       0.00000000
N        7.72697652       3.62309135       9.21502217       0.00000000       0.00000000       0.00000000
N        8.00684121       4.43111866       2.47716249       0.00000000       0.00000000       0.00000000
N        3.71557832       0.51406569       8.64134246       0.00000000       0.00000000       0.00000000
H        5.10799980       0.85730853       3.77148946       0.00000000       0.00000000       0.00000000
H        0.64709069       3.52897459      10.12686525       0.00000000       0.00000000       0.00000000
H        0.01474234       5.28139948       4.08044380       0.00000000       0.00000000       0.00000000
H        3.77208543       7.87520045      10.10184133       0.00000000       0.00000000       0.00000000
H        6.11181448       8.05411330       2.45002087       0.00000000       0.00000000       0.00000000
H        1.60866628       5.12793450       8.81905022       0.00000000       0.00000000       0.00000000
H        2.14484287       4.82185416       3.44378756       0.00000000       0.00000000       0.00000000
H        6.02516177       7.43633575      10.00103660       0.00000000       0.00000000       0.00000000
H        4.58069393       7.72515519       1.58826169       0.00000000       0.00000000       0.00000000
H        0.05795736       5.42978127       7.97852645       0.00000000       0.00000000       0.00000000
H        1.54214836       4.16971809       1.91581099       0.00000000       0.00000000       0.00000000
H        6.31961804       8.60519770       8.64191096       0.00000000       0.00000000       0.00000000
H        2.65228622       0.37018861       2.33199030       0.00000000       0.00000000       0.00000000
H        7.14036039       4.01196105       8.63032683       0.00000000       0.00000000       0.00000000
H        8.02958972       3.97469846       1.54835574       0.00000000       0.00000000       0.00000000
H        4.30385530       1.01934883       7.96758624       0.00000000       0.00000000       0.00000000
H        2.86911215       1.42592920       3.68592353       0.00000000       0.00000000       0.00000000
H        7.34071603       3.02724457       9.93413366       0.00000000       0.00000000       0.00000000
H        7.04396040       4.62328931       2.92235253       0.00000000       0.00000000       0.00000000
H        2.78599266       0.57017731       8.78834990       0.00000000       0.00000000       0.00000000
Pb       4.46400022       4.18354432      12.30453620       0.00000000       0.00000000       0.00000000
Pb       0.00092861       0.08748139       5.99626762       0.00000000       0.00000000       0.00000000
Pb       8.88412060       8.68273202      12.34004571       0.00000000       0.00000000       0.00000000
Pb       4.42699445       4.49812961       6.01622896       0.00000000       0.00000000       0.00000000
I        7.09898293       6.21715349       6.33366098       0.00000000       0.00000000       0.00000000
I        8.63604588       8.76106019       2.79927920       0.00000000       0.00000000       0.00000000
I        6.27573011       1.73455436      12.11058653       0.00000000       0.00000000       0.00000000
I        1.82669233       2.55042134       0.00082391       0.00000000       0.00000000       0.00000000
I        1.82353313       2.64713010       5.79787118       0.00000000       0.00000000       0.00000000
I        2.66029476       7.09159022       5.80327704       0.00000000       0.00000000       0.00000000
I        7.06523743       6.16014093      12.05492984       0.00000000       0.00000000       0.00000000
I        6.31011491       1.81656004       6.35133529       0.00000000       0.00000000       0.00000000
I        4.13030486       4.50693294       9.15284534       0.00000000       0.00000000       0.00000000
I        0.29398538       0.01306819       9.30320480       0.00000000       0.00000000       0.00000000
I        2.65500845       7.00485811       0.04161654       0.00000000       0.00000000       0.00000000
I        4.79302870       4.35505531       2.86491959       0.00000000       0.00000000       0.00000000
48
Lattice="8.995920061915555 -0.0124754731687147 0.002767739889501 -0.0121412653526387 8.800104980006719 0.0572130806922246 0.003926708644829 0.0834049477344726 12.607563305671283" Properties=species:S:1:pos:R:3:momenta:R:3 config_id=O-FAPI3_mixed_03 phase=O-FAPI3 mode=mixed seed=888324749 source=O-FAPI3/CONTCAR pbc="T T T"
C        4.52355065       0.34842619       3.14880367       0.00000000       0.00000000       0.00000000
C        0.02497656       4.18934614       9.52497704       0.00000000       0.00000000       0.00000000
C        8.90731323       4.83148398       3.17818001       0.00000000       0.00000000       0.00000000
C        4.43015041       8.59852409       9.54722020       0.00000000       0.00000000       0.00000000
N        4.94714685       7.96286381       2.75531989       0.00000000       0.00000000       0.00000000
N        0.48911476       5.16836609       8.77042763       0.00000000       0.00000000       0.00000000
N        1.20963929       5.09999386       3.10120670       0.00000000       0.00000000       0.00000000
N        5.68242580       8.47330740       9.77733635       0.00000000       0.00000000       0.00000000
N        3.56042197       1.05002467       2.66242905       0.00000000       0.00000000       0.00000000
N        7.96206715       3.48746509       9.25405345       0.00000000       0.00000000       0.00000000
N        8.33994210       3.82197899       2.37222077       0.00000000       0.00000000       0.00000000
N        3.86757311       0.18258807       8.28113759       0.00000000       0.00000000       0.00000000
H        5.08906251       0.75457903       4.01416146       0.00000000       0.00000000       0.00000000
H        0.61470773       4.00780404      10.38895318       0.00000000       0.00000000       0.00000000
H        8.28362734       5.41307552       3.77246911       0.00000000       0.00000000       0.00000000
H        3.70418189       8.36865543      10.30519607       0.00000000       0.00000000       0.00000000
H        5.72800480       7.53994129       3.22499949       0.00000000       0.00000000       0.00000000
H        1.36238406       5.70150408       9.01228393       0.00000000       0.00000000       0.00000000
H        1.51767672       5.77179911       3.73789464       0.00000000       0.00000000       0.00000000
H        5.99891591       8.26367054      10.69662797       0.00000000       0.00000000       0.00000000
H        4.47703411       7.50778394       2.01157957       0.00000000       0.00000000       0.00000000
H        0.00628651       5.43329985       7.89196670       0.00000000       0.00000000       0.00000000
H        1.82670365       4.60078659       2.51098711       0.00000000       0.00000000       0.00000000
H        6.40880733       8.68509670       8.98824775       0.00000000       0.00000000       0.00000000
H        3.00032543       0.73991660       1.88746480       0.00000000       0.00000000       0.00000000
H        7.39077213       3.57849014       8.48091664       0.00000000       0.00000000       0.00000000
H        8.87793680       3.29423639       1.71851873       0.00000000       0.00000000       0.00000000
H        4.41995746       0.37085377       7.51153242       0.00000000       0.00000000       0.00000000
H        3.21894053       1.91299486       3.06052417       0.00000000       0.00000000       0.00000000
H        7.68239329       2.81906326       9.90535011       0.00000000       0.00000000       0.00000000
H        7.33727825       3.73275639       2.43236744       0.00000000       0.00000000       0.00000000
H        2.84711976       0.10613711       8.22535623       0.00000000       0.00000000       0.00000000
Pb       4.47361937       4.35583944      12.42819463       0.00000000       0.00000000       0.00000000
Pb       0.01543093       0.16514721       6.08233521       0.00000000       0.00000000       0.00000000
Pb       8.95210219       8.70942743      12.44075746       0.00000000       0.00000000       0.00000000
Pb       4.47791476       4.51584519       6.09845445       0.00000000       0.00000000       0.00000000
I        7.13500379       6.28843711       6.40974534       0.00000000       0.00000000       0.00000000
I        8.64289658       8.74599139       3.01121438       0.00000000       0.00000000       0.00000000
I        6.35907102       1.76578071      12.08698973       0.00000000       0.00000000       0.00000000
I        1.83475552       2.56186161       0.05538133       0.00000000       0.00000000       0.00000000
I        1.81694159       2.67566099       5.80703789       0.00000000       0.00000000       0.00000000
I        2.59615699       7.08757971       5.89660453       0.00000000       0.00000000       0.00000000
I        7.12046792       6.21997680      12.17983576       0.00000000       0.00000000       0.00000000
I        6.36567343       1.90877997       6.34407273       0.00000000       0.00000000       0.00000000
I        4.19654497       4.51431848       9.30353607       0.00000000       0.00000000       0.00000000
I        0.37547090       0.12361949       9.22407862       0.00000000       0.00000000       0.00000000
I        2.69697276       6.90687790       0.07325098       0.00000000       0.00000000       0.00000000
I        4.82947065       4.32912775       2.94796200       0.00000000       0.00000000       0.00000000
48
Lattice="9.033353728121911 0.0394612576527039 -0.0351143707217324 0.0384041225395608 8.860996755078864 0.0125342708053779 -0.0498182302440337 0.0182723983530281 12.710329384838431" Properties=species:S:1:pos:R:3:momenta:R:3 config_id=O-FAPI3_mixed_04 phase=O-FAPI3 mode=mixed seed=4012514917 source=O-FAPI3/CONTCAR pbc="T T T"
C        4.65979380       0.27701092       3.14825040       0.00000000       0.00000000       0.00000000
C        8.92398681       3.99932861       9.44127730       0.00000000       0.00000000       0.00000000
C        8.97319789       4.81130904       3.16416550       0.00000000       0.00000000       0.00000000
C        4.49912189       8.45478029       9.55785598       0.00000000       0.00000000       0.00000000
N        5.25821870       8.26708905       2.38713561       0.00000000       0.00000000       0.00000000
N        0.85878337       4.68883494       8.74344600       0.00000000       0.00000000       0.00000000
N        1.15879809       5.27261868       3.06161829       0.00000000       0.00000000       0.00000000
N        5.82070061       8.25951225       9.42355371       0.00000000       0.00000000       0.00000000
N        3.21271714       0.76052200       3.13065242       0.00000000       0.00000000       0.00000000
N        7.64641263       4.20348216       9.26423423       0.00000000       0.00000000       0.00000000
N        8.44069636       3.86255981       2.42283326       0.00000000       0.00000000       0.00000000
N        3.71478578       0.46474385       8.79434429       0.00000000       0.00000000       0.00000000
H        5.23053250       0.95653430       3.85408197       0.00000000       0.00000000       0.00000000
H        0.24520033       3.12392038      10.15077291       0.00000000       0.00000000       0.00000000
H        8.36184536       5.38682619       3.83071575       0.00000000       0.00000000       0.00000000
H        3.95162779       7.96680616      10.41077041       0.00000000       0.00000000       0.00000000
H        6.27781154       8.21009399       2.50913494       0.00000000       0.00000000       0.00000000
H        1.79452747       4.30802425       8.90136462       0.00000000       0.00000000       0.00000000
H        1.58010451       5.89647963       3.71925233       0.00000000       0.00000000       0.00000000
H        6.17912351       7.78492846      10.12079575       0.00000000       0.00000000       0.00000000
H        4.64075400       7.88751952       1.66324679       0.00000000       0.00000000       0.00000000
H        0.62142385       5.44226845       8.13946247       0.00000000       0.00000000       0.00000000
H        1.91019448       4.69851003       2.38778168       0.00000000       0.00000000       0.00000000
H        6.31196402       8.72581733       8.69331756       0.00000000       0.00000000       0.00000000
H        2.74027043       0.39041799       2.27175378       0.00000000       0.00000000       0.00000000
H        7.29622687       4.94917977       8.74065451       0.00000000       0.00000000       0.00000000
H        8.88019407       3.47439753       1.63702629       0.00000000       0.00000000       0.00000000
H        4.22453560       0.93840054       7.86408969       0.00000000       0.00000000       0.00000000
H        2.93374784       1.41626822       3.71965895       0.00000000       0.00000000       0.00000000
H        6.96050922       3.66495585       9.89741367       0.00000000       0.00000000       0.00000000
H        7.36839785       3.68933137       2.49253888       0.00000000       0.00000000       0.00000000
H        2.73723751       0.48195564       8.86575338       0.00000000       0.00000000       0.00000000
Pb       4.58861280       4.39859838      12.45858524       0.00000000       0.00000000       0.00000000
Pb       9.00164491       0.23111853       6.08952474       0.00000000       0.00000000       0.00000000
Pb       0.00110723       8.71360607      12.51396685       0.00000000       0.00000000       0.00000000
Pb       4.49195344       4.61618743       6.08284992       0.00000000       0.00000000       0.00000000
I        7.21249469       6.26686339       6.32408724       0.00000000       0.00000000       0.00000000
I        8.75100987       8.85596747       2.93238986       0.00000000       0.00000000       0.00000000
I        6.30663944       1.74551638      12.18653621       0.00000000       0.00000000       0.00000000
I        1.77774725       2.60832032      12.69083831       0.00000000       0.00000000       0.00000000
I        1.81252687       2.67581387       5.83182398       0.00000000       0.00000000       0.00000000
I        2.64642331       7.06935951       5.88886231       0.00000000       0.00000000       0.00000000
I        7.19276734       6.23928067      12.19211960       0.00000000       0.00000000       0.00000000
I        6.34914586       1.89621664       6.40449272       0.00000000       0.00000000       0.00000000
I        4.18336946       4.49239385       9.32888025       0.00000000       0.00000000       0.00000000
I        0.22637967       0.02162395       9.35159164       0.00000000       0.00000000       0.00000000
I        2.73249842       6.95945612       0.01399109       0.00000000       0.00000000       0.00000000
I        4.94243138       4.38114861       2.89126625       0.00000000       0.00000000       0.00000000
48
Lattice="9.064358991476142 0.0623693411203545 -0.0175177151905608 0.0606985170158063 8.833843322299382 0.0262203363762952 -0.0248531171362455 0.0382238774522484 12.707682365598963" Properties=species:S:1:pos:R:3:momenta:R:3 config_id=O-FAPI3_mixed_05 phase=O-FAPI3 mode=mixed seed=1195945496 source=O-FAPI3/CONTCAR pbc="T T T"
C        4.60016057       0.44228757       3.12946342       0.00000000       0.00000000       0.00000000
C        0.08672335       4.07155917       9.53363401       0.00000000       0.00000000       0.00000000
C        9.00876992       4.93502739       2.97384294       0.00000000       0.00000000       0.00000000
C        4.57820069       8.56560462       9.53713479       0.00000000       0.00000000       0.00000000
N        5.23140630       8.27080784       2.47057565       0.00000000       0.00000000       0.00000000
N        0.66283750       5.00931263       8.75730212       0.00000000       0.00000000       0.00000000
N        1.16476567       5.13836288       3.23101079       0.00000000       0.00000000       0.00000000
N        5.85621989       8.34896712       9.46188187       0.00000000       0.00000000       0.00000000
N        3.35706450       0.79199585       3.04123261       0.00000000       0.00000000       0.00000000
N        7.86256527       3.76753222       9.40708685       0.00000000       0.00000000       0.00000000
N        8.51176356       3.88098142       2.35671481       0.00000000       0.00000000       0.00000000
N        3.77514189       0.38801382       8.66173546       0.00000000       0.00000000       0.00000000
H        5.23823554       0.93012475       3.88124916       0.00000000       0.00000000       0.00000000
H        0.69892095       3.59519702      10.21359393       0.00000000       0.00000000       0.00000000
H        8.27349858       5.67121659       3.34196119       0.00000000       0.00000000       0.00000000
H        4.03173197       8.21305732      10.45457938       0.00000000       0.00000000       0.00000000
H        6.21137767       8.07147015       2.56749525       0.00000000       0.00000000       0.00000000
H        1.69014503       5.20484952       8.84081246       0.00000000       0.00000000       0.00000000
H        1.47106318       5.93730086       3.80242469       0.00000000       0.00000000       0.00000000
H        6.32304522       7.88728439      10.23634206       0.00000000       0.00000000       0.00000000
H        4.69604445       7.76032936       1.76340030       0.00000000       0.00000000       0.00000000
H        0.11297599       5.51616138       8.03681939       0.00000000       0.00000000       0.00000000
H        1.97341594       4.48358272       2.95565880       0.00000000       0.00000000       0.00000000
H        6.39968627       8.68298623       8.68930637       0.00000000       0.00000000       0.00000000
H        2.68530574       0.33492177       2.40216543       0.00000000       0.00000000       0.00000000
H        7.21580014       4.14194561       8.73394667       0.00000000       0.00000000       0.00000000
H        0.04706835       3.09718318       2.00104318       0.00000000       0.00000000       0.00000000
H        4.17425003       0.77669414       7.81579672       0.00000000       0.00000000       0.00000000
H        2.98392037       1.52267285       3.60827877       0.00000000       0.00000000       0.00000000
H        7.50644371       3.08296849      10.06040530       0.00000000       0.00000000       0.00000000
H        7.48096757       3.83657284       2.18298912       0.00000000       0.00000000       0.00000000
H        2.80191618       0.51033942       8.81206794       0.00000000       0.00000000       0.00000000
Pb       4.52986316       4.35287694      12.48210609       0.00000000       0.00000000       0.00000000
Pb       0.02256208       0.13423810       6.10020078       0.00000000       0.00000000       0.00000000
Pb       9.08533063       8.82856627      12.49192629       0.00000000       0.00000000       0.00000000
Pb       4.55643603       4.60148860       6.13691899       0.00000000       0.00000000       0.00000000
I        7.24677062       6.36892411       6.42156882       0.00000000       0.00000000       0.00000000
I        8.79462220       8.84891491       2.94975709       0.00000000       0.00000000       0.00000000
I        6.39907621       1.79608327      12.20727051       0.00000000       0.00000000       0.00000000
I        1.83485767       2.57354031       0.05986071       0.00000000       0.00000000       0.00000000
I        1.85351249       2.72966334       5.85156755       0.00000000       0.00000000       0.00000000
I        2.66732699       7.13702478       5.89044833       0.00000000       0.00000000       0.00000000
I        7.22601558       6.19000912      12.24635771       0.00000000       0.00000000       0.00000000
I        6.38043984       1.92992768       6.34422573       0.00000000       0.00000000       0.00000000
I        4.20192455       4.49719464       9.31410490       0.00000000       0.00000000       0.00000000
I        0.37130208       0.06157385       9.32138684       0.00000000       0.00000000       0.00000000
I        2.71188861       7.01850645       0.02356805       0.00000000       0.00000000       0.00000000
I        4.91083022       4.40490602       2.96823887       0.00000000       0.00000000       0.00000000
48
Lattice="8.944114682302077 -0.0565351877081033 0.0443676701724223 -0.0550206558454758 8.674602115827525 -0.0121169976047155 0.0629462742065631 -0.017664099532703 12.678519275415693" Properties=species:S:1:pos:R:3:momenta:R:3 config_id=O-FAPI3_mixed_06 phase=O-FAPI3 mode=mixed seed=3513950248 source=O-FAPI3/CONTCAR pbc="T T T"
C        4.26632138       0.40061352       3.23992946       0.00000000       0.00000000       0.00000000
C        0.10182481       3.95551113       9.38229151       0.00000000       0.00000000       0.00000000
C        8.75810953       4.63233276       3.15182794       0.00000000       0.00000000       0.00000000
C        4.33237021       8.34422246       9.41305429       0.00000000       0.00000000       0.00000000
N        5.20349195       8.08875980       3.15276935       0.00000000       0.00000000       0.00000000
N        0.64740326       4.89605217       8.70282162       0.00000000       0.00000000       0.00000000
N        1.15107434       4.94998137       3.21859623       0.00000000       0.00000000       0.00000000
N        5.51914689       7.64591484       9.43491602       0.00000000       0.00000000       0.00000000
N        3.38280968       0.63710026       2.37941466       0.00000000       0.00000000       0.00000000
N        7.77640210       3.51883917       9.41845145       0.00000000       0.00000000       0.00000000
N        8.31371539       3.81483333       2.17452210       0.00000000       0.00000000       0.00000000
N        4.11636073       0.74771905       8.74128510       0.00000000       0.00000000       0.00000000
H        4.39936281       1.09826683       4.07040014       0.00000000       0.00000000       0.00000000
H        0.71219219       3.51449349      10.21269944       0.00000000       0.00000000       0.00000000
H        8.11663087       5.10754625       3.78198389       0.00000000       0.00000000       0.00000000
H        3.60642608       7.85380635      10.08838031       0.00000000       0.00000000       0.00000000
H        5.86650289       8.05099961       3.78797413       0.00000000       0.00000000       0.00000000
H        1.52394557       5.06040453       8.90311788       0.00000000       0.00000000       0.00000000
H        1.38540628       5.61018482       4.03132929       0.00000000       0.00000000       0.00000000
H        5.71590584       6.83868301      10.06483173       0.00000000       0.00000000       0.00000000
H        5.20039038       7.48131252       2.35543602       0.00000000       0.00000000       0.00000000
H        0.17729735       5.39519540       8.03344588       0.00000000       0.00000000       0.00000000
H        1.88764416       4.48835234       2.70715352       0.00000000       0.00000000       0.00000000
H        6.25223402       7.96529381       8.79927176       0.00000000       0.00000000       0.00000000
H        3.28546786       0.00486645       1.52193744       0.00000000       0.00000000       0.00000000
H        7.07427213       3.97931974       8.76718498       0.00000000       0.00000000       0.00000000
H        0.00716858       3.38360298       1.56780287       0.00000000       0.00000000       0.00000000
H        4.78271576       1.14375447       8.18216212       0.00000000       0.00000000       0.00000000
H        2.70666344       1.28672758       2.46067846       0.00000000       0.00000000       0.00000000
H        7.42856443       2.86475206      10.07869667       0.00000000       0.00000000       0.00000000
H        7.26489382       3.77476835       2.10346015       0.00000000       0.00000000       0.00000000
H        3.16368345       1.05049699       8.83663996       0.00000000       0.00000000       0.00000000
Pb       4.58331119       4.21488938      12.44828293       0.00000000       0.00000000       0.00000000
Pb       0.05047873       0.07710498       6.10290846       0.00000000       0.00000000       0.00000000
Pb       8.92903537       8.48857143      12.46935411       0.00000000       0.00000000       0.00000000
Pb       4.42821948       4.37484122       6.08417430       0.00000000       0.00000000       0.00000000
I        7.03249725       6.09594258       6.44327941       0.00000000       0.00000000       0.00000000
I        8.56132992       8.52637459       2.98545942       0.00000000       0.00000000       0.00000000
I        6.31014875       1.64582251      12.15694293       0.00000000       0.00000000       0.00000000
I        1.86640542       2.50351774       0.05786266       0.00000000       0.00000000       0.00000000
I        1.88249387       2.56794315       5.88618888       0.00000000       0.00000000       0.00000000
I        2.58955851       6.96014362       5.83476507       0.00000000       0.00000000       0.00000000
I        7.05449743       6.01308873      12.21807533       0.00000000       0.00000000       0.00000000
I        6.23559217       1.75660444       6.36125828       0.00000000       0.00000000       0.00000000
I        4.11497896       4.35208872       9.29039139       0.00000000       0.00000000       0.00000000
I        0.49424607       0.00291724       9.27968587       0.00000000       0.00000000       0.00000000
I        2.60594790       6.79803171       0.04941254       0.00000000       0.00000000       0.00000000
I        4.87980701       4.19025121       2.99251381       0.00000000       0.00000000       0.00000000
48
Lattice="8.971878978082621 -0.0217262948020257 0.0190840094686991 -0.0211442649712521 8.745479319205408 0.0144648969872603 0.0270752845102976 0.0210868557086969 12.946309381735071" Properties=species:S:1:pos:R:3:momenta:R:3 config_id=O-FAPI3_mixed_07 phase=O-FAPI3 mode=mixed seed=1231405104 source=O-FAPI3/CONTCAR pbc="T T T"
C        4.55079103       0.30995715       3.22220303       0.00000000       0.00000000       0.00000000
C        0.07498988       4.03739961       9.72994204       0.00000000       0.00000000       0.00000000
C        8.86765633       4.69918871       3.19214229       0.00000000       0.00000000       0.00000000
C        4.38326600       8.35448580       9.70388975       0.00000000       0.00000000       0.00000000
N        4.97525731       8.12669234       2.41027539       0.00000000       0.00000000       0.00000000
N        0.64139830       4.93610829       8.95794045       0.00000000       0.00000000       0.00000000
N        1.14828207       5.10288696       3.13294763       0.00000000       0.00000000       0.00000000
N        5.67911157       8.00705384       9.64924356       0.00000000       0.00000000       0.00000000
N        3.40591009       0.77180623       3.21298324       0.00000000       0.00000000       0.00000000
N        7.81014729       3.62199785       9.62950040       0.00000000       0.00000000       0.00000000
N        8.33952396       3.76503675       2.47754366       0.00000000       0.00000000       0.00000000
N        3.82810044       0.52806926       8.93322926       0.00000000       0.00000000       0.00000000
H        5.30238488       0.74127661       3.91458011       0.00000000       0.00000000       0.00000000
H        0.70216440       3.54520232      10.46301045       0.00000000       0.00000000       0.00000000
H        8.27485602       5.19628289       3.99897026       0.00000000       0.00000000       0.00000000
H        3.79755146       7.89805098      10.50230485       0.00000000       0.00000000       0.00000000
H        5.99721210       7.85715550       2.39553893       0.00000000       0.00000000       0.00000000
H        1.61238746       5.11985868       9.04878048       0.00000000       0.00000000       0.00000000
H        1.55078061       5.82248811       3.80734224       0.00000000       0.00000000       0.00000000
H        6.05417751       7.33780053      10.27617916       0.00000000       0.00000000       0.00000000
H        4.40450358       7.69021358       1.67975399       0.00000000       0.00000000       0.00000000
H        0.12643129       5.47162196       8.17819068       0.00000000       0.00000000       0.00000000
H        1.80388982       4.71866062       2.48104650       0.00000000       0.00000000       0.00000000
H        6.30769106       8.42690878       8.94700757       0.00000000       0.00000000       0.00000000
H        2.66521936       0.43701488       2.62679292       0.00000000       0.00000000       0.00000000
H        7.15800646       4.03809309       8.92525191       0.00000000       0.00000000       0.00000000
H        8.84124909       3.29028836       1.72614828       0.00000000       0.00000000       0.00000000
H        4.38822316       1.08346475       8.17970883       0.00000000       0.00000000       0.00000000
H        3.14905672       1.46839980       3.93227525       0.00000000       0.00000000       0.00000000
H        7.43981840       2.92470211      10.26031847       0.00000000       0.00000000       0.00000000
H        7.33792305       3.67259202       2.58342213       0.00000000       0.00000000       0.00000000
H        2.89469835       0.73510372       9.08186346       0.00000000       0.00000000       0.00000000
Pb       4.50090552       4.25659714      12.66453033       0.00000000       0.00000000       0.00000000
Pb       0.02928246       0.10380404       6.24772631       0.00000000       0.00000000       0.00000000
Pb       0.02047420       8.64749343      12.71465621       0.00000000       0.00000000       0.00000000
Pb       4.45675691       4.52397042       6.21332183       0.00000000       0.00000000       0.00000000
I        7.12168843       6.18038310       6.57788620       0.00000000       0.00000000       0.00000000
I        8.62699689       8.68414477       3.01380058       0.00000000       0.00000000       0.00000000
I        6.39283199       1.70696986      12.46930222       0.00000000       0.00000000       0.00000000
I        1.83081884       2.50668840       0.05213431       0.00000000       0.00000000       0.00000000
I        1.86753918       2.65035110       5.99368649       0.00000000       0.00000000       0.00000000
I        2.67048057       7.01659287       6.01315761       0.00000000       0.00000000       0.00000000
I        7.14344164       6.08176548      12.49093564       0.00000000       0.00000000       0.00000000
I        6.31067190       1.79500784       6.52085326       0.00000000       0.00000000       0.00000000
I        4.14061298       4.41687562       9.52683502       0.00000000       0.00000000       0.00000000
I        0.38618971       0.04383852       9.46306232       0.00000000       0.00000000       0.00000000
I        2.65396972       6.97051902       0.05237116       0.00000000       0.00000000       0.00000000
I        4.81710605       4.31635649       3.02600676       0.00000000       0.00000000       0.00000000
48
Lattice="9.017954501009886 0.02048879792140044 0.005930797561256415 0.019939919629192206 8.903773721365944 -0.004296516174930687 0.008414271204768113 -0.00626344015520057 12.976726111397072" Properties=species:S:1:pos:R:3:momenta:R:3 config_id=O-FAPI3_mixed_08 phase=O-FAPI3 mode=mixed seed=3909983353 source=O-FAPI3/CONTCAR pbc="T T T"
C        4.59486985       0.37315911       3.20034105       0.00000000       0.00000000       0.00000000
C        0.10930197       4.10681942       9.68471881       0.00000000       0.00000000       0.00000000
C        0.13387445       4.92073411       3.29133479       0.00000000       0.00000000       0.00000000
C        4.44158850       8.56350674       9.69000772       0.00000000       0.00000000       0.00000000
N        5.19249686       8.33218291       2.47325036       0.00000000       0.00000000       0.00000000
N        0.62732766       5.05772489       8.99886851       0.00000000       0.00000000       0.00000000
N        1.14108486       5.06896299       2.52986692       0.00000000       0.00000000       0.00000000
N        5.36173638       7.75834437       9.18239094       0.00000000       0.00000000       0.00000000
N        3.33091468       0.73650624       3.02184206       0.00000000       0.00000000       0.00000000
N        7.85328404       3.69773720       9.59930815       0.00000000       0.00000000       0.00000000
N        8.22520477       3.96191368       3.12584286       0.00000000       0.00000000       0.00000000
N        4.28233721       0.95359888       9.40960335       0.00000000       0.00000000       0.00000000
H        5.23026302       0.89613341       4.00322790       0.00000000       0.00000000       0.00000000
H        0.69471148       3.55852234      10.49019692       0.00000000       0.00000000       0.00000000
H        0.14190033       5.57270323       4.18538942       0.00000000       0.00000000       0.00000000
H        3.68322956       8.07723680      10.39389850       0.00000000       0.00000000       0.00000000
H        6.17705878       8.20651985       2.59153754       0.00000000       0.00000000       0.00000000
H        1.66883757       5.16497252       9.02137437       0.00000000       0.00000000       0.00000000
H        1.89095435       5.76839855       2.67548488       0.00000000       0.00000000       0.00000000
H        5.42093659       6.85431255       9.55058273       0.00000000       0.00000000       0.00000000
H        4.65880272       7.84189895       1.67718113       0.00000000       0.00000000       0.00000000
H        0.17214554       5.48953130       8.18755624       0.00000000       0.00000000       0.00000000
H        1.37215022       4.48268915       1.60915620       0.00000000       0.00000000       0.00000000
H        6.09200676       8.11976967       8.51675357       0.00000000       0.00000000       0.00000000
H        2.69119355       0.33981420       2.47123402       0.00000000       0.00000000       0.00000000
H        7.19342551       4.16753106       8.91710456       0.00000000       0.00000000       0.00000000
H        8.19786447       3.39513302       2.19213899       0.00000000       0.00000000       0.00000000
H        4.89745767       1.45491783       8.65336894       0.00000000       0.00000000       0.00000000
H        2.96902176       1.40941385       3.76186568       0.00000000       0.00000000       0.00000000
H        7.39892687       3.05018340      10.25316358       0.00000000       0.00000000       0.00000000
H        7.44185193       4.01280404       3.66197896       0.00000000       0.00000000       0.00000000
H        3.42943043       1.49070726       9.71156152       0.00000000       0.00000000       0.00000000
Pb       4.54655525       4.28185569      12.74967832       0.00000000       0.00000000       0.00000000
Pb       8.99637730       0.09277200       6.26677310       0.00000000       0.00000000       0.00000000
Pb       9.04485122       8.78382243      12.77342615       0.00000000       0.00000000       0.00000000
Pb       4.48971989       4.57416381       6.21384569       0.00000000       0.00000000       0.00000000
I        7.09017049       6.28807282       6.47673550       0.00000000       0.00000000       0.00000000
I        8.73736005       8.85888507       3.00139388       0.00000000       0.00000000       0.00000000
I        6.38476410       1.74426738      12.47812241       0.00000000       0.00000000       0.00000000
I        1.84251299       2.54072581       0.02337107       0.00000000       0.00000000       0.00000000
I        1.89833394       2.65741824       5.99585197       0.00000000       0.00000000       0.00000000
I        2.72654792       7.16552736       5.95980236       0.00000000       0.00000000       0.00000000
I        7.17144481       6.15238222      12.45549737       0.00000000       0.00000000       0.00000000
I        6.27912488       1.88546036       6.48580819       0.00000000       0.00000000       0.00000000
I        4.15861427       4.53024255       9.50136216       0.00000000       0.00000000       0.00000000
I        0.33410665       0.07333269       9.47707965       0.00000000       0.00000000       0.00000000
I        2.65131358       7.02760437       0.02202587       0.00000000       0.00000000       0.00000000
I        4.91753929       4.40040663       3.02901869       0.00000000       0.00000000       0.00000000
48
Lattice="8.951399079877701 0.04460633494786281 -0.053181227492222614 0.0434113673835491 8.716429872690037 0.017204241348812654 -0.07545043756766401 0.0250802584504767 12.745568143565329" Properties=species:S:1:pos:R:3:momenta:R:3 config_id=O-FAPI3_mixed_09 phase=O-FAPI3 mode=mixed seed=3185068890 source=O-FAPI3/CONTCAR pbc="T T T"
C        4.53804156       0.41298422       3.05531775       0.00000000       0.00000000       0.00000000
C       -0.02402111       4.11378516       9.67300454       0.00000000       0.00000000       0.00000000
C        0.12858211       4.56115251       3.23740062       0.00000000       0.00000000       0.00000000
C        4.49134471       8.35925731       9.56879884       0.00000000       0.00000000       0.00000000
N        4.88426461       7.91972694       2.97615140       0.00000000       0.00000000       0.00000000
N        0.86377885       4.39108233       8.77202654       0.00000000       0.00000000       0.00000000
N        1.22936331       5.02307519       2.73090272       0.00000000       0.00000000       0.00000000
N        5.66718142       8.03392345       9.06101732       0.00000000       0.00000000       0.00000000
N        3.39332166       0.96336730       2.50167305       0.00000000       0.00000000       0.00000000
N        7.65662525       4.16355618       9.36326996       0.00000000       0.00000000       0.00000000
N        8.12317961       4.03645852       2.61569643       0.00000000       0.00000000       0.00000000
N        3.63899943       0.59321349       9.09832800       0.00000000       0.00000000       0.00000000
H        5.18177608       1.12263773       3.61371938       0.00000000       0.00000000       0.00000000
H        0.24255888       3.91920652      10.64472992       0.00000000       0.00000000       0.00000000
H        0.03226645       4.58552575       4.32485891       0.00000000       0.00000000       0.00000000
H        4.20785304       7.85935018      10.46197819       0.00000000       0.00000000       0.00000000
H        5.79601944       7.58474060       3.40727280       0.00000000       0.00000000       0.00000000
H        1.80401112       4.28991661       9.01202442       0.00000000       0.00000000       0.00000000
H        1.92483796       5.44977627       3.42016407       0.00000000       0.00000000       0.00000000
H        6.26984974       7.35748174       9.49200677       0.00000000       0.00000000       0.00000000
H        4.37745778       7.25865011       2.47388992       0.00000000       0.00000000       0.00000000
H        0.65578764       4.62129937       7.82566354       0.00000000       0.00000000       0.00000000
H        1.39035332       4.95418115       1.78279260       0.00000000       0.00000000       0.00000000
H        6.05751318       8.52298592       8.20957183       0.00000000       0.00000000       0.00000000
H        2.79416078       0.39215095       2.02510523       0.00000000       0.00000000       0.00000000
H        7.18487446       4.36478876       8.46850864       0.00000000       0.00000000       0.00000000
H        8.13543919       3.95264948       1.50977331       0.00000000       0.00000000       0.00000000
H        3.90655555       1.10743459       8.24256476       0.00000000       0.00000000       0.00000000
H        3.23562372       1.96129447       2.73371493       0.00000000       0.00000000       0.00000000
H        6.95281658       3.92443081      10.10886551       0.00000000       0.00000000       0.00000000
H        7.25666494       3.72870358       3.11265123       0.00000000       0.00000000       0.00000000
H        2.78747852       0.71167677       9.54214877       0.00000000       0.00000000       0.00000000
Pb       4.46081058       4.33952046      12.51352024       0.00000000       0.00000000       0.00000000
Pb      -0.00596413       0.13503334       6.12073268       0.00000000       0.00000000       0.00000000
Pb       8.87535674       8.67807314      12.43727442       0.00000000       0.00000000       0.00000000
Pb       4.41705005       4.50576556       6.10032287       0.00000000       0.00000000       0.00000000
I        7.11783433       6.27094399       6.42480554       0.00000000       0.00000000       0.00000000
I        8.61716954       8.76164789       2.93931650       0.00000000       0.00000000       0.00000000
I        6.21992356       1.79016409      12.26556110       0.00000000       0.00000000       0.00000000
I        1.76030860       2.51795217      12.72884342       0.00000000       0.00000000       0.00000000
I        1.81670306       2.65661128       5.84212364       0.00000000       0.00000000       0.00000000
I        2.57588509       6.97150890       5.89912891       0.00000000       0.00000000       0.00000000
I        7.05391309       6.10680117      12.16432130       0.00000000       0.00000000       0.00000000
I        6.27024863       1.87020743       6.36051181       0.00000000       0.00000000       0.00000000
I        4.07858209       4.45304086       9.34533322       0.00000000       0.00000000       0.00000000
I        0.28479338       0.04927834       9.31377259       0.00000000       0.00000000       0.00000000
I        2.68783841       6.89081309       0.03894163       0.00000000       0.00000000       0.00000000
I        4.83697353       4.32006614       2.92808398       0.00000000       0.00000000       0.00000000
48
Lattice="8.927073047237116 0.06240288526191512 0.046152537523383996 0.060731162536998645 8.811848921347814 0.02656763891438771 0.065478540364767 0.03873017338470272 12.724256243094903" Properties=species:S:1:pos:R:3:momenta:R:3 config_id=O-FAPI3_mixed_10 phase=O-FAPI3 mode=mixed seed=443631424 source=O-FAPI3/CONTCAR pbc="T T T"
C        4.71846131       0.21280779       3.01087941       0.00000000       0.00000000       0.00000000
C        0.15062901       4.06936773       9.54015571       0.00000000       0.00000000       0.00000000
C        8.92310677       4.84929244       3.23038934       0.00000000       0.00000000       0.00000000
C        4.59145207       8.39916376       9.54377004       0.00000000       0.00000000       0.00000000
N        4.41388049       8.04234879       2.25557576       0.00000000       0.00000000       0.00000000
N        0.74208798       4.98981033       8.81425342       0.00000000       0.00000000       0.00000000
N        1.23632874       5.14954614       3.04079377       0.00000000       0.00000000       0.00000000
N        5.84628993       8.51224374       9.45747203       0.00000000       0.00000000       0.00000000
N        3.93448044       1.18200568       3.38754347       0.00000000       0.00000000       0.00000000
N        7.83242598       3.76707330       9.47187148       0.00000000       0.00000000       0.00000000
N        8.29653392       3.93882394       2.50776163       0.00000000       0.00000000       0.00000000
N        3.66499545       0.33301799       8.82837003       0.00000000       0.00000000       0.00000000
H        5.72997741       0.15205957       3.47278359       0.00000000       0.00000000       0.00000000
H        0.74833562       3.59125384      10.26251710       0.00000000       0.00000000       0.00000000
H        8.37317452       5.30921620       4.01473670       0.00000000       0.00000000       0.00000000
H        4.17988776       7.68057147      10.20941373       0.00000000       0.00000000       0.00000000
H        5.11200730       7.37948603       1.97208841       0.00000000       0.00000000       0.00000000
H        1.73739259       5.20182336       8.92117959       0.00000000       0.00000000       0.00000000
H        1.67802081       5.83457188       3.70338501       0.00000000       0.00000000       0.00000000
H        6.44424796       7.96866560      10.06154649       0.00000000       0.00000000       0.00000000
H        3.49261153       8.04970167       1.80826004       0.00000000       0.00000000       0.00000000
H        0.21739045       5.51181269       8.04769184       0.00000000       0.00000000       0.00000000
H        1.83446408       4.73644110       2.35134092       0.00000000       0.00000000       0.00000000
H        6.27750921       0.37614557       8.82488786       0.00000000       0.00000000       0.00000000
H        2.99146533       1.31380721       3.01066311       0.00000000       0.00000000       0.00000000
H        7.22601739       4.16802843       8.81196447       0.00000000       0.00000000       0.00000000
H        8.75177081       3.42835835       1.74170035       0.00000000       0.00000000       0.00000000
H        3.95886665       1.01583227       8.14063319       0.00000000       0.00000000       0.00000000
H        4.29287922       1.84571960       4.08936302       0.00000000       0.00000000       0.00000000
H        7.47388186       3.10437276      10.13043199       0.00000000       0.00000000       0.00000000
H        7.31832105       3.74922842       2.63443000       0.00000000       0.00000000       0.00000000
H        2.70179561       0.14850818       8.93989754       0.00000000       0.00000000       0.00000000
Pb       4.57968815       4.38991829      12.51542129       0.00000000       0.00000000       0.00000000
Pb       0.05252092       0.13764211       6.09425554       0.00000000       0.00000000       0.00000000
Pb       9.01919608       8.78399049      12.53543891       0.00000000       0.00000000       0.00000000
Pb       4.53241471       4.59496814       6.15366047       0.00000000       0.00000000       0.00000000
I        7.19284795       6.33774859       6.46670110       0.00000000       0.00000000       0.00000000
I        8.66293589       8.83667440       3.00037073       0.00000000       0.00000000       0.00000000
I        6.39591830       1.80971319      12.27771343       0.00000000       0.00000000       0.00000000
I        1.84019031       2.55753201       0.05130812       0.00000000       0.00000000       0.00000000
I        1.88873988       2.73759216       5.91046654       0.00000000       0.00000000       0.00000000
I        2.69873223       7.10013469       5.90850460       0.00000000       0.00000000       0.00000000
I        7.19843041       6.25920700      12.25535946       0.00000000       0.00000000       0.00000000
I        6.31558497       1.91571926       6.44460028       0.00000000       0.00000000       0.00000000
I        4.17703227       4.49987412       9.32429772       0.00000000       0.00000000       0.00000000
I        0.42469688       0.07586801       9.29002144       0.00000000       0.00000000       0.00000000
I        2.67588845       6.98131232       0.06272921       0.00000000       0.00000000       0.00000000
I        4.86448632       4.38748261       2.99002021       0.00000000       0.00000000       0.00000000
48
Lattice="8.968254483513038 0.06070757568730751 0.012936106914633651 0.0590812689320172 8.661744118022295 -0.020659445330636055 0.018352997348057284 -0.030117237827031868 12.712948112594189" Properties=species:S:1:pos:R:3:momenta:R:3 config_id=O-FAPI3_mixed_11 phase=O-FAPI3 mode=mixed seed=1228369350 source=O-FAPI3/CONTCAR pbc="T T T"
C        4.54795232       0.43348710       3.16478244       0.00000000       0.00000000       0.00000000
C        0.08395574       3.94677200       9.48652353       0.00000000       0.00000000       0.00000000
C        8.93406969       4.71547021       3.10411009       0.00000000       0.00000000       0.00000000
C        4.47311850       8.54559762       9.55516057       0.00000000       0.00000000       0.00000000
N        5.13292882       8.12624260       2.39951505       0.00000000       0.00000000       0.00000000
N        0.64589958       4.88905445       8.76020732       0.00000000       0.00000000       0.00000000
N        1.19882415       5.01100157       3.02280809       0.00000000       0.00000000       0.00000000
N        5.56011564       7.84692929       9.64100098       0.00000000       0.00000000       0.00000000
N        3.39645225       0.72249518       3.06292686       0.00000000       0.00000000       0.00000000
N        7.89472863       3.62361161       9.43456494       0.00000000       0.00000000       0.00000000
N        8.32668080       3.81714282       2.43738875       0.00000000       0.00000000       0.00000000
N        3.99276320       0.39485496       8.43313590       0.00000000       0.00000000       0.00000000
H        5.12609164       0.86493966       3.95662827       0.00000000       0.00000000       0.00000000
H        0.71232215       3.44513034      10.25852508       0.00000000       0.00000000       0.00000000
H        8.28385587       5.19110315       3.91989820       0.00000000       0.00000000       0.00000000
H        3.82447877       0.03897095      10.46890952       0.00000000       0.00000000       0.00000000
H        6.12475381       7.93155772       2.49688525       0.00000000       0.00000000       0.00000000
H        1.68067188       5.02031485       8.91477828       0.00000000       0.00000000       0.00000000
H        1.57574303       5.71770493       3.72654163       0.00000000       0.00000000       0.00000000
H        5.81771681       7.51295856      10.55547410       0.00000000       0.00000000       0.00000000
H        4.68134480       7.65860418       1.66987641       0.00000000       0.00000000       0.00000000
H        0.17730006       5.40247150       8.00003503       0.00000000       0.00000000       0.00000000
H        1.88514518       4.66247447       2.42495769       0.00000000       0.00000000       0.00000000
H        6.17159410       7.68938844       8.93482939       0.00000000       0.00000000       0.00000000
H        2.63698410       0.34157396       2.37257998       0.00000000       0.00000000       0.00000000
H        7.22412015       4.03227540       8.71043510       0.00000000       0.00000000       0.00000000
H        8.89186161       3.38842688       1.68135000       0.00000000       0.00000000       0.00000000
H        4.55595249       0.34491159       7.57404648       0.00000000       0.00000000       0.00000000
H        2.96217023       1.42443156       3.68859121       0.00000000       0.00000000       0.00000000
H        7.42851937       2.97314195      10.06834383       0.00000000       0.00000000       0.00000000
H        7.32908151       3.63956947       2.53193641       0.00000000       0.00000000       0.00000000
H        3.12852666       0.92493941       8.43659934       0.00000000       0.00000000       0.00000000
Pb       4.52597453       4.22996939      12.49850088       0.00000000       0.00000000       0.00000000
Pb       0.05167230       0.10615992       6.13647599       0.00000000       0.00000000       0.00000000
Pb       9.01638649       8.57514427      12.47646767       0.00000000       0.00000000       0.00000000
Pb       4.46033186       4.46688786       6.05302385       0.00000000       0.00000000       0.00000000
I        7.21921275       6.17238401       6.44136009       0.00000000       0.00000000       0.00000000
I        8.63757976       8.62590710       2.86642203       0.00000000       0.00000000       0.00000000
I        6.34352593       1.75549215      12.23167137       0.00000000       0.00000000       0.00000000
I        1.88056414       2.53863006       0.05595148       0.00000000       0.00000000       0.00000000
I        1.87880853       2.63355684       5.83086437       0.00000000       0.00000000       0.00000000
I        2.68182375       7.00308245       5.82247897       0.00000000       0.00000000       0.00000000
I        7.15277755       6.04873223      12.22367918       0.00000000       0.00000000       0.00000000
I        6.31647550       1.82523759       6.40535322       0.00000000       0.00000000       0.00000000
I        4.14821472       4.38755320       9.26398818       0.00000000       0.00000000       0.00000000
I        0.36250075       0.03617182       9.34971625       0.00000000       0.00000000       0.00000000
I        2.74033792       6.88830907       0.01825290       0.00000000       0.00000000       0.00000000
I        4.88695964       4.30583005       2.97078236       0.00000000       0.00000000       0.00000000
48
Lattice="9.028241778327997 -0.057203361855938155 -0.02368299802682695 -0.05567093014937804 8.699560325595098 0.011644065230420341 -0.03360006243367619 0.016974661042714705 12.854669306799579" Properties=species:S:1:pos:R:3:momenta:R:3 config_id=O-FAPI3_mixed_12 phase=O-FAPI3 mode=mixed seed=751784079 source=O-FAPI3/CONTCAR pbc="T T T"
C        4.53186457       0.32100747       3.18847026       0.00000000       0.00000000       0.00000000
C        0.03260638       3.96487770       9.58616707       0.00000000       0.00000000       0.00000000
C        0.14797913       4.73156942       3.27569482       0.00000000       0.00000000       0.00000000
C        4.33255844       8.39525565       9.59935011       0.00000000       0.00000000       0.00000000
N        5.02754138       8.09972902       2.43588073       0.00000000       0.00000000       0.00000000
N        0.54756041       4.93007679       8.87157808       0.00000000       0.00000000       0.00000000
N        1.07766592       4.94534383       2.36718607       0.00000000       0.00000000       0.00000000
N        5.49583329       7.74563442       9.51271799       0.00000000       0.00000000       0.00000000
N        3.28247518       0.80913426       3.10016507       0.00000000       0.00000000       0.00000000
N        7.90553741       3.62561489       9.44665425       0.00000000       0.00000000       0.00000000
N        8.20107313       3.96413025       3.16475722       0.00000000       0.00000000       0.00000000
N        4.01309082       0.68775002       8.95994218       0.00000000       0.00000000       0.00000000
H        5.21584276       0.86351761       3.96961992       0.00000000       0.00000000       0.00000000
H        0.68956970       3.49480161      10.30781641       0.00000000       0.00000000       0.00000000
H        0.22874486       5.22429559       4.31007247       0.00000000       0.00000000       0.00000000
H        3.60743272       7.90588610      10.31174573       0.00000000       0.00000000       0.00000000
H        6.09516714       7.83091199       2.54711942       0.00000000       0.00000000       0.00000000
H        1.56084547       5.08674525       8.96577705       0.00000000       0.00000000       0.00000000
H        1.99286249       5.41314704       2.51317081       0.00000000       0.00000000       0.00000000
H        5.70688718       6.95660125      10.07437640       0.00000000       0.00000000       0.00000000
H        4.57405044       7.61846121       1.73404951       0.00000000       0.00000000       0.00000000
H        0.13254672       5.38907456       8.14641264       0.00000000       0.00000000       0.00000000
H        1.05622483       4.44440598       1.44100043       0.00000000       0.00000000       0.00000000
H        6.26398185       8.12677623       8.97239404       0.00000000       0.00000000       0.00000000
H        2.67342834       0.23355712       2.32617286       0.00000000       0.00000000       0.00000000
H        7.13524568       4.01581625       8.86524451       0.00000000       0.00000000       0.00000000
H        7.98430531       3.39591905       2.09610158       0.00000000       0.00000000       0.00000000
H        4.76384606       1.11460545       8.26610822       0.00000000       0.00000000       0.00000000
H        3.00614839       1.30644597       3.70790674       0.00000000       0.00000000       0.00000000
H        7.39367569       2.95589557      10.16255945       0.00000000       0.00000000       0.00000000
H        7.48192363       3.86784986       3.92937662       0.00000000       0.00000000       0.00000000
H        3.02513956       0.99510659       8.92897483       0.00000000       0.00000000       0.00000000
Pb       4.48643761       4.18579791      12.59339806       0.00000000       0.00000000       0.00000000
Pb       8.94641885       0.06963360       6.18904052       0.00000000       0.00000000       0.00000000
Pb       8.87842360       8.59501964      12.60940007       0.00000000       0.00000000       0.00000000
Pb       4.47455425       4.41229259       6.18952175       0.00000000       0.00000000       0.00000000
I        7.05564394       6.08970286       6.49834038       0.00000000       0.00000000       0.00000000
I        8.69602566       8.60315349       3.00600695       0.00000000       0.00000000       0.00000000
I        6.31957762       1.71617254      12.32134566       0.00000000       0.00000000       0.00000000
I        1.84483454       2.52404961       0.03021027       0.00000000       0.00000000       0.00000000
I        1.87910383       2.58283448       5.89009176       0.00000000       0.00000000       0.00000000
I        2.63548300       6.86578174       5.95849814       0.00000000       0.00000000       0.00000000
I        7.09736399       6.00865456      12.37234779       0.00000000       0.00000000       0.00000000
I        6.33262638       1.69160884       6.45979635       0.00000000       0.00000000       0.00000000
I        4.08482023       4.35021250       9.39231751       0.00000000       0.00000000       0.00000000
I        0.30337972       8.68233784       9.39236388       0.00000000       0.00000000       0.00000000
I        2.62015381       6.85092428      12.84209433       0.00000000       0.00000000       0.00000000
I        4.74781239       4.21992277       2.99304725       0.00000000       0.00000000       0.00000000
48
Lattice="9.050208686981097 -0.03224583177713722 0.01666561366784573 -0.03138199207582499 8.657633043113181 -0.011129542322641016 0.023644204973578168 -0.01622459207750068 12.828076927131244" Properties=species:S:1:pos:R:3:momenta:R:3 config_id=O-FAPI3_mixed_13 phase=O-FAPI3 mode=mixed seed=532421674 source=O-FAPI3/CONTCAR pbc="T T T"
C        4.59424597       0.34196267       3.23330585       0.00000000       0.00000000       0.00000000
C        0.09564950       3.95671919       9.55858701       0.00000000       0.00000000       0.00000000
C        8.90607527       4.39087268       3.24542141       0.00000000       0.00000000       0.00000000
C        4.47964061       8.05861979       9.33363781       0.00000000       0.00000000       0.00000000
N        5.13808841       8.09030955       2.38763719       0.00000000       0.00000000       0.00000000
N        0.48110255       4.78015818       8.61310379       0.00000000       0.00000000       0.00000000
N        1.15171723       4.63650735       3.43852132       0.00000000       0.00000000       0.00000000
N        5.79951616       8.12852694       9.53734336       0.00000000       0.00000000       0.00000000
N        3.33867540       0.73306621       3.06118160       0.00000000       0.00000000       0.00000000
N        8.01356345       3.60104846       9.79063566       0.00000000       0.00000000       0.00000000
N        8.39337141       4.30615015       2.02530654       0.00000000       0.00000000       0.00000000
N        3.80772698       0.47367155       9.01643592       0.00000000       0.00000000       0.00000000
H        5.21197251       0.80232737       3.96465176       0.00000000       0.00000000       0.00000000
H        0.92692736       3.60489398      10.19561529       0.00000000       0.00000000       0.00000000
H        8.25402739       4.49062606       4.11027826       0.00000000       0.00000000       0.00000000
H        3.95494355       7.17873067       9.49100690       0.00000000       0.00000000       0.00000000
H        6.12048500       7.90187104       2.54364675       0.00000000       0.00000000       0.00000000
H        1.46861769       4.98474714       8.46072907       0.00000000       0.00000000       0.00000000
H        1.54004233       4.67891896       4.42722410       0.00000000       0.00000000       0.00000000
H        6.20299475       7.22023927       9.85102556       0.00000000       0.00000000       0.00000000
H        4.64274239       7.62961455       1.69039409       0.00000000       0.00000000       0.00000000
H        8.88311064       5.26958155       7.94715441       0.00000000       0.00000000       0.00000000
H        1.88606623       4.60664774       2.74064438       0.00000000       0.00000000       0.00000000
H        6.37840635       0.31729076       9.46592503       0.00000000       0.00000000       0.00000000
H        2.68586854       0.27120179       2.41525270       0.00000000       0.00000000       0.00000000
H        7.12527293       3.93590578       9.23439627       0.00000000       0.00000000       0.00000000
H        8.99619449       4.34531486       1.23128351       0.00000000       0.00000000       0.00000000
H        4.21957785       1.37824128       8.81188559       0.00000000       0.00000000       0.00000000
H        2.97121313       1.38280490       3.73375671       0.00000000       0.00000000       0.00000000
H        7.79752951       2.98340238      10.61305616       0.00000000       0.00000000       0.00000000
H        7.40606277       4.24143259       1.95949593       0.00000000       0.00000000       0.00000000
H        2.79677200       0.32412711       8.83598272       0.00000000       0.00000000       0.00000000
Pb       4.51172054       4.21054613      12.59555099       0.00000000       0.00000000       0.00000000
Pb       9.05631916       0.09356695       6.22594683       0.00000000       0.00000000       0.00000000
Pb       9.00107918       8.44950205      12.59173696       0.00000000       0.00000000       0.00000000
Pb       4.48348197       4.36049508       6.16830142       0.00000000       0.00000000       0.00000000
I        7.17194768       6.16661811       6.49054687       0.00000000       0.00000000       0.00000000
I        8.69956049       8.58129667       2.95328841       0.00000000       0.00000000       0.00000000
I        6.40138445       1.60217679      12.29556206       0.00000000       0.00000000       0.00000000
I        1.79596576       2.49615161       0.05477276       0.00000000       0.00000000       0.00000000
I        1.86173273       2.59591536       5.90344077       0.00000000       0.00000000       0.00000000
I        2.59548838       6.96608961       5.95261423       0.00000000       0.00000000       0.00000000
I        7.17594481       5.97702018      12.31284239       0.00000000       0.00000000       0.00000000
I        6.37376361       1.78907024       6.42826657       0.00000000       0.00000000       0.00000000
I        4.15058560       4.32621710       9.36574960       0.00000000       0.00000000       0.00000000
I        0.35723677      -0.01210931       9.40154165       0.00000000       0.00000000       0.00000000
I        2.64745352       6.81065230       0.06070042       0.00000000       0.00000000       0.00000000
I        4.87756257       4.28234751       2.98172260       0.00000000       0.00000000       0.00000000
48
Lattice="8.930470214274326 0.022876276004767094 -0.009314169220801504 0.022263439109515868 8.87768963896669 0.05790850068929777 -0.013214402457925873 0.0844187275870453 12.810600481387764" Properties=species:S:1:pos:R:3:momenta:R:3 config_id=O-FAPI3_mixed_14 phase=O-FAPI3 mode=mixed seed=662156461 source=O-FAPI3/CONTCAR pbc="T T T"
C        4.47067913       0.42040099       3.21123390       0.00000000       0.00000000       0.00000000
C        0.04996976       4.10298676       9.57462616       0.00000000       0.00000000       0.00000000
C        8.75943792       4.71023158       3.15615363       0.00000000       0.00000000       0.00000000
C        4.41639572       8.58137605       9.58764339       0.00000000       0.00000000       0.00000000
N        5.07926549       8.32559960       2.48596364       0.00000000       0.00000000       0.00000000
N        0.62541477       5.07014147       8.90499943       0.00000000       0.00000000       0.00000000
N        0.93324761       5.18886305       3.53936100       0.00000000       0.00000000       0.00000000
N        5.53437411       8.07847142       9.42213483       0.00000000       0.00000000       0.00000000
N        3.25078109       0.76664769       3.07212688       0.00000000       0.00000000       0.00000000
N        7.77924661       3.73486146       9.43162914       0.00000000       0.00000000       0.00000000
N        8.55940767       4.02781845       2.02989583       0.00000000       0.00000000       0.00000000
N        3.93263984       0.80191288       8.98247954       0.00000000       0.00000000       0.00000000
H        5.11784785       0.89284894       3.94319856       0.00000000       0.00000000       0.00000000
H        0.69218361       3.67173051      10.42919182       0.00000000       0.00000000       0.00000000
H        7.88539883       4.88973795       3.83127372       0.00000000       0.00000000       0.00000000
H        3.65174467       8.03775978      10.25467397       0.00000000       0.00000000       0.00000000
H        6.11189933       8.16752909       2.62222713       0.00000000       0.00000000       0.00000000
H        1.57990293       5.36421417       8.98927929       0.00000000       0.00000000       0.00000000
H        1.03808918       5.67630954       4.44118908       0.00000000       0.00000000       0.00000000
H        5.87998467       7.25815182       9.94219716       0.00000000       0.00000000       0.00000000
H        4.61727374       7.83284883       1.71638312       0.00000000       0.00000000       0.00000000
H        0.11339850       5.54837652       8.17794845       0.00000000       0.00000000       0.00000000
H        1.82866813       5.08472201       3.00287370       0.00000000       0.00000000       0.00000000
H        6.24335304       8.50955286       8.85929844       0.00000000       0.00000000       0.00000000
H        2.67654365       0.36059426       2.41806904       0.00000000       0.00000000       0.00000000
H        7.09098353       4.18251561       8.75787256       0.00000000       0.00000000       0.00000000
H        0.45300966       3.84615655       1.40295840       0.00000000       0.00000000       0.00000000
H        4.53475975       1.35594336       8.32928277       0.00000000       0.00000000       0.00000000
H        2.87790483       1.44711054       3.73313019       0.00000000       0.00000000       0.00000000
H        7.39088872       3.03604934      10.07710688       0.00000000       0.00000000       0.00000000
H        7.63364726       3.76846190       1.70014990       0.00000000       0.00000000       0.00000000
H        2.93549468       1.04435448       9.11097236       0.00000000       0.00000000       0.00000000
Pb       4.48546495       4.42248421      12.59187036       0.00000000       0.00000000       0.00000000
Pb       0.03256903       0.19085798       6.10351012       0.00000000       0.00000000       0.00000000
Pb       0.08466896       8.84444429      12.62476194       0.00000000       0.00000000       0.00000000
Pb       4.36254163       4.60634057       6.20383868       0.00000000       0.00000000       0.00000000
I        7.06765032       6.32642771       6.47453180       0.00000000       0.00000000       0.00000000
I        8.56442026       8.80652647       2.97255604       0.00000000       0.00000000       0.00000000
I        6.35739204       1.89471349      12.27772013       0.00000000       0.00000000       0.00000000
I        1.85640759       2.54393571       0.04476730       0.00000000       0.00000000       0.00000000
I        1.79883021       2.73842859       5.95070707       0.00000000       0.00000000       0.00000000
I        2.64161858       7.14090794       5.89876427       0.00000000       0.00000000       0.00000000
I        7.10756825       6.22305161      12.36103055       0.00000000       0.00000000       0.00000000
I        6.29465547       1.92199812       6.45669238       0.00000000       0.00000000       0.00000000
I        4.15735811       4.56342140       9.42939102       0.00000000       0.00000000       0.00000000
I        0.30725187       0.12825245       9.38179884       0.00000000       0.00000000       0.00000000
I        2.63637740       7.01632633       0.09747193       0.00000000       0.00000000       0.00000000
I        4.86964704       4.39480016       2.92346008       0.00000000       0.00000000       0.00000000
48
Lattice="8.922045077371697 0.0639996053161156 -0.007057593418820379 0.062285107754927786 8.864518905253318 -0.06167626477471159 -0.010012903739435829 -0.08991135554585523 12.797376281441945" Properties=species:S:1:pos:R:3:momenta:R:3 config_id=O-FAPI3_mixed_15 phase=O-FAPI3 mode=mixed seed=657797681 source=O-FAPI3/CONTCAR pbc="T T T"
C        4.55711593       0.36188772       3.20953344       0.00000000       0.00000000       0.00000000
C        8.88619897       3.98960129       9.54228857       0.00000000       0.00000000       0.00000000
C        8.92544526       4.95199696       3.03414924       0.00000000       0.00000000       0.00000000
C        4.41810019       8.52119166       9.50286698       0.00000000       0.00000000       0.00000000
N        5.14230348       8.31795579       2.34115640       0.00000000       0.00000000       0.00000000
N        0.87591778       4.29410753       8.63503950       0.00000000       0.00000000       0.00000000
N        1.18622146       5.13823478       2.88052080       0.00000000       0.00000000       0.00000000
N        5.65464755       8.13577969       9.42122425       0.00000000       0.00000000       0.00000000
N        3.31875087       0.73260916       3.02326675       0.00000000       0.00000000       0.00000000
N        7.68613290       4.45530786       9.61999288       0.00000000       0.00000000       0.00000000
N        8.31968237       3.79931338       2.61046446       0.00000000       0.00000000       0.00000000
N        3.83719088       0.49762366       8.79783232       0.00000000       0.00000000       0.00000000
H        5.14294804       0.88650443       3.89681427       0.00000000       0.00000000       0.00000000
H        0.23029568       3.13854206      10.27783606       0.00000000       0.00000000       0.00000000
H        8.31091329       5.61040290       3.74446195       0.00000000       0.00000000       0.00000000
H        3.77912893       7.93796333      10.27209574       0.00000000       0.00000000       0.00000000
H        6.20228281       8.15163634       2.49830790       0.00000000       0.00000000       0.00000000
H        1.75800913       3.69660363       8.56419664       0.00000000       0.00000000       0.00000000
H        1.62731708       5.97727738       3.34079306       0.00000000       0.00000000       0.00000000
H        6.01175865       7.37398547      10.04722259       0.00000000       0.00000000       0.00000000
H        4.66726670       7.78336658       1.61724989       0.00000000       0.00000000       0.00000000
H        0.69479112       4.90670783       7.91679013       0.00000000       0.00000000       0.00000000
H        1.75523644       4.57686851       2.35654840       0.00000000       0.00000000       0.00000000
H        6.32854017       8.54188900       8.80602068       0.00000000       0.00000000       0.00000000
H        2.62768924       0.29530970       2.39028649       0.00000000       0.00000000       0.00000000
H        7.34312338       5.13495022       8.95268390       0.00000000       0.00000000       0.00000000
H        8.78316387       3.21104067       2.01394357       0.00000000       0.00000000       0.00000000
H        4.32452196       1.03590063       8.08530721       0.00000000       0.00000000       0.00000000
H        2.93339473       1.41814746       3.68923187       0.00000000       0.00000000       0.00000000
H        7.11720533       4.21942331      10.43145249       0.00000000       0.00000000       0.00000000
H        7.30882233       3.67939489       2.70225340       0.00000000       0.00000000       0.00000000
H        2.83999189       0.71392741       8.95085475       0.00000000       0.00000000       0.00000000
Pb       4.47140523       4.22352855      12.48072188       0.00000000       0.00000000       0.00000000
Pb       8.87489734       0.09217975       6.19697799       0.00000000       0.00000000       0.00000000
Pb       8.94617916       8.70432945      12.51050442       0.00000000       0.00000000       0.00000000
Pb       4.45551363       4.52625574       6.14486421       0.00000000       0.00000000       0.00000000
I        7.14151089       6.30101846       6.40480235       0.00000000       0.00000000       0.00000000
I        8.61367351       8.85826544       2.91695279       0.00000000       0.00000000       0.00000000
I        6.33211473       1.70092460      12.27735264       0.00000000       0.00000000       0.00000000
I        1.81896000       2.57379954       0.01395558       0.00000000       0.00000000       0.00000000
I        1.85161616       2.64680501       5.86645234       0.00000000       0.00000000       0.00000000
I        2.69183558       7.13010416       5.83931773       0.00000000       0.00000000       0.00000000
I        7.13445336       6.09777706      12.23896220       0.00000000       0.00000000       0.00000000
I        6.27196381       1.87401864       6.43631968       0.00000000       0.00000000       0.00000000
I        4.10398422       4.41154993       9.31325533       0.00000000       0.00000000       0.00000000
I        0.32451373       0.03144231       9.39199459       0.00000000       0.00000000       0.00000000
I        2.65606058       6.96977189      -0.03146295       0.00000000       0.00000000       0.00000000
I        4.82560399       4.42411228       2.93835511       0.00000000       0.00000000       0.00000000
48
Lattice="9.116445753818146 -0.06566169463022357 -0.0036261540416789337 -0.06390267104326672 8.735479007164054 0.03948920104677426 -0.005144576799631791 0.05756716313005487 12.625839361575663" Properties=species:S:1:pos:R:3:momenta:R:3 config_id=O-FAPI3_mixed_16 phase=O-FAPI3 mode=mixed seed=297949624 source=O-FAPI3/CONTCAR pbc="T T T"
C        4.40526446       0.50371681       3.04060670       0.00000000       0.00000000       0.00000000
C        9.05716861       3.90172570       9.46144331       0.00000000       0.00000000       0.00000000
C        8.97185485       4.68638886       3.06619049       0.00000000       0.00000000       0.00000000
C        4.40818750       8.34482166       9.43727934       0.00000000       0.00000000       0.00000000
N        5.55373613      -0.00298284       2.64038373       0.00000000       0.00000000       0.00000000
N        0.86200874       4.54088046       8.77814933       0.00000000       0.00000000       0.00000000
N        1.08470081       5.17866599       3.12076359       0.00000000       0.00000000       0.00000000
N        5.73086574       8.13665939       9.37777914       0.00000000       0.00000000       0.00000000
N        3.20123628       0.00764746       2.87010553       0.00000000       0.00000000       0.00000000
N        7.73359525       4.12873571       9.28115289       0.00000000       0.00000000       0.00000000
N        8.50715534       3.64612435       2.43143288       0.00000000       0.00000000       0.00000000
N        3.81728144       0.48094478       8.72883495       0.00000000       0.00000000       0.00000000
H        4.46934877       1.49555464       3.50866123       0.00000000       0.00000000       0.00000000
H        0.24201214       3.22688248      10.21575575       0.00000000       0.00000000       0.00000000
H        8.24674364       5.35516068       3.52677054       0.00000000       0.00000000       0.00000000
H        3.87381392       7.74233816      10.16132383       0.00000000       0.00000000       0.00000000
H        6.42513062       0.52334615       2.75933196       0.00000000       0.00000000       0.00000000
H        1.83447760       4.21830677       8.91254068       0.00000000       0.00000000       0.00000000
H        1.37116190       5.98635122       3.66764510       0.00000000       0.00000000       0.00000000
H        6.20844829       7.48459638       9.99257937       0.00000000       0.00000000       0.00000000
H        5.52187990       7.80086661       2.21524316       0.00000000       0.00000000       0.00000000
H        0.64318005       5.22063573       8.05408885       0.00000000       0.00000000       0.00000000
H        1.89966215       4.61850065       2.68179733       0.00000000       0.00000000       0.00000000
H        6.35642520       8.68377456       8.78505895       0.00000000       0.00000000       0.00000000
H        2.99496123       7.79422794       2.47823024       0.00000000       0.00000000       0.00000000
H        7.37506592       4.79716890       8.66643908       0.00000000       0.00000000       0.00000000
H        0.04577963       3.08469467       1.93952574       0.00000000       0.00000000       0.00000000
H        4.31225536       1.07458181       8.06016424       0.00000000       0.00000000       0.00000000
H        2.34008350       0.45550947       3.23282475       0.00000000       0.00000000       0.00000000
H        7.10241533       3.70724620       9.92275767       0.00000000       0.00000000       0.00000000
H        7.52059195       3.48064801       2.39389894       0.00000000       0.00000000       0.00000000
H        2.83155168       0.54732092       8.74992885       0.00000000       0.00000000       0.00000000
Pb       4.53832041       4.30777062      12.40238218       0.00000000       0.00000000       0.00000000
Pb       0.03498807       0.13564326       6.06945276       0.00000000       0.00000000       0.00000000
Pb       9.03858513       8.62446598      12.44213185       0.00000000       0.00000000       0.00000000
Pb       4.50937815       4.45565812       6.07656460       0.00000000       0.00000000       0.00000000
I        7.22230007       6.20314641       6.36781766       0.00000000       0.00000000       0.00000000
I        8.72405693       8.65641417       3.00714790       0.00000000       0.00000000       0.00000000
I        6.41036444       1.72738539      12.16834794       0.00000000       0.00000000       0.00000000
I        1.82045603       2.49656814       0.04638393       0.00000000       0.00000000       0.00000000
I        1.84487612       2.68422183       5.82449337       0.00000000       0.00000000       0.00000000
I        2.62283820       7.03343810       5.86232806       0.00000000       0.00000000       0.00000000
I        7.17996472       6.06685001      12.14016053       0.00000000       0.00000000       0.00000000
I        6.39106009       1.80824370       6.34150898       0.00000000       0.00000000       0.00000000
I        4.18733844       4.45560391       9.25981132       0.00000000       0.00000000       0.00000000
I        0.38657986       0.07156167       9.22580719       0.00000000       0.00000000       0.00000000
I        2.65694917       6.88396497       0.06405994       0.00000000       0.00000000       0.00000000
I        4.86766596       4.31716761       2.94390172       0.00000000       0.00000000       0.00000000
48
Lattice="8.978330591180255 -0.046165409711980604 0.021913439910990644 -0.04492867579820918 8.838609028770954 -0.06117725000000952 0.03108951612932874 -0.08918389426079265 12.983061194542742" Properties=species:S:1:pos:R:3:momenta:R:3 config_id=O-FAPI3_mixed_17 phase=O-FAPI3 mode=mixed seed=4025761315 source=O-FAPI3/CONTCAR pbc="T T T"
C        4.39237751       0.43452950       3.20894821       0.00000000       0.00000000       0.00000000
C        0.04820954       3.91093731       9.68544860       0.00000000       0.00000000       0.00000000
C        8.87564170       4.50181057       3.24028594       0.00000000       0.00000000       0.00000000
C        4.34645869       8.41816331       9.67373854       0.00000000       0.00000000       0.00000000
N        5.42378860       8.77908419       2.38595194       0.00000000       0.00000000       0.00000000
N        0.57077797       5.04339500       9.22391075       0.00000000       0.00000000       0.00000000
N        0.76838951       5.43349962       3.39667175       0.00000000       0.00000000       0.00000000
N        5.46192550       7.70042396       9.51676066       0.00000000       0.00000000       0.00000000
N        3.19711060       0.02619249       3.15188429       0.00000000       0.00000000       0.00000000
N        7.88989249       3.47747138       9.25760206       0.00000000       0.00000000       0.00000000
N        8.77619537       3.66841130       2.11708903       0.00000000       0.00000000       0.00000000
N        4.11157103       0.67715113       8.93242587       0.00000000       0.00000000       0.00000000
H        4.73756391       1.14131215       3.97669486       0.00000000       0.00000000       0.00000000
H        0.67700144       3.18570420      10.24853350       0.00000000       0.00000000       0.00000000
H        8.15236607       4.20263220       3.95192020       0.00000000       0.00000000       0.00000000
H        3.66622981       8.09972542      10.40900544       0.00000000       0.00000000       0.00000000
H        6.32516778       0.40498970       2.51234459       0.00000000       0.00000000       0.00000000
H        1.58020352       5.31806720       9.56644439       0.00000000       0.00000000       0.00000000
H        0.67032526       5.89987920       4.31160280       0.00000000       0.00000000       0.00000000
H        5.67701559       6.97323750      10.24332569       0.00000000       0.00000000       0.00000000
H        5.17219754       8.14886646       1.61956914       0.00000000       0.00000000       0.00000000
H        0.13401819       5.76818867       8.66377096       0.00000000       0.00000000       0.00000000
H        1.41938250       5.67962622       2.81388397       0.00000000       0.00000000       0.00000000
H        6.19759883       8.05788915       8.93319296       0.00000000       0.00000000       0.00000000
H        2.83277808       8.22133642       2.39382150       0.00000000       0.00000000       0.00000000
H        7.24028635       4.04972856       8.76161583       0.00000000       0.00000000       0.00000000
H        0.49538291       3.93547180       1.25013958       0.00000000       0.00000000       0.00000000
H        4.71947325       1.06664389       8.25801305       0.00000000       0.00000000       0.00000000
H        2.47334026       0.41398070       3.85907702       0.00000000       0.00000000       0.00000000
H        7.49325113       2.50231397       9.68451895       0.00000000       0.00000000       0.00000000
H        7.99422961       2.99833666       2.02826022       0.00000000       0.00000000       0.00000000
H        3.17830771       1.07927465       8.97703142       0.00000000       0.00000000       0.00000000
Pb       4.45522918       4.15933060      12.71784876       0.00000000       0.00000000       0.00000000
Pb       8.94834440       0.03978962       6.27781220       0.00000000       0.00000000       0.00000000
Pb       8.93387142       8.61732102      12.70332155       0.00000000       0.00000000       0.00000000
Pb       4.49892802       4.50946401       6.20820349       0.00000000       0.00000000       0.00000000
I        7.15624169       6.20569827       6.57332485       0.00000000       0.00000000       0.00000000
I        8.60626742       8.75539106       3.01008887       0.00000000       0.00000000       0.00000000
I        6.30678246       1.60286386      12.44241301       0.00000000       0.00000000       0.00000000
I        1.81847627       2.53893354       0.04492238       0.00000000       0.00000000       0.00000000
I        1.89072750       2.55122221       6.00897013       0.00000000       0.00000000       0.00000000
I        2.63083438       7.04193222       5.87675275       0.00000000       0.00000000       0.00000000
I        7.15260291       5.98831657      12.54807687       0.00000000       0.00000000       0.00000000
I        6.34052816       1.77729876       6.58592369       0.00000000       0.00000000       0.00000000
I        4.14422137       4.37704457       9.43797181       0.00000000       0.00000000       0.00000000
I        0.32896032       8.74974925       9.43953416       0.00000000       0.00000000       0.00000000
I        2.57348379       6.93279812       0.04730966       0.00000000       0.00000000       0.00000000
I        4.82554212       4.32286299       2.95117064       0.00000000       0.00000000       0.00000000
24
Lattice="8.951583967708043 0.0 0.0 0.0 8.951583967708043 0.0 0.0 0.0 6.328972425814492" Properties=species:S:1:pos:R:3:momenta:R:3 config_id=t-FAPI3_small_rotation_01 phase=t-FAPI3 mode=small_rotation seed=3862067677 source=t-FAPI3/CONTCAR pbc="T T T"
C        4.49306747       4.48272799       3.61354564       0.00000000       0.00000000       0.00000000
C        8.90425667       0.02310375       3.61064171       0.00000000       0.00000000       0.00000000
N        5.28882402       5.30468561       2.96904882       0.00000000       0.00000000       0.00000000
N        3.64821163       3.64106971       3.06383070       0.00000000       0.00000000       0.00000000
N        0.84696905       8.12711266       3.15661782       0.00000000       0.00000000       0.00000000
N        8.14449030       0.80498968       2.87870650       0.00000000       0.00000000       0.00000000
H        4.53782682       4.50065460       4.70350027       0.00000000       0.00000000       0.00000000
H        5.90578902       5.91603901       3.50083866       0.00000000       0.00000000       0.00000000
H        5.33339229       5.37536053       1.95262761       0.00000000       0.00000000       0.00000000
H        3.52055779       3.53710771       2.05736112       0.00000000       0.00000000       0.00000000
H        3.07777058       3.04836814       3.66422121       0.00000000       0.00000000       0.00000000
H        8.78145843       0.08307203       4.69307191       0.00000000       0.00000000       0.00000000
H        1.38174917       7.56860357       3.81935257       0.00000000       0.00000000       0.00000000
H        1.04772907       7.98595020       2.16673125       0.00000000       0.00000000       0.00000000
H        8.17162733       0.83486764       1.85965145       0.00000000       0.00000000       0.00000000
H        7.48215379       1.42579098       3.34032036       0.00000000       0.00000000       0.00000000
Pb       8.95158102       4.47579056       6.28333844       0.00000000       0.00000000       0.00000000
Pb       4.47578931       0.00000029       6.28333841       0.00000000       0.00000000       0.00000000
I       -0.00000080       4.47578864       3.11507573       0.00000000       0.00000000       0.00000000
I        4.47579122       0.00000329       3.11507565       0.00000000       0.00000000       0.00000000
I        1.95657822       1.95658116       6.26906953       0.00000000       0.00000000       0.00000000
I        2.51920393       6.43237575       6.26906579       0.00000000       0.00000000       0.00000000
I        6.43237063       2.51920903       6.26906838       0.00000000       0.00000000       0.00000000
I        6.99499616       6.99499908       6.26906557       0.00000000       0.00000000       0.00000000
24
Lattice="8.951583967708043 0.0 0.0 0.0 8.951583967708043 0.0 0.0 0.0 6.328972425814492" Properties=species:S:1:pos:R:3:momenta:R:3 config_id=t-FAPI3_small_rotation_02 phase=t-FAPI3 mode=small_rotation seed=1062581836 source=t-FAPI3/CONTCAR pbc="T T T"
C        4.49747376       4.49503677       3.61295761       0.00000000       0.00000000       0.00000000
C        8.86573887       0.03118507       3.60391448       0.00000000       0.00000000       0.00000000
N        5.19149328       5.38168587       2.93737694       0.00000000       0.00000000       0.00000000
N        3.74183075       3.55370108       3.09599792       0.00000000       0.00000000       0.00000000
N        0.77112814       8.05629884       3.24123420       0.00000000       0.00000000       0.00000000
N        8.25277649       0.86899613       2.79975689       0.00000000       0.00000000       0.00000000
H        4.55367009       4.54488952       4.70138884       0.00000000       0.00000000       0.00000000
H        5.74529583       6.06910395       3.44527297       0.00000000       0.00000000       0.00000000
H        5.21542688       5.43136075       1.91901899       0.00000000       0.00000000       0.00000000
H        3.61358708       3.41148458       2.09429305       0.00000000       0.00000000       0.00000000
H        3.24642872       2.91810093       3.71869864       0.00000000       0.00000000       0.00000000
H        8.64301824       0.11211918       4.66889144       0.00000000       0.00000000       0.00000000
H        1.18738276       7.45989103       3.95409418       0.00000000       0.00000000       0.00000000
H        1.05495102       7.88860512       2.27612787       0.00000000       0.00000000       0.00000000
H        8.38230344       0.88649462       1.78831293       0.00000000       0.00000000       0.00000000
H        7.60517363       1.54947413       3.19311613       0.00000000       0.00000000       0.00000000
Pb       8.95158102       4.47579056       6.28333844       0.00000000       0.00000000       0.00000000
Pb       4.47578931       0.00000029       6.28333841       0.00000000       0.00000000       0.00000000
I       -0.00000080       4.47578864       3.11507573       0.00000000       0.00000000       0.00000000
I        4.47579122       0.00000329       3.11507565       0.00000000       0.00000000       0.00000000
I        1.95657822       1.95658116       6.26906953       0.00000000       0.00000000       0.00000000
I        2.51920393       6.43237575       6.26906579       0.00000000       0.00000000       0.00000000
I        6.43237063       2.51920903       6.26906838       0.00000000       0.00000000       0.00000000
I        6.99499616       6.99499908       6.26906557       0.00000000       0.00000000       0.00000000
24
Lattice="8.951583967708043 0.0 0.0 0.0 8.951583967708043 0.0 0.0 0.0 6.328972425814492" Properties=species:S:1:pos:R:3:momenta:R:3 config_id=t-FAPI3_small_rotation_03 phase=t-FAPI3 mode=small_rotation seed=3138974028 source=t-FAPI3/CONTCAR pbc="T T T"
C        4.47580859       4.47581216       3.61395771       0.00000000       0.00000000       0.00000000
C        8.93911297       0.03069423       3.61264542       0.00000000       0.00000000       0.00000000
N        5.30254330       5.30254700       3.01626364       0.00000000       0.00000000       0.00000000
N        3.64903041       3.64903389       3.01626875       0.00000000       0.00000000       0.00000000
N        0.84447254       8.12889962       3.10109883       0.00000000       0.00000000       0.00000000
N        8.11762567       0.79680889       2.93253761       0.00000000       0.00000000       0.00000000
H        4.47579450       4.47579803       4.70497827       0.00000000       0.00000000       0.00000000
H        5.90092284       5.90092643       3.58290570       0.00000000       0.00000000       0.00000000
H        5.38933710       5.38934018       2.00382741       0.00000000       0.00000000       0.00000000
H        3.56224778       3.56225067       2.00383502       0.00000000       0.00000000       0.00000000
H        3.05066699       3.05067030       3.58291603       0.00000000       0.00000000       0.00000000
H        8.90673976       0.11035388       4.70027452       0.00000000       0.00000000       0.00000000
H        1.43503357       7.58422440       3.72696312       0.00000000       0.00000000       0.00000000
H        0.96259896       7.96998712       2.10064902       0.00000000       0.00000000       0.00000000
H        8.05957150       0.80789057       1.91439753       0.00000000       0.00000000       0.00000000
H        7.49343510       1.42423025       3.43642235       0.00000000       0.00000000       0.00000000
Pb       8.95158102       4.47579056       6.28333844       0.00000000       0.00000000       0.00000000
Pb       4.47578931       0.00000029       6.28333841       0.00000000       0.00000000       0.00000000
I       -0.00000080       4.47578864       3.11507573       0.00000000       0.00000000       0.00000000
I        4.47579122       0.00000329       3.11507565       0.00000000       0.00000000       0.00000000
I        1.95657822       1.95658116       6.26906953       0.00000000       0.00000000       0.00000000
I        2.51920393       6.43237575       6.26906579       0.00000000       0.00000000       0.00000000
I        6.43237063       2.51920903       6.26906838       0.00000000       0.00000000       0.00000000
I        6.99499616       6.99499908       6.26906557       0.00000000       0.00000000       0.00000000
24
Lattice="8.951583967708043 0.0 0.0 0.0 8.951583967708043 0.0 0.0 0.0 6.328972425814492" Properties=species:S:1:pos:R:3:momenta:R:3 config_id=t-FAPI3_small_rotation_04 phase=t-FAPI3 mode=small_rotation seed=827087127 source=t-FAPI3/CONTCAR pbc="T T T"
C        4.43364917       4.52265494       3.60920887       0.00000000       0.00000000       0.00000000
C        0.00000663       8.95157291       3.61395304       0.00000000       0.00000000       0.00000000
N        5.37291758       5.22661193       3.02061871       0.00000000       0.00000000       0.00000000
N        3.61416922       3.68551085       3.01591387       0.00000000       0.00000000       0.00000000
N        0.82676527       8.12481519       3.01626668       0.00000000       0.00000000       0.00000000
N        8.12482240       0.82675785       3.01626817       0.00000000       0.00000000       0.00000000
H        4.32426159       4.64416408       4.68790982       0.00000000       0.00000000       0.00000000
H        5.95257523       5.84742637       3.58256681       0.00000000       0.00000000       0.00000000
H        5.56672983       5.19473531       2.01986198       0.00000000       0.00000000       0.00000000
H        3.62335783       3.49185841       2.01466519       0.00000000       0.00000000       0.00000000
H        2.92091876       3.19094153       3.57445832       0.00000000       0.00000000       0.00000000
H        0.00000348       8.95157626       4.70497583       0.00000000       0.00000000       0.00000000
H        1.42512586       7.52645430       3.58289565       0.00000000       0.00000000       0.00000000
H        0.91354605       8.03803590       2.00382148       0.00000000       0.00000000       0.00000000
H        8.03803680       0.91354491       2.00382628       0.00000000       0.00000000       0.00000000
H        7.52645594       1.42512382       3.58291356       0.00000000       0.00000000       0.00000000
Pb       8.95158102       4.47579056       6.28333844       0.00000000       0.00000000       0.00000000
Pb       4.47578931       0.00000029       6.28333841       0.00000000       0.00000000       0.00000000
I       -0.00000080       4.47578864       3.11507573       0.00000000       0.00000000       0.00000000
I        4.47579122       0.00000329       3.11507565       0.00000000       0.00000000       0.00000000
I        1.95657822       1.95658116       6.26906953       0.00000000       0.00000000       0.00000000
I        2.51920393       6.43237575       6.26906579       0.00000000       0.00000000       0.00000000
I        6.43237063       2.51920903       6.26906838       0.00000000       0.00000000       0.00000000
I        6.99499616       6.99499908       6.26906557       0.00000000       0.00000000       0.00000000
24
Lattice="8.951583967708043 0.0 0.0 0.0 8.951583967708043 0.0 0.0 0.0 6.328972425814492" Properties=species:S:1:pos:R:3:momenta:R:3 config_id=t-FAPI3_small_rotation_05 phase=t-FAPI3 mode=small_rotation seed=3711218338 source=t-FAPI3/CONTCAR pbc="T T T"
C        4.38217248       4.51098946       3.60189171       0.00000000       0.00000000       0.00000000
C        0.00917523       0.00307854       3.61384168       0.00000000       0.00000000       0.00000000
N        5.32180922       5.29989355       3.13398989       0.00000000       0.00000000       0.00000000
N        3.70863913       3.62205564       2.90870626       0.00000000       0.00000000       0.00000000
N        0.82906482       8.12981105       3.00417926       0.00000000       0.00000000       0.00000000
N        8.11479972       0.81915948       3.02844938       0.00000000       0.00000000       0.00000000
H        4.13924867       4.60223159       4.66160335       0.00000000       0.00000000       0.00000000
H        5.77942903       5.95447164       3.76590038       0.00000000       0.00000000       0.00000000
H        5.63189900       5.30328017       2.16243125       0.00000000       0.00000000       0.00000000
H        3.84938702       3.44931253       1.91350052       0.00000000       0.00000000       0.00000000
H        2.99871407       3.06228557       3.37756743       0.00000000       0.00000000       0.00000000
H        0.03295740       0.01109692       4.70457577       0.00000000       0.00000000       0.00000000
H        1.44423752       7.54017029       3.56187618       0.00000000       0.00000000       0.00000000
H        0.89442000       8.03625493       1.99072832       0.00000000       0.00000000       0.00000000
H        8.00529515       0.89784775       2.01754918       0.00000000       0.00000000       0.00000000
H        7.52432758       1.41713073       3.60372697       0.00000000       0.00000000       0.00000000
Pb       8.95158102       4.47579056       6.28333844       0.00000000       0.00000000       0.00000000
Pb       4.47578931       0.00000029       6.28333841       0.00000000       0.00000000       0.00000000
I       -0.00000080       4.47578864       3.11507573       0.00000000       0.00000000       0.00000000
I        4.47579122       0.00000329       3.11507565       0.00000000       0.00000000       0.00000000
I        1.95657822       1.95658116       6.26906953       0.00000000       0.00000000       0.00000000
I        2.51920393       6.43237575       6.26906579       0.00000000       0.00000000       0.00000000
I        6.43237063       2.51920903       6.26906838       0.00000000       0.00000000       0.00000000
I        6.99499616       6.99499908       6.26906557       0.00000000       0.00000000       0.00000000
24
Lattice="8.951583967708043 0.0 0.0 0.0 8.951583967708043 0.0 0.0 0.0 6.328972425814492" Properties=species:S:1:pos:R:3:momenta:R:3 config_id=t-FAPI3_small_rotation_06 phase=t-FAPI3 mode=small_rotation seed=1368476405 source=t-FAPI3/CONTCAR pbc="T T T"
C        4.46094773       4.50246149       3.61284893       0.00000000       0.00000000       0.00000000
C        0.00571255       8.95086001       3.61391367       0.00000000       0.00000000       0.00000000
N        5.32221773       5.27739187       2.99485551       0.00000000       0.00000000       0.00000000
N        3.64187406       3.65174089       3.03861087       0.00000000       0.00000000       0.00000000
N        0.81499252       8.11594447       3.00377506       0.00000000       0.00000000       0.00000000
N        8.13178877       0.83622908       3.02879294       0.00000000       0.00000000       0.00000000
H        4.42238068       4.57158202       4.70099451       0.00000000       0.00000000       0.00000000
H        5.91028374       5.90159483       3.54417169       0.00000000       0.00000000       0.00000000
H        5.44619570       5.29856779       1.98279109       0.00000000       0.00000000       0.00000000
H        3.58945901       3.50226532       2.03114160       0.00000000       0.00000000       0.00000000
H        3.01377809       3.09936635       3.61959686       0.00000000       0.00000000       0.00000000
H        0.02051203       8.94901408       4.70483452       0.00000000       0.00000000       0.00000000
H        1.41425981       7.50998573       3.56129840       0.00000000       0.00000000       0.00000000
H        0.88705337       8.02991867       1.99011159       0.00000000       0.00000000       0.00000000
H        8.03225028       0.92569493       2.01775868       0.00000000       0.00000000       0.00000000
H        7.54789151       1.44027202       3.60443811       0.00000000       0.00000000       0.00000000
Pb       8.95158102       4.47579056       6.28333844       0.00000000       0.00000000       0.00000000
Pb       4.47578931       0.00000029       6.28333841       0.00000000       0.00000000       0.00000000
I       -0.00000080       4.47578864       3.11507573       0.00000000       0.00000000       0.00000000
I        4.47579122       0.00000329       3.11507565       0.00000000       0.00000000       0.00000000
I        1.95657822       1.95658116       6.26906953       0.00000000       0.00000000       0.00000000
I        2.51920393       6.43237575       6.26906579       0.00000000       0.00000000       0.00000000
I        6.43237063       2.51920903       6.26906838       0.00000000       0.00000000       0.00000000
I        6.99499616       6.99499908       6.26906557       0.00000000       0.00000000       0.00000000
24
Lattice="8.951583967708043 0.0 0.0 0.0 8.951583967708043 0.0 0.0 0.0 6.328972425814492" Properties=species:S:1:pos:R:3:momenta:R:3 config_id=t-FAPI3_small_rotation_07 phase=t-FAPI3 mode=small_rotation seed=1765817918 source=t-FAPI3/CONTCAR pbc="T T T"
C        4.46503120       4.50308862       3.61293324       0.00000000       0.00000000       0.00000000
C        0.05900159       0.05601752       3.60600801       0.00000000       0.00000000       0.00000000
N        5.41436628       5.16726035       2.99498680       0.00000000       0.00000000       0.00000000
N        3.54628576       3.76134420       3.03840856       0.00000000       0.00000000       0.00000000
N        0.89097021       8.20181849       2.98727615       0.00000000       0.00000000       0.00000000
N        8.01092328       0.70255910       3.05195116       0.00000000       0.00000000       0.00000000
H        4.43705142       4.57384316       4.70129751       0.00000000       0.00000000       0.00000000
H        6.07587074       5.71279251       3.54453729       0.00000000       0.00000000       0.00000000
H        5.53837242       5.17538770       1.98273695       0.00000000       0.00000000       0.00000000
H        3.47419134       3.62188658       2.03071884       0.00000000       0.00000000       0.00000000
H        2.85575224       3.28933368       3.61938742       0.00000000       0.00000000       0.00000000
H        0.21204328       0.20137025       4.67641988       0.00000000       0.00000000       0.00000000
H        1.63326623       7.75175475       3.51979732       0.00000000       0.00000000       0.00000000
H        0.84507552       7.99071731       1.99056314       0.00000000       0.00000000       0.00000000
H        7.77276753       0.64390504       2.06203003       0.00000000       0.00000000       0.00000000
H        7.42759298       1.30360588       3.63129544       0.00000000       0.00000000       0.00000000
Pb       8.95158102       4.47579056       6.28333844       0.00000000       0.00000000       0.00000000
Pb       4.47578931       0.00000029       6.28333841       0.00000000       0.00000000       0.00000000
I       -0.00000080       4.47578864       3.11507573       0.00000000       0.00000000       0.00000000
I        4.47579122       0.00000329       3.11507565       0.00000000       0.00000000       0.00000000
I        1.95657822       1.95658116       6.26906953       0.00000000       0.00000000       0.00000000
I        2.51920393       6.43237575       6.26906579       0.00000000       0.00000000       0.00000000
I        6.43237063       2.51920903       6.26906838       0.00000000       0.00000000       0.00000000
I        6.99499616       6.99499908       6.26906557       0.00000000       0.00000000       0.00000000
24
Lattice="8.951583967708043 0.0 0.0 0.0 8.951583967708043 0.0 0.0 0.0 6.328972425814492" Properties=species:S:1:pos:R:3:momenta:R:3 config_id=t-FAPI3_small_rotation_08 phase=t-FAPI3 mode=small_rotation seed=3491413932 source=t-FAPI3/CONTCAR pbc="T T T"
C        4.47580859       4.47581216       3.61395771       0.00000000       0.00000000       0.00000000
C        8.92057803       8.88326111       3.60720705       0.00000000       0.00000000       0.00000000
N        5.30254330       5.30254700       3.01626364       0.00000000       0.00000000       0.00000000
N        3.64903041       3.64903389       3.01626875       0.00000000       0.00000000       0.00000000
N        0.91683431       8.24054236       2.96471300       0.00000000       0.00000000       0.00000000
N        8.06087686       0.76857314       3.07350423       0.00000000       0.00000000       0.00000000
H        4.47579450       4.47579803       4.70497827       0.00000000       0.00000000       0.00000000
H        5.90092284       5.90092643       3.58290570       0.00000000       0.00000000       0.00000000
H        5.38933710       5.38934018       2.00382741       0.00000000       0.00000000       0.00000000
H        3.56224778       3.56225067       2.00383502       0.00000000       0.00000000       0.00000000
H        3.05066699       3.05067030       3.58291603       0.00000000       0.00000000       0.00000000
H        8.84011979       8.70604663       4.68073033       0.00000000       0.00000000       0.00000000
H        1.52914340       7.61307582       3.48288563       0.00000000       0.00000000       0.00000000
H        1.08635823       8.32734425       1.96279788       0.00000000       0.00000000       0.00000000
H        8.04066766       1.01068579       2.08301175       0.00000000       0.00000000       0.00000000
H        7.36499092       1.21196362       3.67042877       0.00000000       0.00000000       0.00000000
Pb       8.95158102       4.47579056       6.28333844       0.00000000       0.00000000       0.00000000
Pb       4.47578931       0.00000029       6.28333841       0.00000000       0.00000000       0.00000000
I       -0.00000080       4.47578864       3.11507573       0.00000000       0.00000000       0.00000000
I        4.47579122       0.00000329       3.11507565       0.00000000       0.00000000       0.00000000
I        1.95657822       1.95658116       6.26906953       0.00000000       0.00000000       0.00000000
I        2.51920393       6.43237575       6.26906579       0.00000000       0.00000000       0.00000000
I        6.43237063       2.51920903       6.26906838       0.00000000       0.00000000       0.00000000
I        6.99499616       6.99499908       6.26906557       0.00000000       0.00000000       0.00000000
24
Lattice="8.951583967708043 0.0 0.0 0.0 8.951583967708043 0.0 0.0 0.0 6.328972425814492" Properties=species:S:1:pos:R:3:momenta:R:3 config_id=t-FAPI3_small_rotation_09 phase=t-FAPI3 mode=small_rotation seed=2344549124 source=t-FAPI3/CONTCAR pbc="T T T"
C        4.47580859       4.47581216       3.61395771       0.00000000       0.00000000       0.00000000
C        8.92731702       8.95157022       3.61325216       0.00000000       0.00000000       0.00000000
N        5.30254330       5.30254700       3.01626364       0.00000000       0.00000000       0.00000000
N        3.64903041       3.64903389       3.01626875       0.00000000       0.00000000       0.00000000
N        0.87028604       8.16107415       3.06628046       0.00000000       0.00000000       0.00000000
N        8.10174850       0.79050120       2.96684483       0.00000000       0.00000000       0.00000000
H        4.47579450       4.47579803       4.70497827       0.00000000       0.00000000       0.00000000
H        5.90092284       5.90092643       3.58290570       0.00000000       0.00000000       0.00000000
H        5.38933710       5.38934018       2.00382741       0.00000000       0.00000000       0.00000000
H        3.56224778       3.56225067       2.00383502       0.00000000       0.00000000       0.00000000
H        3.05066699       3.05067030       3.58291603       0.00000000       0.00000000       0.00000000
H        8.86434203       8.95156604       4.70245595       0.00000000       0.00000000       0.00000000
H        1.46004047       7.58895059       3.66794805       0.00000000       0.00000000       0.00000000
H        1.01899814       8.07810749       2.06074175       0.00000000       0.00000000       0.00000000
H        8.06990377       0.87348912       1.95087179       0.00000000       0.00000000       0.00000000
H        7.44657761       1.36262190       3.49656200       0.00000000       0.00000000       0.00000000
Pb       8.95158102       4.47579056       6.28333844       0.00000000       0.00000000       0.00000000
Pb       4.47578931       0.00000029       6.28333841       0.00000000       0.00000000       0.00000000
I       -0.00000080       4.47578864       3.11507573       0.00000000       0.00000000       0.00000000
I        4.47579122       0.00000329       3.11507565       0.00000000       0.00000000       0.00000000
I        1.95657822       1.95658116       6.26906953       0.00000000       0.00000000       0.00000000
I        2.51920393       6.43237575       6.26906579       0.00000000       0.00000000       0.00000000
I        6.43237063       2.51920903       6.26906838       0.00000000       0.00000000       0.00000000
I        6.99499616       6.99499908       6.26906557       0.00000000       0.00000000       0.00000000
24
Lattice="8.951583967708043 0.0 0.0 0.0 8.951583967708043 0.0 0.0 0.0 6.328972425814492" Properties=species:S:1:pos:R:3:momenta:R:3 config_id=t-FAPI3_small_rotation_10 phase=t-FAPI3 mode=small_rotation seed=2111823114 source=t-FAPI3/CONTCAR pbc="T T T"
C        4.47580859       4.47581216       3.61395771       0.00000000       0.00000000       0.00000000
C        0.00258338       8.94464544       3.61388799       0.00000000       0.00000000       0.00000000
N        5.30254330       5.30254700       3.01626364       0.00000000       0.00000000       0.00000000
N        3.64903041       3.64903389       3.01626875       0.00000000       0.00000000       0.00000000
N        0.84229460       8.14489975       2.99778812       0.00000000       0.00000000       0.00000000
N        8.10712259       0.81250866       3.03480150       0.00000000       0.00000000       0.00000000
H        4.47579450       4.47579803       4.70497827       0.00000000       0.00000000       0.00000000
H        5.90092284       5.90092643       3.58290570       0.00000000       0.00000000       0.00000000
H        5.38933710       5.38934018       2.00382741       0.00000000       0.00000000       0.00000000
H        3.56224778       3.56225067       2.00383502       0.00000000       0.00000000       0.00000000
H        3.05066699       3.05067030       3.58291603       0.00000000       0.00000000       0.00000000
H        0.00926460       8.92667706       4.70474235       0.00000000       0.00000000       0.00000000
H        1.45615140       7.54962949       3.55093609       0.00000000       0.00000000       0.00000000
H        0.92461627       8.07659967       1.98355684       0.00000000       0.00000000       0.00000000
H        8.01238993       0.91417096       2.02445858       0.00000000       0.00000000       0.00000000
H        7.50020311       1.38911624       3.61475297       0.00000000       0.00000000       0.00000000
Pb       8.95158102       4.47579056       6.28333844       0.00000000       0.00000000       0.00000000
Pb       4.47578931       0.00000029       6.28333841       0.00000000       0.00000000       0.00000000
I       -0.00000080       4.47578864       3.11507573       0.00000000       0.00000000       0.00000000
I        4.47579122       0.00000329       3.11507565       0.00000000       0.00000000       0.00000000
I        1.95657822       1.95658116       6.26906953       0.00000000       0.00000000       0.00000000
I        2.51920393       6.43237575       6.26906579       0.00000000       0.00000000       0.00000000
I        6.43237063       2.51920903       6.26906838       0.00000000       0.00000000       0.00000000
I        6.99499616       6.99499908       6.26906557       0.00000000       0.00000000       0.00000000
24
Lattice="8.951583967708043 0.0 0.0 0.0 8.951583967708043 0.0 0.0 0.0 6.328972425814492" Properties=species:S:1:pos:R:3:momenta:R:3 config_id=t-FAPI3_small_rotation_11 phase=t-FAPI3 mode=small_rotation seed=2304314566 source=t-FAPI3/CONTCAR pbc="T T T"
C        4.47529310       4.50856181       3.61267916       0.00000000       0.00000000       0.00000000
C        8.93288298       8.94443912       3.61347627       0.00000000       0.00000000       0.00000000
N        5.40732624       5.16682693       2.96289440       0.00000000       0.00000000       0.00000000
N        3.54468166       3.75716726       3.07071500       0.00000000       0.00000000       0.00000000
N        0.86804415       8.16301718       3.04133122       0.00000000       0.00000000       0.00000000
N        8.09930192       0.79456505       2.99160526       0.00000000       0.00000000       0.00000000
H        4.47393495       4.59351477       4.70038639       0.00000000       0.00000000       0.00000000
H        6.08068999       5.72108807       3.48879846       0.00000000       0.00000000       0.00000000
H        5.50634298       5.16197501       1.94787446       0.00000000       0.00000000       0.00000000
H        3.44816852       3.60433744       2.06701540       0.00000000       0.00000000       0.00000000
H        2.86994176       3.29117634       3.67465658       0.00000000       0.00000000       0.00000000
H        8.88434736       8.92593524       4.70326186       0.00000000       0.00000000       0.00000000
H        1.46537182       7.58051822       3.62531252       0.00000000       0.00000000       0.00000000
H        1.00336757       8.09710653       2.03264386       0.00000000       0.00000000       0.00000000
H        8.05404707       0.89483154       1.97770145       0.00000000       0.00000000       0.00000000
H        7.45155635       1.35784502       3.53961311       0.00000000       0.00000000       0.00000000
Pb       8.95158102       4.47579056       6.28333844       0.00000000       0.00000000       0.00000000
Pb       4.47578931       0.00000029       6.28333841       0.00000000       0.00000000       0.00000000
I       -0.00000080       4.47578864       3.11507573       0.00000000       0.00000000       0.00000000
I        4.47579122       0.00000329       3.11507565       0.00000000       0.00000000       0.00000000
I        1.95657822       1.95658116       6.26906953       0.00000000       0.00000000       0.00000000
I        2.51920393       6.43237575       6.26906579       0.00000000       0.00000000       0.00000000
I        6.43237063       2.51920903       6.26906838       0.00000000       0.00000000       0.00000000
I        6.99499616       6.99499908       6.26906557       0.00000000       0.00000000       0.00000000
24
Lattice="8.951583967708043 0.0 0.0 0.0 8.951583967708043 0.0 0.0 0.0 6.328972425814492" Properties=species:S:1:pos:R:3:momenta:R:3 config_id=t-FAPI3_small_rotation_12 phase=t-FAPI3 mode=small_rotation seed=935183908 source=t-FAPI3/CONTCAR pbc="T T T"
C        4.45148668       4.52487460       3.61037648       0.00000000       0.00000000       0.00000000
C        8.94958789       8.88894287       3.60925795       0.00000000       0.00000000       0.00000000
N        5.20111904       5.37774910       2.95092567       0.00000000       0.00000000       0.00000000
N        3.77094234       3.53250386       3.08462341       0.00000000       0.00000000       0.00000000
N        0.80226300       8.13553571       2.89523265       0.00000000       0.00000000       0.00000000
N        8.15101163       0.86879364       3.14125693       0.00000000       0.00000000       0.00000000
H        4.38838384       4.65213217       4.69211092       0.00000000       0.00000000       0.00000000
H        5.68590943       6.11161531       3.46436301       0.00000000       0.00000000       0.00000000
H        5.33473620       5.35650040       1.94009022       0.00000000       0.00000000       0.00000000
H        3.75442753       3.31755202       2.08782474       0.00000000       0.00000000       0.00000000
H        3.22063100       2.93085958       3.69482705       0.00000000       0.00000000       0.00000000
H        8.94438970       8.72646976       4.68810280       0.00000000       0.00000000       0.00000000
H        1.37958175       7.44145959       3.36650851       0.00000000       0.00000000       0.00000000
H        0.89120439       8.19788753       1.88117717       0.00000000       0.00000000       0.00000000
H        8.07170758       1.10799842       2.15302910       0.00000000       0.00000000       0.00000000
H        7.56829082       1.39410629       3.79060610       0.00000000       0.00000000       0.00000000
Pb       8.95158102       4.47579056       6.28333844       0.00000000       0.00000000       0.00000000
Pb       4.47578931       0.00000029       6.28333841       0.00000000       0.00000000       0.00000000
I       -0.00000080       4.47578864       3.11507573       0.00000000       0.00000000       0.00000000
I        4.47579122       0.00000329       3.11507565       0.00000000       0.00000000       0.00000000
I        1.95657822       1.95658116       6.26906953       0.00000000       0.00000000       0.00000000
I        2.51920393       6.43237575       6.26906579       0.00000000       0.00000000       0.00000000
I        6.43237063       2.51920903       6.26906838       0.00000000       0.00000000       0.00000000
I        6.99499616       6.99499908       6.26906557       0.00000000       0.00000000       0.00000000
24
Lattice="8.951583967708043 0.0 0.0 0.0 8.951583967708043 0.0 0.0 0.0 6.328972425814492" Properties=species:S:1:pos:R:3:momenta:R:3 config_id=t-FAPI3_small_rotation_13 phase=t-FAPI3 mode=small_rotation seed=1940470219 source=t-FAPI3/CONTCAR pbc="T T T"
C        4.48596433       4.49639973       3.61332960       0.00000000       0.00000000       0.00000000
C        8.89527956       8.93525140       3.60984669       0.00000000       0.00000000       0.00000000
N        5.30925164       5.28052210       2.95639042       0.00000000       0.00000000       0.00000000
N        3.63376735       3.65371680       3.07667108       0.00000000       0.00000000       0.00000000
N        0.67981051       7.99199816       3.06883349       0.00000000       0.00000000       0.00000000
N        8.31921045       0.97332312       2.96716039       0.00000000       0.00000000       0.00000000
H        4.51229555       4.54979480       4.70272462       0.00000000       0.00000000       0.00000000
H        5.92926535       5.89697544       3.47866191       0.00000000       0.00000000       0.00000000
H        5.37275084       5.31635138       1.93915030       0.00000000       0.00000000       0.00000000
H        3.52138375       3.51877340       2.07205931       0.00000000       0.00000000       0.00000000
H        3.04113618       3.09275719       3.68599818       0.00000000       0.00000000       0.00000000
H        8.74919564       8.89291515       4.69021601       0.00000000       0.00000000       0.00000000
H        1.07878124       7.27054778       3.66672249       0.00000000       0.00000000       0.00000000
H        0.88423750       7.92984694       2.07161051       0.00000000       0.00000000       0.00000000
H        8.38590048       1.11406416       1.95926818       0.00000000       0.00000000       0.00000000
H        7.76849623       1.65079976       3.49147948       0.00000000       0.00000000       0.00000000
Pb       8.95158102       4.47579056       6.28333844       0.00000000       0.00000000       0.00000000
Pb       4.47578931       0.00000029       6.28333841       0.00000000       0.00000000       0.00000000
I       -0.00000080       4.47578864       3.11507573       0.00000000       0.00000000       0.00000000
I        4.47579122       0.00000329       3.11507565       0.00000000       0.00000000       0.00000000
I        1.95657822       1.95658116       6.26906953       0.00000000       0.00000000       0.00000000
I        2.51920393       6.43237575       6.26906579       0.00000000       0.00000000       0.00000000
I        6.43237063       2.51920903       6.26906838       0.00000000       0.00000000       0.00000000
I        6.99499616       6.99499908       6.26906557       0.00000000       0.00000000       0.00000000
24
Lattice="8.951583967708043 0.0 0.0 0.0 8.951583967708043 0.0 0.0 0.0 6.328972425814492" Properties=species:S:1:pos:R:3:momenta:R:3 config_id=t-FAPI3_small_rotation_14 phase=t-FAPI3 mode=small_rotation seed=1662250830 source=t-FAPI3/CONTCAR pbc="T T T"
C        4.47580859       4.47581216       3.61395771       0.00000000       0.00000000       0.00000000
C        0.01431134       0.03319741       3.61239597       0.00000000       0.00000000       0.00000000
N        5.30254330       5.30254700       3.01626364       0.00000000       0.00000000       0.00000000
N        3.64903041       3.64903389       3.01626875       0.00000000       0.00000000       0.00000000
N        0.97068190       8.29508584       3.03450103       0.00000000       0.00000000       0.00000000
N        7.96885644       0.62851432       2.99934545       0.00000000       0.00000000       0.00000000
H        4.47579450       4.47579803       4.70497827       0.00000000       0.00000000       0.00000000
H        5.90092284       5.90092643       3.58290570       0.00000000       0.00000000       0.00000000
H        5.38933710       5.38934018       2.00382741       0.00000000       0.00000000       0.00000000
H        3.56224778       3.56225067       2.00383502       0.00000000       0.00000000       0.00000000
H        3.05066699       3.05067030       3.58291603       0.00000000       0.00000000       0.00000000
H        0.05141520       0.11934825       4.69937899       0.00000000       0.00000000       0.00000000
H        1.69683294       7.87482053       3.61175424       0.00000000       0.00000000       0.00000000
H        1.03876583       8.14770333       2.02764959       0.00000000       0.00000000       0.00000000
H        7.83189621       0.61601644       1.98880697       0.00000000       0.00000000       0.00000000
H        7.28124329       1.13826785       3.55117038       0.00000000       0.00000000       0.00000000
Pb       8.95158102       4.47579056       6.28333844       0.00000000       0.00000000       0.00000000
Pb       4.47578931       0.00000029       6.28333841       0.00000000       0.00000000       0.00000000
I       -0.00000080       4.47578864       3.11507573       0.00000000       0.00000000       0.00000000
I        4.47579122       0.00000329       3.11507565       0.00000000       0.00000000       0.00000000
I        1.95657822       1.95658116       6.26906953       0.00000000       0.00000000       0.00000000
I        2.51920393       6.43237575       6.26906579       0.00000000       0.00000000       0.00000000
I        6.43237063       2.51920903       6.26906838       0.00000000       0.00000000       0.00000000
I        6.99499616       6.99499908       6.26906557       0.00000000       0.00000000       0.00000000
24
Lattice="8.951583967708043 0.0 0.0 0.0 8.951583967708043 0.0 0.0 0.0 6.328972425814492" Properties=species:S:1:pos:R:3:momenta:R:3 config_id=t-FAPI3_small_rotation_15 phase=t-FAPI3 mode=small_rotation seed=3391165254 source=t-FAPI3/CONTCAR pbc="T T T"
C        4.47930037       4.49013738       3.61369852       0.00000000       0.00000000       0.00000000
C        8.93164129       8.88747242       3.60855979       0.00000000       0.00000000       0.00000000
N        5.32438344       5.27178874       2.98197490       0.00000000       0.00000000       0.00000000
N        3.62424895       3.66772527       3.05077583       0.00000000       0.00000000       0.00000000
N        0.91780416       8.24695496       2.94927578       0.00000000       0.00000000       0.00000000
N        8.05058791       0.75861315       3.08780196       0.00000000       0.00000000       0.00000000
H        4.48834316       4.52728737       4.70404891       0.00000000       0.00000000       0.00000000
H        5.94433866       5.87157488       3.52337250       0.00000000       0.00000000       0.00000000
H        5.40521952       5.32149944       1.96655001       0.00000000       0.00000000       0.00000000
H        3.52661455       3.54905057       2.04257523       0.00000000       0.00000000       0.00000000
H        3.01371847       3.10655800       3.64197016       0.00000000       0.00000000       0.00000000
H        8.87988357       8.72118291       4.68559260       0.00000000       0.00000000       0.00000000
H        1.54909326       7.63108714       3.45851092       0.00000000       0.00000000       0.00000000
H        1.06128548       8.32447797       1.94254338       0.00000000       0.00000000       0.00000000
H        8.00315439       0.98972836       2.09561340       0.00000000       0.00000000       0.00000000
H        7.36553393       1.20175295       3.69730948       0.00000000       0.00000000       0.00000000
Pb       8.95158102       4.47579056       6.28333844       0.00000000       0.00000000       0.00000000
Pb       4.47578931       0.00000029       6.28333841       0.00000000       0.00000000       0.00000000
I       -0.00000080       4.47578864       3.11507573       0.00000000       0.00000000       0.00000000
I        4.47579122       0.00000329       3.11507565       0.00000000       0.00000000       0.00000000
I        1.95657822       1.95658116       6.26906953       0.00000000       0.00000000       0.00000000
I        2.51920393       6.43237575       6.26906579       0.00000000       0.00000000       0.00000000
I        6.43237063       2.51920903       6.26906838       0.00000000       0.00000000       0.00000000
I        6.99499616       6.99499908       6.26906557       0.00000000       0.00000000       0.00000000
24
Lattice="8.951583967708043 0.0 0.0 0.0 8.951583967708043 0.0 0.0 0.0 6.328972425814492" Properties=species:S:1:pos:R:3:momenta:R:3 config_id=t-FAPI3_small_rotation_16 phase=t-FAPI3 mode=small_rotation seed=1357441694 source=t-FAPI3/CONTCAR pbc="T T T"
C        4.47580859       4.47581216       3.61395771       0.00000000       0.00000000       0.00000000
C        8.90143664       0.01203655       3.61077848       0.00000000       0.00000000       0.00000000
N        5.30254330       5.30254700       3.01626364       0.00000000       0.00000000       0.00000000
N        3.64903041       3.64903389       3.01626875       0.00000000       0.00000000       0.00000000
N        0.91815722       8.20776280       3.14671755       0.00000000       0.00000000       0.00000000
N        8.07567767       0.73366207       2.88849154       0.00000000       0.00000000       0.00000000
H        4.47579450       4.47579803       4.70497827       0.00000000       0.00000000       0.00000000
H        5.90092284       5.90092643       3.58290570       0.00000000       0.00000000       0.00000000
H        5.38933710       5.38934018       2.00382741       0.00000000       0.00000000       0.00000000
H        3.56224778       3.56225067       2.00383502       0.00000000       0.00000000       0.00000000
H        3.05066699       3.05067030       3.58291603       0.00000000       0.00000000       0.00000000
H        8.77132134       0.04329278       4.69356368       0.00000000       0.00000000       0.00000000
H        1.49979935       7.68933815       3.80251315       0.00000000       0.00000000       0.00000000
H        1.13305447       8.10122034       2.15546848       0.00000000       0.00000000       0.00000000
H        8.10225640       0.78220724       1.87014030       0.00000000       0.00000000       0.00000000
H        7.35887861       1.28455472       3.35741333       0.00000000       0.00000000       0.00000000
Pb       8.95158102       4.47579056       6.28333844       0.00000000       0.00000000       0.00000000
Pb       4.47578931       0.00000029       6.28333841       0.00000000       0.00000000       0.00000000
I       -0.00000080       4.47578864       3.11507573       0.00000000       0.00000000       0.00000000
I        4.47579122       0.00000329       3.11507565       0.00000000       0.00000000       0.00000000
I        1.95657822       1.95658116       6.26906953       0.00000000       0.00000000       0.00000000
I        2.51920393       6.43237575       6.26906579       0.00000000       0.00000000       0.00000000
I        6.43237063       2.51920903       6.26906838       0.00000000       0.00000000       0.00000000
I        6.99499616       6.99499908       6.26906557       0.00000000       0.00000000       0.00000000
24
Lattice="8.951583967708043 0.0 0.0 0.0 8.951583967708043 0.0 0.0 0.0 6.328972425814492" Properties=species:S:1:pos:R:3:momenta:R:3 config_id=t-FAPI3_small_rotation_17 phase=t-FAPI3 mode=small_rotation seed=3545876699 source=t-FAPI3/CONTCAR pbc="T T T"
C        4.50514441       4.49494234       3.61249518       0.00000000       0.00000000       0.00000000
C        0.00000663       8.95157291       3.61395304       0.00000000       0.00000000       0.00000000
N        5.28264358       5.29651878       2.92170635       0.00000000       0.00000000       0.00000000
N        3.64421903       3.63894775       3.11205804       0.00000000       0.00000000       0.00000000
N        0.82676527       8.12481519       3.01626668       0.00000000       0.00000000       0.00000000
N        8.12482240       0.82675785       3.01626817       0.00000000       0.00000000       0.00000000
H        4.58123384       4.54455562       4.69972781       0.00000000       0.00000000       0.00000000
H        5.91508875       5.92214175       3.41749688       0.00000000       0.00000000       0.00000000
H        5.29802360       5.33747211       1.90279535       0.00000000       0.00000000       0.00000000
H        3.48760666       3.50589878       2.11313104       0.00000000       0.00000000       0.00000000
H        3.09084167       3.06489080       3.74561863       0.00000000       0.00000000       0.00000000
H        0.00000348       8.95157626       4.70497583       0.00000000       0.00000000       0.00000000
H        1.42512586       7.52645430       3.58289565       0.00000000       0.00000000       0.00000000
H        0.91354605       8.03803590       2.00382148       0.00000000       0.00000000       0.00000000
H        8.03803680       0.91354491       2.00382628       0.00000000       0.00000000       0.00000000
H        7.52645594       1.42512382       3.58291356       0.00000000       0.00000000       0.00000000
Pb       8.95158102       4.47579056       6.28333844       0.00000000       0.00000000       0.00000000
Pb       4.47578931       0.00000029       6.28333841       0.00000000       0.00000000       0.00000000
I       -0.00000080       4.47578864       3.11507573       0.00000000       0.00000000       0.00000000
I        4.47579122       0.00000329       3.11507565       0.00000000       0.00000000       0.00000000
I        1.95657822       1.95658116       6.26906953       0.00000000       0.00000000       0.00000000
I        2.51920393       6.43237575       6.26906579       0.00000000       0.00000000       0.00000000
I        6.43237063       2.51920903       6.26906838       0.00000000       0.00000000       0.00000000
I        6.99499616       6.99499908       6.26906557       0.00000000       0.00000000       0.00000000
24
Lattice="8.951583967708043 0.0 0.0 0.0 8.951583967708043 0.0 0.0 0.0 6.328972425814492" Properties=species:S:1:pos:R:3:momenta:R:3 config_id=t-FAPI3_small_rotation_18 phase=t-FAPI3 mode=small_rotation seed=2721125248 source=t-FAPI3/CONTCAR pbc="T T T"
C        4.47580859       4.47581216       3.61395771       0.00000000       0.00000000       0.00000000
C        8.94897638       8.94678146       3.61391759       0.00000000       0.00000000       0.00000000
N        5.30254330       5.30254700       3.01626364       0.00000000       0.00000000       0.00000000
N        3.64903041       3.64903389       3.01626875       0.00000000       0.00000000       0.00000000
N        0.83400450       8.13302794       3.01210985       0.00000000       0.00000000       0.00000000
N        8.11978527       0.82258118       3.02045486       0.00000000       0.00000000       0.00000000
H        4.47579450       4.47579803       4.70497827       0.00000000       0.00000000       0.00000000
H        5.90092284       5.90092643       3.58290570       0.00000000       0.00000000       0.00000000
H        5.38933710       5.38934018       2.00382741       0.00000000       0.00000000       0.00000000
H        3.56224778       3.56225067       2.00383502       0.00000000       0.00000000       0.00000000
H        3.05066699       3.05067030       3.58291603       0.00000000       0.00000000       0.00000000
H        8.94219124       8.93435460       4.70484851       0.00000000       0.00000000       0.00000000
H        1.43328528       7.53269470       3.57567181       0.00000000       0.00000000       0.00000000
H        0.92772308       8.05843381       1.99931204       0.00000000       0.00000000       0.00000000
H        8.03864882       0.92025288       2.00853617       0.00000000       0.00000000       0.00000000
H        7.51345397       1.41000789       3.59007182       0.00000000       0.00000000       0.00000000
Pb       8.95158102       4.47579056       6.28333844       0.00000000       0.00000000       0.00000000
Pb       4.47578931       0.00000029       6.28333841       0.00000000       0.00000000       0.00000000
I       -0.00000080       4.47578864       3.11507573       0.00000000       0.00000000       0.00000000
I        4.47579122       0.00000329       3.11507565       0.00000000       0.00000000       0.00000000
I        1.95657822       1.95658116       6.26906953       0.00000000       0.00000000       0.00000000
I        2.51920393       6.43237575       6.26906579       0.00000000       0.00000000       0.00000000
I        6.43237063       2.51920903       6.26906838       0.00000000       0.00000000       0.00000000
I        6.99499616       6.99499908       6.26906557       0.00000000       0.00000000       0.00000000
24
Lattice="8.951583967708043 0.0 0.0 0.0 8.951583967708043 0.0 0.0 0.0 6.328972425814492" Properties=species:S:1:pos:R:3:momenta:R:3 config_id=t-FAPI3_wide_rotation_01 phase=t-FAPI3 mode=wide_rotation seed=1049785491 source=t-FAPI3/CONTCAR pbc="T T T"
C        4.34765302       4.87576868       3.21517566       0.00000000       0.00000000       0.00000000
C        8.69545510       8.93203766       2.86040387       0.00000000       0.00000000       0.00000000
N        4.82602863       4.46331317       2.06397794       0.00000000       0.00000000       0.00000000
N        4.23349747       4.15136347       4.30447001       0.00000000       0.00000000       0.00000000
N        8.63826516       1.06705013       3.59547164       0.00000000       0.00000000       0.00000000
N        0.52907626       7.90098087       3.07181461       0.00000000       0.00000000       0.00000000
H        4.01521177       5.91336606       3.27174744       0.00000000       0.00000000       0.00000000
H        4.86779858       5.11510159       1.28255209       0.00000000       0.00000000       0.00000000
H        5.16562253       3.51682441       1.89389458       0.00000000       0.00000000       0.00000000
H        4.51089020       3.17212986       4.36958090       0.00000000       0.00000000       0.00000000
H        3.84641784       4.57737729       5.14461790       0.00000000       0.00000000       0.00000000
H        8.03099841       8.88133048       1.99654229       0.00000000       0.00000000       0.00000000
H        7.98833732       1.80703098       3.33631593       0.00000000       0.00000000       0.00000000
H        0.25907434       1.22524012       4.42459700       0.00000000       0.00000000       0.00000000
H        1.18989148       7.83688621       3.84597056       0.00000000       0.00000000       0.00000000
H        0.48881585       7.10832615       2.43365409       0.00000000       0.00000000       0.00000000
Pb       8.95158102       4.47579056       6.28333844       0.00000000       0.00000000       0.00000000
Pb       4.47578931       0.00000029       6.28333841       0.00000000       0.00000000       0.00000000
I       -0.00000080       4.47578864       3.11507573       0.00000000       0.00000000       0.00000000
I        4.47579122       0.00000329       3.11507565       0.00000000       0.00000000       0.00000000
I        1.95657822       1.95658116       6.26906953       0.00000000       0.00000000       0.00000000
I        2.51920393       6.43237575       6.26906579       0.00000000       0.00000000       0.00000000
I        6.43237063       2.51920903       6.26906838       0.00000000       0.00000000       0.00000000
I        6.99499616       6.99499908       6.26906557       0.00000000       0.00000000       0.00000000
24
Lattice="8.951583967708043 0.0 0.0 0.0 8.951583967708043 0.0 0.0 0.0 6.328972425814492" Properties=species:S:1:pos:R:3:momenta:R:3 config_id=t-FAPI3_wide_rotation_02 phase=t-FAPI3 mode=wide_rotation seed=3291088126 source=t-FAPI3/CONTCAR pbc="T T T"
C        4.61533041       4.38606117       2.80694016       0.00000000       0.00000000       0.00000000
C        0.00000663       8.95157291       3.61395304       0.00000000       0.00000000       0.00000000
N        5.46266467       4.95924781       3.63016596       0.00000000       0.00000000       0.00000000
N        3.37138244       4.06793511       3.08215975       0.00000000       0.00000000       0.00000000
N        0.82676527       8.12481519       3.01626668       0.00000000       0.00000000       0.00000000
N        8.12482240       0.82675785       3.01626817       0.00000000       0.00000000       0.00000000
H        4.97724992       4.15323956       1.80437633       0.00000000       0.00000000       0.00000000
H        6.40744527       5.16088277       3.30778081       0.00000000       0.00000000       0.00000000
H        5.23656914       5.22207830       4.58927716       0.00000000       0.00000000       0.00000000
H        2.92575663       4.23720022       3.98374256       0.00000000       0.00000000       0.00000000
H        2.80258167       3.62447515       2.36314942       0.00000000       0.00000000       0.00000000
H        0.00000348       8.95157626       4.70497583       0.00000000       0.00000000       0.00000000
H        1.42512586       7.52645430       3.58289565       0.00000000       0.00000000       0.00000000
H        0.91354605       8.03803590       2.00382148       0.00000000       0.00000000       0.00000000
H        8.03803680       0.91354491       2.00382628       0.00000000       0.00000000       0.00000000
H        7.52645594       1.42512382       3.58291356       0.00000000       0.00000000       0.00000000
Pb       8.95158102       4.47579056       6.28333844       0.00000000       0.00000000       0.00000000
Pb       4.47578931       0.00000029       6.28333841       0.00000000       0.00000000       0.00000000
I       -0.00000080       4.47578864       3.11507573       0.00000000       0.00000000       0.00000000
I        4.47579122       0.00000329       3.11507565       0.00000000       0.00000000       0.00000000
I        1.95657822       1.95658116       6.26906953       0.00000000       0.00000000       0.00000000
I        2.51920393       6.43237575       6.26906579       0.00000000       0.00000000       0.00000000
I        6.43237063       2.51920903       6.26906838       0.00000000       0.00000000       0.00000000
I        6.99499616       6.99499908       6.26906557       0.00000000       0.00000000       0.00000000
24
Lattice="8.951583967708043 0.0 0.0 0.0 8.951583967708043 0.0 0.0 0.0 6.328972425814492" Properties=species:S:1:pos:R:3:momenta:R:3 config_id=t-FAPI3_wide_rotation_03 phase=t-FAPI3 mode=wide_rotation seed=1698154985 source=t-FAPI3/CONTCAR pbc="T T T"
C        4.88734831       4.40031240       3.23577958       0.00000000       0.00000000       0.00000000
C        0.17089418       8.76191434       2.85919065       0.00000000       0.00000000       0.00000000
N        4.54213351       5.55433798       2.71302659       0.00000000       0.00000000       0.00000000
N        4.06277890       3.46084023       3.63806542       0.00000000       0.00000000       0.00000000
N        8.12123243       8.14876899       3.44727818       0.00000000       0.00000000       0.00000000
N        0.68640650       0.96256262       3.22102983       0.00000000       0.00000000       0.00000000
H        5.95498935       4.20442244       3.34575949       0.00000000       0.00000000       0.00000000
H        5.27010755       6.21021055       2.43538618       0.00000000       0.00000000       0.00000000
H        3.57655077       5.84598996       2.56241965       0.00000000       0.00000000       0.00000000
H        3.04687816       3.53272835       3.58456403       0.00000000       0.00000000       0.00000000
H        4.44381778       2.60152716       4.02992932       0.00000000       0.00000000       0.00000000
H        0.61423698       8.26990052       1.99218414       0.00000000       0.00000000       0.00000000
H        7.80261562       7.25440042       3.07886573       0.00000000       0.00000000       0.00000000
H        7.63021992       8.51270060       4.26371394       0.00000000       0.00000000       0.00000000
H        0.35460539       1.51179985       4.01371438       0.00000000       0.00000000       0.00000000
H        1.46553764       1.34586526       2.68885973       0.00000000       0.00000000       0.00000000
Pb       8.95158102       4.47579056       6.28333844       0.00000000       0.00000000       0.00000000
Pb       4.47578931       0.00000029       6.28333841       0.00000000       0.00000000       0.00000000
I       -0.00000080       4.47578864       3.11507573       0.00000000       0.00000000       0.00000000
I        4.47579122       0.00000329       3.11507565       0.00000000       0.00000000       0.00000000
I        1.95657822       1.95658116       6.26906953       0.00000000       0.00000000       0.00000000
I        2.51920393       6.43237575       6.26906579       0.00000000       0.00000000       0.00000000
I        6.43237063       2.51920903       6.26906838       0.00000000       0.00000000       0.00000000
I        6.99499616       6.99499908       6.26906557       0.00000000       0.00000000       0.00000000
24
Lattice="8.951583967708043 0.0 0.0 0.0 8.951583967708043 0.0 0.0 0.0 6.328972425814492" Properties=species:S:1:pos:R:3:momenta:R:3 config_id=t-FAPI3_wide_rotation_04 phase=t-FAPI3 mode=wide_rotation seed=3800937670 source=t-FAPI3/CONTCAR pbc="T T T"
C        4.24339111       4.82630917       3.19481780       0.00000000       0.00000000       0.00000000
C        0.00000663       8.95157291       3.61395304       0.00000000       0.00000000       0.00000000
N        4.83866952       4.50849764       2.06838164       0.00000000       0.00000000       0.00000000
N        4.30868190       4.14784132       4.31721481       0.00000000       0.00000000       0.00000000
N        0.82676527       8.12481519       3.01626668       0.00000000       0.00000000       0.00000000
N        8.12482240       0.82675785       3.01626817       0.00000000       0.00000000       0.00000000
H        3.64047541       5.73559702       3.19857743       0.00000000       0.00000000       0.00000000
H        4.71732925       5.11127226       1.25650817       0.00000000       0.00000000       0.00000000
H        5.42597351       3.68363282       1.94686869       0.00000000       0.00000000       0.00000000
H        4.84034969       3.28511847       4.43177161       0.00000000       0.00000000       0.00000000
H        3.80375803       4.48958934       5.13295195       0.00000000       0.00000000       0.00000000
H        0.00000348       8.95157626       4.70497583       0.00000000       0.00000000       0.00000000
H        1.42512586       7.52645430       3.58289565       0.00000000       0.00000000       0.00000000
H        0.91354605       8.03803590       2.00382148       0.00000000       0.00000000       0.00000000
H        8.03803680       0.91354491       2.00382628       0.00000000       0.00000000       0.00000000
H        7.52645594       1.42512382       3.58291356       0.00000000       0.00000000       0.00000000
Pb       8.95158102       4.47579056       6.28333844       0.00000000       0.00000000       0.00000000
Pb       4.47578931       0.00000029       6.28333841       0.00000000       0.00000000       0.00000000
I       -0.00000080       4.47578864       3.11507573       0.00000000       0.00000000       0.00000000
I        4.47579122       0.00000329       3.11507565       0.00000000       0.00000000       0.00000000
I        1.95657822       1.95658116       6.26906953       0.00000000       0.00000000       0.00000000
I        2.51920393       6.43237575       6.26906579       0.00000000       0.00000000       0.00000000
I        6.43237063       2.51920903       6.26906838       0.00000000       0.00000000       0.00000000
I        6.99499616       6.99499908       6.26906557       0.00000000       0.00000000       0.00000000
24
Lattice="8.951583967708043 0.0 0.0 0.0 8.951583967708043 0.0 0.0 0.0 6.328972425814492" Properties=species:S:1:pos:R:3:momenta:R:3 config_id=t-FAPI3_wide_rotation_05 phase=t-FAPI3 mode=wide_rotation seed=764672315 source=t-FAPI3/CONTCAR pbc="T T T"
C        4.42933994       4.74245146       2.87151289       0.00000000       0.00000000       0.00000000
C        0.19324964       0.31959731       3.38672847       0.00000000       0.00000000       0.00000000
N        5.13033513       5.16262017       3.89926917       0.00000000       0.00000000       0.00000000
N        3.86038175       3.56435633       2.75866336       0.00000000       0.00000000       0.00000000
N        0.23912288       8.09947712       3.97773791       0.00000000       0.00000000       0.00000000
N        8.54968618       0.58287455       2.24620038       0.00000000       0.00000000       0.00000000
H        4.30878910       5.43415541       2.03644463       0.00000000       0.00000000       0.00000000
H        5.52730560       6.10026364       3.87833115       0.00000000       0.00000000       0.00000000
H        5.30885274       4.60461958       4.73405066       0.00000000       0.00000000       0.00000000
H        3.90558665       2.83858031       3.47370902       0.00000000       0.00000000       0.00000000
H        3.33821339       3.34524478       1.91220177       0.00000000       0.00000000       0.00000000
H        0.69457170       1.14873504       3.88826368       0.00000000       0.00000000       0.00000000
H        0.73145377       8.01081772       4.86480575       0.00000000       0.00000000       0.00000000
H        8.75913274       7.25474756       3.60319473       0.00000000       0.00000000       0.00000000
H        8.05082726       8.84035758       1.68990371       0.00000000       0.00000000       0.00000000
H        8.57809042       1.53278330       1.88008863       0.00000000       0.00000000       0.00000000
Pb       8.95158102       4.47579056       6.28333844       0.00000000       0.00000000       0.00000000
Pb       4.47578931       0.00000029       6.28333841       0.00000000       0.00000000       0.00000000
I       -0.00000080       4.47578864       3.11507573       0.00000000       0.00000000       0.00000000
I        4.47579122       0.00000329       3.11507565       0.00000000       0.00000000       0.00000000
I        1.95657822       1.95658116       6.26906953       0.00000000       0.00000000       0.00000000
I        2.51920393       6.43237575       6.26906579       0.00000000       0.00000000       0.00000000
I        6.43237063       2.51920903       6.26906838       0.00000000       0.00000000       0.00000000
I        6.99499616       6.99499908       6.26906557       0.00000000       0.00000000       0.00000000
24
Lattice="8.951583967708043 0.0 0.0 0.0 8.951583967708043 0.0 0.0 0.0 6.328972425814492" Properties=species:S:1:pos:R:3:momenta:R:3 config_id=t-FAPI3_wide_rotation_06 phase=t-FAPI3 mode=wide_rotation seed=85244482 source=t-FAPI3/CONTCAR pbc="T T T"
C        4.47580859       4.47581216       3.61395771       0.00000000       0.00000000       0.00000000
C        0.05876984       8.60885281       3.42994373       0.00000000       0.00000000       0.00000000
N        5.30254330       5.30254700       3.01626364       0.00000000       0.00000000       0.00000000
N        3.64903041       3.64903389       3.01626875       0.00000000       0.00000000       0.00000000
N        0.51900019       0.79383244       3.89972916       0.00000000       0.00000000       0.00000000
N        8.38308821       8.44643232       2.28780664       0.00000000       0.00000000       0.00000000
H        4.47579450       4.47579803       4.70497827       0.00000000       0.00000000       0.00000000
H        5.90092284       5.90092643       3.58290570       0.00000000       0.00000000       0.00000000
H        5.38933710       5.38934018       2.00382741       0.00000000       0.00000000       0.00000000
H        3.56224778       3.56225067       2.00383502       0.00000000       0.00000000       0.00000000
H        3.05066699       3.05067030       3.58291603       0.00000000       0.00000000       0.00000000
H        0.21121456       7.71973649       4.04359145       0.00000000       0.00000000       0.00000000
H        0.99170622       0.80212820       4.80173787       0.00000000       0.00000000       0.00000000
H        0.43460557       1.68708364       3.41487176       0.00000000       0.00000000       0.00000000
H        8.18454245       0.25174602       1.63375173       0.00000000       0.00000000       0.00000000
H        8.06872979       7.51458606       2.02320773       0.00000000       0.00000000       0.00000000
Pb       8.95158102       4.47579056       6.28333844       0.00000000       0.00000000       0.00000000
Pb       4.47578931       0.00000029       6.28333841       0.00000000       0.00000000       0.00000000
I       -0.00000080       4.47578864       3.11507573       0.00000000       0.00000000       0.00000000
I        4.47579122       0.00000329       3.11507565       0.00000000       0.00000000       0.00000000
I        1.95657822       1.95658116       6.26906953       0.00000000       0.00000000       0.00000000
I        2.51920393       6.43237575       6.26906579       0.00000000       0.00000000       0.00000000
I        6.43237063       2.51920903       6.26906838       0.00000000       0.00000000       0.00000000
I        6.99499616       6.99499908       6.26906557       0.00000000       0.00000000       0.00000000
24
Lattice="8.951583967708043 0.0 0.0 0.0 8.951583967708043 0.0 0.0 0.0 6.328972425814492" Properties=species:S:1:pos:R:3:momenta:R:3 config_id=t-FAPI3_wide_rotation_07 phase=t-FAPI3 mode=wide_rotation seed=1427811773 source=t-FAPI3/CONTCAR pbc="T T T"
C        4.16240358       4.73023459       3.07541371       0.00000000       0.00000000       0.00000000
C        0.00000663       8.95157291       3.61395304       0.00000000       0.00000000       0.00000000
N        3.88679329       3.82515156       3.98595347       0.00000000       0.00000000       0.00000000
N        5.32877865       4.91211645       2.50022266       0.00000000       0.00000000       0.00000000
N        0.82676527       8.12481519       3.01626668       0.00000000       0.00000000       0.00000000
N        8.12482240       0.82675785       3.01626817       0.00000000       0.00000000       0.00000000
H        3.34945357       5.39033230       2.76929419       0.00000000       0.00000000       0.00000000
H        2.94273355       3.77462703       4.36463236       0.00000000       0.00000000       0.00000000
H        4.56550869       3.15555285       4.34799810       0.00000000       0.00000000       0.00000000
H        6.15886403       4.35662234       2.70630316       0.00000000       0.00000000       0.00000000
H        5.42836598       5.64829222       1.80359184       0.00000000       0.00000000       0.00000000
H        0.00000348       8.95157626       4.70497583       0.00000000       0.00000000       0.00000000
H        1.42512586       7.52645430       3.58289565       0.00000000       0.00000000       0.00000000
H        0.91354605       8.03803590       2.00382148       0.00000000       0.00000000       0.00000000
H        8.03803680       0.91354491       2.00382628       0.00000000       0.00000000       0.00000000
H        7.52645594       1.42512382       3.58291356       0.00000000       0.00000000       0.00000000
Pb       8.95158102       4.47579056       6.28333844       0.00000000       0.00000000       0.00000000
Pb       4.47578931       0.00000029       6.28333841       0.00000000       0.00000000       0.00000000
I       -0.00000080       4.47578864       3.11507573       0.00000000       0.00000000       0.00000000
I        4.47579122       0.00000329       3.11507565       0.00000000       0.00000000       0.00000000
I        1.95657822       1.95658116       6.26906953       0.00000000       0.00000000       0.00000000
I        2.51920393       6.43237575       6.26906579       0.00000000       0.00000000       0.00000000
I        6.43237063       2.51920903       6.26906838       0.00000000       0.00000000       0.00000000
I        6.99499616       6.99499908       6.26906557       0.00000000       0.00000000       0.00000000
24
Lattice="8.951583967708043 0.0 0.0 0.0 8.951583967708043 0.0 0.0 0.0 6.328972425814492" Properties=species:S:1:pos:R:3:momenta:R:3 config_id=t-FAPI3_wide_rotation_08 phase=t-FAPI3 mode=wide_rotation seed=4081527428 source=t-FAPI3/CONTCAR pbc="T T T"
C        4.86256157       4.49470712       3.02930982       0.00000000       0.00000000       0.00000000
C        0.20070664       8.79646478       3.52884563       0.00000000       0.00000000       0.00000000
N        4.19103098       5.62035527       3.10793490       0.00000000       0.00000000       0.00000000
N        4.43476077       3.31530923       3.41707734       0.00000000       0.00000000       0.00000000
N        8.19798256       8.05899076       3.00950434       0.00000000       0.00000000       0.00000000
N        0.58454385       1.02323735       3.09472062       0.00000000       0.00000000       0.00000000
H        5.86592417       4.54368932       2.60364550       0.00000000       0.00000000       0.00000000
H        4.62394495       6.47996408       2.77498231       0.00000000       0.00000000       0.00000000
H        3.24714740       5.69587555       3.48671427       0.00000000       0.00000000       0.00000000
H        3.51646437       3.14885895       3.82830799       0.00000000       0.00000000       0.00000000
H        5.04407750       2.50662299       3.30786847       0.00000000       0.00000000       0.00000000
H        0.72139002       8.39408275       4.39908023       0.00000000       0.00000000       0.00000000
H        7.98416730       7.15672886       3.43062907       0.00000000       0.00000000       0.00000000
H        7.64457481       8.33184919       2.19747295       0.00000000       0.00000000       0.00000000
H        0.17159921       1.49719434       2.29163668       0.00000000       0.00000000       0.00000000
H        1.33920800       1.50753710       3.57753221       0.00000000       0.00000000       0.00000000
Pb       8.95158102       4.47579056       6.28333844       0.00000000       0.00000000       0.00000000
Pb       4.47578931       0.00000029       6.28333841       0.00000000       0.00000000       0.00000000
I       -0.00000080       4.47578864       3.11507573       0.00000000       0.00000000       0.00000000
I        4.47579122       0.00000329       3.11507565       0.00000000       0.00000000       0.00000000
I        1.95657822       1.95658116       6.26906953       0.00000000       0.00000000       0.00000000
I        2.51920393       6.43237575       6.26906579       0.00000000       0.00000000       0.00000000
I        6.43237063       2.51920903       6.26906838       0.00000000       0.00000000       0.00000000
I        6.99499616       6.99499908       6.26906557       0.00000000       0.00000000       0.00000000
24
Lattice="8.951583967708043 0.0 0.0 0.0 8.951583967708043 0.0 0.0 0.0 6.328972425814492" Properties=species:S:1:pos:R:3:momenta:R:3 config_id=t-FAPI3_wide_rotation_09 phase=t-FAPI3 mode=wide_rotation seed=2536593249 source=t-FAPI3/CONTCAR pbc="T T T"
C        4.33857224       4.80546085       2.97121708       0.00000000       0.00000000       0.00000000
C        0.00000663       8.95157291       3.61395304       0.00000000       0.00000000       0.00000000
N        5.59936255       4.46907907       2.82467675       0.00000000       0.00000000       0.00000000
N        3.46781250       4.20482155       3.74927008       0.00000000       0.00000000       0.00000000
N        0.82676527       8.12481519       3.01626668       0.00000000       0.00000000       0.00000000
N        8.12482240       0.82675785       3.01626817       0.00000000       0.00000000       0.00000000
H        3.98252384       5.66066705       2.39486844       0.00000000       0.00000000       0.00000000
H        6.18582432       5.00887969       2.19073896       0.00000000       0.00000000       0.00000000
H        6.04163438       3.68934127       3.31098728       0.00000000       0.00000000       0.00000000
H        3.68632565       3.39734502       4.33263812       0.00000000       0.00000000       0.00000000
H        2.51154769       4.55336489       3.78451309       0.00000000       0.00000000       0.00000000
H        0.00000348       8.95157626       4.70497583       0.00000000       0.00000000       0.00000000
H        1.42512586       7.52645430       3.58289565       0.00000000       0.00000000       0.00000000
H        0.91354605       8.03803590       2.00382148       0.00000000       0.00000000       0.00000000
H        8.03803680       0.91354491       2.00382628       0.00000000       0.00000000       0.00000000
H        7.52645594       1.42512382       3.58291356       0.00000000       0.00000000       0.00000000
Pb       8.95158102       4.47579056       6.28333844       0.00000000       0.00000000       0.00000000
Pb       4.47578931       0.00000029       6.28333841       0.00000000       0.00000000       0.00000000
I       -0.00000080       4.47578864       3.11507573       0.00000000       0.00000000       0.00000000
I        4.47579122       0.00000329       3.11507565       0.00000000       0.00000000       0.00000000
I        1.95657822       1.95658116       6.26906953       0.00000000       0.00000000       0.00000000
I        2.51920393       6.43237575       6.26906579       0.00000000       0.00000000       0.00000000
I        6.43237063       2.51920903       6.26906838       0.00000000       0.00000000       0.00000000
I        6.99499616       6.99499908       6.26906557       0.00000000       0.00000000       0.00000000
24
Lattice="8.951583967708043 0.0 0.0 0.0 8.951583967708043 0.0 0.0 0.0 6.328972425814492" Properties=species:S:1:pos:R:3:momenta:R:3 config_id=t-FAPI3_wide_rotation_10 phase=t-FAPI3 mode=wide_rotation seed=3331515967 source=t-FAPI3/CONTCAR pbc="T T T"
C        4.30016441       4.39756926       2.81935578       0.00000000       0.00000000       0.00000000
C        0.20358992       0.30930537       2.99402881       0.00000000       0.00000000       0.00000000
N        4.96171851       5.52486586       2.94492460       0.00000000       0.00000000       0.00000000
N        4.13780982       3.49262299       3.75694301       0.00000000       0.00000000       0.00000000
N        8.23764802       8.61346519       2.31338545       0.00000000       0.00000000       0.00000000
N        0.54244987       0.07755644       4.24134035       0.00000000       0.00000000       0.00000000
H        3.84452053       4.19456506       1.84904459       0.00000000       0.00000000       0.00000000
H        5.02323324       6.15487619       2.14711375       0.00000000       0.00000000       0.00000000
H        5.42778338       5.81990524       3.80272914       0.00000000       0.00000000       0.00000000
H        4.51738463       3.57432868       4.69998689       0.00000000       0.00000000       0.00000000
H        3.60301359       2.65178132       3.54683547       0.00000000       0.00000000       0.00000000
H        0.73175077       1.11173612       2.47684244       0.00000000       0.00000000       0.00000000
H        8.05730302       8.87979181       1.34711150       0.00000000       0.00000000       0.00000000
H        7.68159050       7.84701326       2.69214438       0.00000000       0.00000000       0.00000000
H        0.11827341       8.30632315       4.82247015       0.00000000       0.00000000       0.00000000
H        1.27141166       0.64473602       4.67040130       0.00000000       0.00000000       0.00000000
Pb       8.95158102       4.47579056       6.28333844       0.00000000       0.00000000       0.00000000
Pb       4.47578931       0.00000029       6.28333841       0.00000000       0.00000000       0.00000000
I       -0.00000080       4.47578864       3.11507573       0.00000000       0.00000000       0.00000000
I        4.47579122       0.00000329       3.11507565       0.00000000       0.00000000       0.00000000
I        1.95657822       1.95658116       6.26906953       0.00000000       0.00000000       0.00000000
I        2.51920393       6.43237575       6.26906579       0.00000000       0.00000000       0.00000000
I        6.43237063       2.51920903       6.26906838       0.00000000       0.00000000       0.00000000
I        6.99499616       6.99499908       6.26906557       0.00000000       0.00000000       0.00000000
24
Lattice="8.951583967708043 0.0 0.0 0.0 8.951583967708043 0.0 0.0 0.0 6.328972425814492" Properties=species:S:1:pos:R:3:momenta:R:3 config_id=t-FAPI3_wide_rotation_11 phase=t-FAPI3 mode=wide_rotation seed=1582459888 source=t-FAPI3/CONTCAR pbc="T T T"
C        4.30318964       4.16567519       3.41901588       0.00000000       0.00000000       0.00000000
C        8.83563094       8.91840879       3.59628843       0.00000000       0.00000000       0.00000000
N        5.58623049       4.07088013       3.15626307       0.00000000       0.00000000       0.00000000
N        3.51074923       5.14194600       3.04047913       0.00000000       0.00000000       0.00000000
N        8.06930772       8.33485741       2.70381791       0.00000000       0.00000000       0.00000000
N        0.97995616       0.64465181       3.34359628       0.00000000       0.00000000       0.00000000
H        3.85535339       3.36119118       4.00431412       0.00000000       0.00000000       0.00000000
H        6.10472967       3.26544872       3.50215046       0.00000000       0.00000000       0.00000000
H        6.11073598       4.76120596       2.61919923       0.00000000       0.00000000       0.00000000
H        3.81738167       5.94470482       2.49126202       0.00000000       0.00000000       0.00000000
H        2.52710197       5.11170581       3.30256786       0.00000000       0.00000000       0.00000000
H        8.53483075       8.83237155       4.64149060       0.00000000       0.00000000       0.00000000
H        7.23919823       7.83371819       3.01513328       0.00000000       0.00000000       0.00000000
H        8.25071441       8.34850001       1.70031786       0.00000000       0.00000000       0.00000000
H        1.35683563       0.79069775       2.40725512       0.00000000       0.00000000       0.00000000
H        1.49761848       1.05642407       4.11796091       0.00000000       0.00000000       0.00000000
Pb       8.95158102       4.47579056       6.28333844       0.00000000       0.00000000       0.00000000
Pb       4.47578931       0.00000029       6.28333841       0.00000000       0.00000000       0.00000000
I       -0.00000080       4.47578864       3.11507573       0.00000000       0.00000000       0.00000000
I        4.47579122       0.00000329       3.11507565       0.00000000       0.00000000       0.00000000
I        1.95657822       1.95658116       6.26906953       0.00000000       0.00000000       0.00000000
I        2.51920393       6.43237575       6.26906579       0.00000000       0.00000000       0.00000000
I        6.43237063       2.51920903       6.26906838       0.00000000       0.00000000       0.00000000
I        6.99499616       6.99499908       6.26906557       0.00000000       0.00000000       0.00000000
24
Lattice="8.951583967708043 0.0 0.0 0.0 8.951583967708043 0.0 0.0 0.0 6.328972425814492" Properties=species:S:1:pos:R:3:momenta:R:3 config_id=t-FAPI3_wide_rotation_12 phase=t-FAPI3 mode=wide_rotation seed=2239997256 source=t-FAPI3/CONTCAR pbc="T T T"
C        4.38208261       4.88085917       3.25675713       0.00000000       0.00000000       0.00000000
C        0.00000663       8.95157291       3.61395304       0.00000000       0.00000000       0.00000000
N        4.97866753       4.24481606       4.23846715       0.00000000       0.00000000       0.00000000
N        4.05185677       4.36557272       2.09495365       0.00000000       0.00000000       0.00000000
N        0.82676527       8.12481519       3.01626668       0.00000000       0.00000000       0.00000000
N        8.12482240       0.82675785       3.01626817       0.00000000       0.00000000       0.00000000
H        4.13894778       5.93167627       3.42105790       0.00000000       0.00000000       0.00000000
H        5.18779223       4.74687903       5.09951237       0.00000000       0.00000000       0.00000000
H        5.25293059       3.26335003       4.19849772       0.00000000       0.00000000       0.00000000
H        4.22882807       3.39678494       1.82997062       0.00000000       0.00000000       0.00000000
H        3.59019462       4.95503576       1.40461439       0.00000000       0.00000000       0.00000000
H        0.00000348       8.95157626       4.70497583       0.00000000       0.00000000       0.00000000
H        1.42512586       7.52645430       3.58289565       0.00000000       0.00000000       0.00000000
H        0.91354605       8.03803590       2.00382148       0.00000000       0.00000000       0.00000000
H        8.03803680       0.91354491       2.00382628       0.00000000       0.00000000       0.00000000
H        7.52645594       1.42512382       3.58291356       0.00000000       0.00000000       0.00000000
Pb       8.95158102       4.47579056       6.28333844       0.00000000       0.00000000       0.00000000
Pb       4.47578931       0.00000029       6.28333841       0.00000000       0.00000000       0.00000000
I       -0.00000080       4.47578864       3.11507573       0.00000000       0.00000000       0.00000000
I        4.47579122       0.00000329       3.11507565       0.00000000       0.00000000       0.00000000
I        1.95657822       1.95658116       6.26906953       0.00000000       0.00000000       0.00000000
I        2.51920393       6.43237575       6.26906579       0.00000000       0.00000000       0.00000000
I        6.43237063       2.51920903       6.26906838       0.00000000       0.00000000       0.00000000
I        6.99499616       6.99499908       6.26906557       0.00000000       0.00000000       0.00000000
24
Lattice="8.951583967708043 0.0 0.0 0.0 8.951583967708043 0.0 0.0 0.0 6.328972425814492" Properties=species:S:1:pos:R:3:momenta:R:3 config_id=t-FAPI3_wide_rotation_13 phase=t-FAPI3 mode=wide_rotation seed=712131915 source=t-FAPI3/CONTCAR pbc="T T T"
C        4.47580859       4.47581216       3.61395771       0.00000000       0.00000000       0.00000000
C        8.64000118       8.92379438       3.47448465       0.00000000       0.00000000       0.00000000
N        5.30254330       5.30254700       3.01626364       0.00000000       0.00000000       0.00000000
N        3.64903041       3.64903389       3.01626875       0.00000000       0.00000000       0.00000000
N        0.90124458       8.65144364       3.89775997       0.00000000       0.00000000       0.00000000
N        8.31280997       0.32352924       2.25225690       0.00000000       0.00000000       0.00000000
H        4.47579450       4.47579803       4.70497827       0.00000000       0.00000000       0.00000000
H        5.90092284       5.90092643       3.58290570       0.00000000       0.00000000       0.00000000
H        5.38933710       5.38934018       2.00382741       0.00000000       0.00000000       0.00000000
H        3.56224778       3.56225067       2.00383502       0.00000000       0.00000000       0.00000000
H        3.05066699       3.05067030       3.58291603       0.00000000       0.00000000       0.00000000
H        7.83166383       8.85172568       4.20368117       0.00000000       0.00000000       0.00000000
H        1.03871666       8.38832640       4.87193156       0.00000000       0.00000000       0.00000000
H        1.73218411       8.68559278       3.30743788       0.00000000       0.00000000       0.00000000
H        0.03051148       0.42314313       1.48921277       0.00000000       0.00000000       0.00000000
H        7.33569436       0.51178691       2.03551884       0.00000000       0.00000000       0.00000000
Pb       8.95158102       4.47579056       6.28333844       0.00000000       0.00000000       0.00000000
Pb       4.47578931       0.00000029       6.28333841       0.00000000       0.00000000       0.00000000
I       -0.00000080       4.47578864       3.11507573       0.00000000       0.00000000       0.00000000
I        4.47579122       0.00000329       3.11507565       0.00000000       0.00000000       0.00000000
I        1.95657822       1.95658116       6.26906953       0.00000000       0.00000000       0.00000000
I        2.51920393       6.43237575       6.26906579       0.00000000       0.00000000       0.00000000
I        6.43237063       2.51920903       6.26906838       0.00000000       0.00000000       0.00000000
I        6.99499616       6.99499908       6.26906557       0.00000000       0.00000000       0.00000000
24
Lattice="8.951583967708043 0.0 0.0 0.0 8.951583967708043 0.0 0.0 0.0 6.328972425814492" Properties=species:S:1:pos:R:3:momenta:R:3 config_id=t-FAPI3_wide_rotation_14 phase=t-FAPI3 mode=wide_rotation seed=1427105273 source=t-FAPI3/CONTCAR pbc="T T T"
C        4.47580859       4.47581216       3.61395771       0.00000000       0.00000000       0.00000000
C        8.93909267       0.22892993       2.84083255       0.00000000       0.00000000       0.00000000
N        5.30254330       5.30254700       3.01626364       0.00000000       0.00000000       0.00000000
N        3.64903041       3.64903389       3.01626875       0.00000000       0.00000000       0.00000000
N        8.39119660       0.75253017       3.91318503       0.00000000       0.00000000       0.00000000
N        0.57091687       8.00619698       2.77058739       0.00000000       0.00000000       0.00000000
H        4.47579450       4.47579803       4.70497827       0.00000000       0.00000000       0.00000000
H        5.90092284       5.90092643       3.58290570       0.00000000       0.00000000       0.00000000
H        5.38933710       5.38934018       2.00382741       0.00000000       0.00000000       0.00000000
H        3.56224778       3.56225067       2.00383502       0.00000000       0.00000000       0.00000000
H        3.05066699       3.05067030       3.58291603       0.00000000       0.00000000       0.00000000
H        8.90669030       0.82283054       1.92619444       0.00000000       0.00000000       0.00000000
H        7.96498238       1.67540203       3.85163422       0.00000000       0.00000000       0.00000000
H        8.36189551       0.29051059       4.82191282       0.00000000       0.00000000       0.00000000
H        0.66036572       7.36595321       3.55937706       0.00000000       0.00000000       0.00000000
H        0.96347471       7.70022301       1.88207767       0.00000000       0.00000000       0.00000000
Pb       8.95158102       4.47579056       6.28333844       0.00000000       0.00000000       0.00000000
Pb       4.47578931       0.00000029       6.28333841       0.00000000       0.00000000       0.00000000
I       -0.00000080       4.47578864       3.11507573       0.00000000       0.00000000       0.00000000
I        4.47579122       0.00000329       3.11507565       0.00000000       0.00000000       0.00000000
I        1.95657822       1.95658116       6.26906953       0.00000000       0.00000000       0.00000000
I        2.51920393       6.43237575       6.26906579       0.00000000       0.00000000       0.00000000
I        6.43237063       2.51920903       6.26906838       0.00000000       0.00000000       0.00000000
I        6.99499616       6.99499908       6.26906557       0.00000000       0.00000000       0.00000000
24
Lattice="8.951583967708043 0.0 0.0 0.0 8.951583967708043 0.0 0.0 0.0 6.328972425814492" Properties=species:S:1:pos:R:3:momenta:R:3 config_id=t-FAPI3_cage_rattle_01 phase=t-FAPI3 mode=cage_rattle seed=2646302049 source=t-FAPI3/CONTCAR pbc="T T T"
C        4.47580859       4.47581216       3.61395771       0.00000000       0.00000000       0.00000000
C        0.00000663       8.95157291       3.61395304       0.00000000       0.00000000       0.00000000
N        5.30254330       5.30254700       3.01626364       0.00000000       0.00000000       0.00000000
N        3.64903041       3.64903389       3.01626875       0.00000000       0.00000000       0.00000000
N        0.82676527       8.12481519       3.01626668       0.00000000       0.00000000       0.00000000
N        8.12482240       0.82675785       3.01626817       0.00000000       0.00000000       0.00000000
H        4.47579450       4.47579803       4.70497827       0.00000000       0.00000000       0.00000000
H        5.90092284       5.90092643       3.58290570       0.00000000       0.00000000       0.00000000
H        5.38933710       5.38934018       2.00382741       0.00000000       0.00000000       0.00000000
H        3.56224778       3.56225067       2.00383502       0.00000000       0.00000000       0.00000000
H        3.05066699       3.05067030       3.58291603       0.00000000       0.00000000       0.00000000
H        0.00000348       8.95157626       4.70497583       0.00000000       0.00000000       0.00000000
H        1.42512586       7.52645430       3.58289565       0.00000000       0.00000000       0.00000000
H        0.91354605       8.03803590       2.00382148       0.00000000       0.00000000       0.00000000
H        8.03803680       0.91354491       2.00382628       0.00000000       0.00000000       0.00000000
H        7.52645594       1.42512382       3.58291356       0.00000000       0.00000000       0.00000000
Pb       8.94095898       4.44566386       6.30266181       0.00000000       0.00000000       0.00000000
Pb       4.52005979       0.01957073       6.27816450       0.00000000       0.00000000       0.00000000
I        0.02084696       4.45801862       3.10236720       0.00000000       0.00000000       0.00000000
I        4.51386980       0.00034201       3.14219220       0.00000000       0.00000000       0.00000000
I        1.94523515       1.92657356       6.27473859       0.00000000       0.00000000       0.00000000
I        2.50933681       6.42345821       6.28482466       0.00000000       0.00000000       0.00000000
I        6.43252300       2.55562354       6.25353895       0.00000000       0.00000000       0.00000000
I        7.03368550       6.94670272       6.26335849       0.00000000       0.00000000       0.00000000
24
Lattice="8.951583967708043 0.0 0.0 0.0 8.951583967708043 0.0 0.0 0.0 6.328972425814492" Properties=species:S:1:pos:R:3:momenta:R:3 config_id=t-FAPI3_cage_rattle_02 phase=t-FAPI3 mode=cage_rattle seed=2497439315 source=t-FAPI3/CONTCAR pbc="T T T"
C        4.47580859       4.47581216       3.61395771       0.00000000       0.00000000       0.00000000
C        0.00000663       8.95157291       3.61395304       0.00000000       0.00000000       0.00000000
N        5.30254330       5.30254700       3.01626364       0.00000000       0.00000000       0.00000000
N        3.64903041       3.64903389       3.01626875       0.00000000       0.00000000       0.00000000
N        0.82676527       8.12481519       3.01626668       0.00000000       0.00000000       0.00000000
N        8.12482240       0.82675785       3.01626817       0.00000000       0.00000000       0.00000000
H        4.47579450       4.47579803       4.70497827       0.00000000       0.00000000       0.00000000
H        5.90092284       5.90092643       3.58290570       0.00000000       0.00000000       0.00000000
H        5.38933710       5.38934018       2.00382741       0.00000000       0.00000000       0.00000000
H        3.56224778       3.56225067       2.00383502       0.00000000       0.00000000       0.00000000
H        3.05066699       3.05067030       3.58291603       0.00000000       0.00000000       0.00000000
H        0.00000348       8.95157626       4.70497583       0.00000000       0.00000000       0.00000000
H        1.42512586       7.52645430       3.58289565       0.00000000       0.00000000       0.00000000
H        0.91354605       8.03803590       2.00382148       0.00000000       0.00000000       0.00000000
H        8.03803680       0.91354491       2.00382628       0.00000000       0.00000000       0.00000000
H        7.52645594       1.42512382       3.58291356       0.00000000       0.00000000       0.00000000
Pb       0.01454914       4.45247745       6.32793833       0.00000000       0.00000000       0.00000000
Pb       4.45605682       0.03317115       6.31938572       0.00000000       0.00000000       0.00000000
I        8.93970683       4.40673817       3.09542020       0.00000000       0.00000000       0.00000000
I        4.47971553       0.03788264       3.11216876       0.00000000       0.00000000       0.00000000
I        1.97632766       1.94830668       6.22066909       0.00000000       0.00000000       0.00000000
I        2.52693141       6.36359532       6.29537947       0.00000000       0.00000000       0.00000000
I        6.36847371       2.54240200       6.25469476       0.00000000       0.00000000       0.00000000
I        7.01220114       6.98885745       6.27337170       0.00000000       0.00000000       0.00000000
24
Lattice="8.951583967708043 0.0 0.0 0.0 8.951583967708043 0.0 0.0 0.0 6.328972425814492" Properties=species:S:1:pos:R:3:momenta:R:3 config_id=t-FAPI3_cage_rattle_03 phase=t-FAPI3 mode=cage_rattle seed=4180180312 source=t-FAPI3/CONTCAR pbc="T T T"
C        4.47580859       4.47581216       3.61395771       0.00000000       0.00000000       0.00000000
C        0.00000663       8.95157291       3.61395304       0.00000000       0.00000000       0.00000000
N        5.30254330       5.30254700       3.01626364       0.00000000       0.00000000       0.00000000
N        3.64903041       3.64903389       3.01626875       0.00000000       0.00000000       0.00000000
N        0.82676527       8.12481519       3.01626668       0.00000000       0.00000000       0.00000000
N        8.12482240       0.82675785       3.01626817       0.00000000       0.00000000       0.00000000
H        4.47579450       4.47579803       4.70497827       0.00000000       0.00000000       0.00000000
H        5.90092284       5.90092643       3.58290570       0.00000000       0.00000000       0.00000000
H        5.38933710       5.38934018       2.00382741       0.00000000       0.00000000       0.00000000
H        3.56224778       3.56225067       2.00383502       0.00000000       0.00000000       0.00000000
H        3.05066699       3.05067030       3.58291603       0.00000000       0.00000000       0.00000000
H        0.00000348       8.95157626       4.70497583       0.00000000       0.00000000       0.00000000
H        1.42512586       7.52645430       3.58289565       0.00000000       0.00000000       0.00000000
H        0.91354605       8.03803590       2.00382148       0.00000000       0.00000000       0.00000000
H        8.03803680       0.91354491       2.00382628       0.00000000       0.00000000       0.00000000
H        7.52645594       1.42512382       3.58291356       0.00000000       0.00000000       0.00000000
Pb       0.01652595       4.57080284       6.23258500       0.00000000       0.00000000       0.00000000
Pb       4.45859822       8.92681993       6.29920145       0.00000000       0.00000000       0.00000000
I        8.93880899       4.48012506       3.18954582       0.00000000       0.00000000       0.00000000
I        4.39960345       8.91985081       3.11377376       0.00000000       0.00000000       0.00000000
I        1.92282590       1.98190986       6.19523586       0.00000000       0.00000000       0.00000000
I        2.52635533       6.43206663       6.24992801       0.00000000       0.00000000       0.00000000
I        6.46311191       2.59082328       6.29158870       0.00000000       0.00000000       0.00000000
I        7.03772197       7.03127447       6.26408671       0.00000000       0.00000000       0.00000000
24
Lattice="8.951583967708043 0.0 0.0 0.0 8.951583967708043 0.0 0.0 0.0 6.328972425814492" Properties=species:S:1:pos:R:3:momenta:R:3 config_id=t-FAPI3_cage_rattle_04 phase=t-FAPI3 mode=cage_rattle seed=3254529144 source=t-FAPI3/CONTCAR pbc="T T T"
C        4.47580859       4.47581216       3.61395771       0.00000000       0.00000000       0.00000000
C        0.00000663       8.95157291       3.61395304       0.00000000       0.00000000       0.00000000
N        5.30254330       5.30254700       3.01626364       0.00000000       0.00000000       0.00000000
N        3.64903041       3.64903389       3.01626875       0.00000000       0.00000000       0.00000000
N        0.82676527       8.12481519       3.01626668       0.00000000       0.00000000       0.00000000
N        8.12482240       0.82675785       3.01626817       0.00000000       0.00000000       0.00000000
H        4.47579450       4.47579803       4.70497827       0.00000000       0.00000000       0.00000000
H        5.90092284       5.90092643       3.58290570       0.00000000       0.00000000       0.00000000
H        5.38933710       5.38934018       2.00382741       0.00000000       0.00000000       0.00000000
H        3.56224778       3.56225067       2.00383502       0.00000000       0.00000000       0.00000000
H        3.05066699       3.05067030       3.58291603       0.00000000       0.00000000       0.00000000
H        0.00000348       8.95157626       4.70497583       0.00000000       0.00000000       0.00000000
H        1.42512586       7.52645430       3.58289565       0.00000000       0.00000000       0.00000000
H        0.91354605       8.03803590       2.00382148       0.00000000       0.00000000       0.00000000
H        8.03803680       0.91354491       2.00382628       0.00000000       0.00000000       0.00000000
H        7.52645594       1.42512382       3.58291356       0.00000000       0.00000000       0.00000000
Pb       8.93960707       4.50809536       6.22845251       0.00000000       0.00000000       0.00000000
Pb       4.43973314       0.07474012       6.32500257       0.00000000       0.00000000       0.00000000
I        0.01297818       4.45456872       3.16087611       0.00000000       0.00000000       0.00000000
I        4.47175171       0.03850084       3.05729910       0.00000000       0.00000000       0.00000000
I        1.97457142       1.91190605       6.26723080       0.00000000       0.00000000       0.00000000
I        2.56136054       6.33469651       6.28873127       0.00000000       0.00000000       0.00000000
I        6.45415528       2.49337726       0.00898050       0.00000000       0.00000000       0.00000000
I        6.96796448       7.02670976       6.25954922       0.00000000       0.00000000       0.00000000
24
Lattice="8.951583967708043 0.0 0.0 0.0 8.951583967708043 0.0 0.0 0.0 6.328972425814492" Properties=species:S:1:pos:R:3:momenta:R:3 config_id=t-FAPI3_cage_rattle_05 phase=t-FAPI3 mode=cage_rattle seed=1532174073 source=t-FAPI3/CONTCAR pbc="T T T"
C        4.47580859       4.47581216       3.61395771       0.00000000       0.00000000       0.00000000
C        0.00000663       8.95157291       3.61395304       0.00000000       0.00000000       0.00000000
N        5.30254330       5.30254700       3.01626364       0.00000000       0.00000000       0.00000000
N        3.64903041       3.64903389       3.01626875       0.00000000       0.00000000       0.00000000
N        0.82676527       8.12481519       3.01626668       0.00000000       0.00000000       0.00000000
N        8.12482240       0.82675785       3.01626817       0.00000000       0.00000000       0.00000000
H        4.47579450       4.47579803       4.70497827       0.00000000       0.00000000       0.00000000
H        5.90092284       5.90092643       3.58290570       0.00000000       0.00000000       0.00000000
H        5.38933710       5.38934018       2.00382741       0.00000000       0.00000000       0.00000000
H        3.56224778       3.56225067       2.00383502       0.00000000       0.00000000       0.00000000
H        3.05066699       3.05067030       3.58291603       0.00000000       0.00000000       0.00000000
H        0.00000348       8.95157626       4.70497583       0.00000000       0.00000000       0.00000000
H        1.42512586       7.52645430       3.58289565       0.00000000       0.00000000       0.00000000
H        0.91354605       8.03803590       2.00382148       0.00000000       0.00000000       0.00000000
H        8.03803680       0.91354491       2.00382628       0.00000000       0.00000000       0.00000000
H        7.52645594       1.42512382       3.58291356       0.00000000       0.00000000       0.00000000
Pb       0.11514639       4.45007440       6.31806512       0.00000000       0.00000000       0.00000000
Pb       4.41102667       0.00282580       6.22472515       0.00000000       0.00000000       0.00000000
I        8.94174070       4.48213144       3.16285419       0.00000000       0.00000000       0.00000000
I        4.42331684       0.01864299       3.00438861       0.00000000       0.00000000       0.00000000
I        1.94456537       2.07411956       6.25442100       0.00000000       0.00000000       0.00000000
I        2.46693992       6.35105190       6.26854138       0.00000000       0.00000000       0.00000000
I        6.43761571       2.52380698       6.26693109       0.00000000       0.00000000       0.00000000
I        7.03986464       7.04194941       6.24936907       0.00000000       0.00000000       0.00000000
24
Lattice="8.951583967708043 0.0 0.0 0.0 8.951583967708043 0.0 0.0 0.0 6.328972425814492" Properties=species:S:1:pos:R:3:momenta:R:3 config_id=t-FAPI3_cage_rattle_06 phase=t-FAPI3 mode=cage_rattle seed=794477069 source=t-FAPI3/CONTCAR pbc="T T T"
C        4.47580859       4.47581216       3.61395771       0.00000000       0.00000000       0.00000000
C        0.00000663       8.95157291       3.61395304       0.00000000       0.00000000       0.00000000
N        5.30254330       5.30254700       3.01626364       0.00000000       0.00000000       0.00000000
N        3.64903041       3.64903389       3.01626875       0.00000000       0.00000000       0.00000000
N        0.82676527       8.12481519       3.01626668       0.00000000       0.00000000       0.00000000
N        8.12482240       0.82675785       3.01626817       0.00000000       0.00000000       0.00000000
H        4.47579450       4.47579803       4.70497827       0.00000000       0.00000000       0.00000000
H        5.90092284       5.90092643       3.58290570       0.00000000       0.00000000       0.00000000
H        5.38933710       5.38934018       2.00382741       0.00000000       0.00000000       0.00000000
H        3.56224778       3.56225067       2.00383502       0.00000000       0.00000000       0.00000000
H        3.05066699       3.05067030       3.58291603       0.00000000       0.00000000       0.00000000
H        0.00000348       8.95157626       4.70497583       0.00000000       0.00000000       0.00000000
H        1.42512586       7.52645430       3.58289565       0.00000000       0.00000000       0.00000000
H        0.91354605       8.03803590       2.00382148       0.00000000       0.00000000       0.00000000
H        8.03803680       0.91354491       2.00382628       0.00000000       0.00000000       0.00000000
H        7.52645594       1.42512382       3.58291356       0.00000000       0.00000000       0.00000000
Pb       0.01429122       4.44715774       6.27606079       0.00000000       0.00000000       0.00000000
Pb       4.51710001       8.92430767       6.28698772       0.00000000       0.00000000       0.00000000
I        0.05143841       4.44675581       3.19154520       0.00000000       0.00000000       0.00000000
I        4.49172006       0.01379783       3.12346120       0.00000000       0.00000000       0.00000000
I        1.93001861       1.97096745       6.27068326       0.00000000       0.00000000       0.00000000
I        2.51735252       6.43066098       6.29075929       0.00000000       0.00000000       0.00000000
I        6.41708349       2.54225578       6.22613802       0.00000000       0.00000000       0.00000000
I        7.01381452       7.02178375       6.24544844       0.00000000       0.00000000       0.00000000
24
Lattice="8.951583967708043 0.0 0.0 0.0 8.951583967708043 0.0 0.0 0.0 6.328972425814492" Properties=species:S:1:pos:R:3:momenta:R:3 config_id=t-FAPI3_cage_rattle_07 phase=t-FAPI3 mode=cage_rattle seed=3410854411 source=t-FAPI3/CONTCAR pbc="T T T"
C        4.47580859       4.47581216       3.61395771       0.00000000       0.00000000       0.00000000
C        0.00000663       8.95157291       3.61395304       0.00000000       0.00000000       0.00000000
N        5.30254330       5.30254700       3.01626364       0.00000000       0.00000000       0.00000000
N        3.64903041       3.64903389       3.01626875       0.00000000       0.00000000       0.00000000
N        0.82676527       8.12481519       3.01626668       0.00000000       0.00000000       0.00000000
N        8.12482240       0.82675785       3.01626817       0.00000000       0.00000000       0.00000000
H        4.47579450       4.47579803       4.70497827       0.00000000       0.00000000       0.00000000
H        5.90092284       5.90092643       3.58290570       0.00000000       0.00000000       0.00000000
H        5.38933710       5.38934018       2.00382741       0.00000000       0.00000000       0.00000000
H        3.56224778       3.56225067       2.00383502       0.00000000       0.00000000       0.00000000
H        3.05066699       3.05067030       3.58291603       0.00000000       0.00000000       0.00000000
H        0.00000348       8.95157626       4.70497583       0.00000000       0.00000000       0.00000000
H        1.42512586       7.52645430       3.58289565       0.00000000       0.00000000       0.00000000
H        0.91354605       8.03803590       2.00382148       0.00000000       0.00000000       0.00000000
H        8.03803680       0.91354491       2.00382628       0.00000000       0.00000000       0.00000000
H        7.52645594       1.42512382       3.58291356       0.00000000       0.00000000       0.00000000
Pb       8.94784064       4.40915459       6.27898563       0.00000000       0.00000000       0.00000000
Pb       4.47990553       8.93639898       6.24455800       0.00000000       0.00000000       0.00000000
I        8.93878076       4.48676237       3.14966288       0.00000000       0.00000000       0.00000000
I        4.47685561       0.02329642       3.11542906       0.00000000       0.00000000       0.00000000
I        1.98787374       1.95624487       6.25318071       0.00000000       0.00000000       0.00000000
I        2.54892973       6.40929596       6.28838408       0.00000000       0.00000000       0.00000000
I        6.40432624       2.53362842       6.26737942       0.00000000       0.00000000       0.00000000
I        6.99171130       6.94523083       6.27477338       0.00000000       0.00000000       0.00000000
24
Lattice="8.951583967708043 0.0 0.0 0.0 8.951583967708043 0.0 0.0 0.0 6.328972425814492" Properties=species:S:1:pos:R:3:momenta:R:3 config_id=t-FAPI3_cage_rattle_08 phase=t-FAPI3 mode=cage_rattle seed=3404292951 source=t-FAPI3/CONTCAR pbc="T T T"
C        4.47580859       4.47581216       3.61395771       0.00000000       0.00000000       0.00000000
C        0.00000663       8.95157291       3.61395304       0.00000000       0.00000000       0.00000000
N        5.30254330       5.30254700       3.01626364       0.00000000       0.00000000       0.00000000
N        3.64903041       3.64903389       3.01626875       0.00000000       0.00000000       0.00000000
N        0.82676527       8.12481519       3.01626668       0.00000000       0.00000000       0.00000000
N        8.12482240       0.82675785       3.01626817       0.00000000       0.00000000       0.00000000
H        4.47579450       4.47579803       4.70497827       0.00000000       0.00000000       0.00000000
H        5.90092284       5.90092643       3.58290570       0.00000000       0.00000000       0.00000000
H        5.38933710       5.38934018       2.00382741       0.00000000       0.00000000       0.00000000
H        3.56224778       3.56225067       2.00383502       0.00000000       0.00000000       0.00000000
H        3.05066699       3.05067030       3.58291603       0.00000000       0.00000000       0.00000000
H        0.00000348       8.95157626       4.70497583       0.00000000       0.00000000       0.00000000
H        1.42512586       7.52645430       3.58289565       0.00000000       0.00000000       0.00000000
H        0.91354605       8.03803590       2.00382148       0.00000000       0.00000000       0.00000000
H        8.03803680       0.91354491       2.00382628       0.00000000       0.00000000       0.00000000
H        7.52645594       1.42512382       3.58291356       0.00000000       0.00000000       0.00000000
Pb       8.94578013       4.48545414       6.28948887       0.00000000       0.00000000       0.00000000
Pb       4.51430408       0.04524901       6.29452901       0.00000000       0.00000000       0.00000000
I        0.00258587       4.46327981       3.13513135       0.00000000       0.00000000       0.00000000
I        4.46773548       8.90822040       3.10104987       0.00000000       0.00000000       0.00000000
I        1.93226216       1.97140085       6.28407296       0.00000000       0.00000000       0.00000000
I        2.53359563       6.46959180       6.28255760       0.00000000       0.00000000       0.00000000
I        6.44778912       2.55453486       6.26118574       0.00000000       0.00000000       0.00000000
I        6.99722092       7.01547709       6.26693394       0.00000000       0.00000000       0.00000000
24
Lattice="8.951583967708043 0.0 0.0 0.0 8.951583967708043 0.0 0.0 0.0 6.328972425814492" Properties=species:S:1:pos:R:3:momenta:R:3 config_id=t-FAPI3_cage_rattle_09 phase=t-FAPI3 mode=cage_rattle seed=1209422841 source=t-FAPI3/CONTCAR pbc="T T T"
C        4.47580859       4.47581216       3.61395771       0.00000000       0.00000000       0.00000000
C        0.00000663       8.95157291       3.61395304       0.00000000       0.00000000       0.00000000
N        5.30254330       5.30254700       3.01626364       0.00000000       0.00000000       0.00000000
N        3.64903041       3.64903389       3.01626875       0.00000000       0.00000000       0.00000000
N        0.82676527       8.12481519       3.01626668       0.00000000       0.00000000       0.00000000
N        8.12482240       0.82675785       3.01626817       0.00000000       0.00000000       0.00000000
H        4.47579450       4.47579803       4.70497827       0.00000000       0.00000000       0.00000000
H        5.90092284       5.90092643       3.58290570       0.00000000       0.00000000       0.00000000
H        5.38933710       5.38934018       2.00382741       0.00000000       0.00000000       0.00000000
H        3.56224778       3.56225067       2.00383502       0.00000000       0.00000000       0.00000000
H        3.05066699       3.05067030       3.58291603       0.00000000       0.00000000       0.00000000
H        0.00000348       8.95157626       4.70497583       0.00000000       0.00000000       0.00000000
H        1.42512586       7.52645430       3.58289565       0.00000000       0.00000000       0.00000000
H        0.91354605       8.03803590       2.00382148       0.00000000       0.00000000       0.00000000
H        8.03803680       0.91354491       2.00382628       0.00000000       0.00000000       0.00000000
H        7.52645594       1.42512382       3.58291356       0.00000000       0.00000000       0.00000000
Pb       0.02713631       4.54490019       6.26539068       0.00000000       0.00000000       0.00000000
Pb       4.47631816       8.88998799       6.28890699       0.00000000       0.00000000       0.00000000
I        0.05505913       4.42511293       3.05642674       0.00000000       0.00000000       0.00000000
I        4.38879881       0.01424511       3.12596721       0.00000000       0.00000000       0.00000000
I        1.95405591       2.11514462       6.20569404       0.00000000       0.00000000       0.00000000
I        2.49515772       6.42731341       6.19817271       0.00000000       0.00000000       0.00000000
I        6.36567901       2.57752209       6.23960112       0.00000000       0.00000000       0.00000000
I        6.98264079       7.01644753       6.16056780       0.00000000       0.00000000       0.00000000
24
Lattice="8.951583967708043 0.0 0.0 0.0 8.951583967708043 0.0 0.0 0.0 6.328972425814492" Properties=species:S:1:pos:R:3:momenta:R:3 config_id=t-FAPI3_cage_rattle_10 phase=t-FAPI3 mode=cage_rattle seed=2008487984 source=t-FAPI3/CONTCAR pbc="T T T"
C        4.47580859       4.47581216       3.61395771       0.00000000       0.00000000       0.00000000
C        0.00000663       8.95157291       3.61395304       0.00000000       0.00000000       0.00000000
N        5.30254330       5.30254700       3.01626364       0.00000000       0.00000000       0.00000000
N        3.64903041       3.64903389       3.01626875       0.00000000       0.00000000       0.00000000
N        0.82676527       8.12481519       3.01626668       0.00000000       0.00000000       0.00000000
N        8.12482240       0.82675785       3.01626817       0.00000000       0.00000000       0.00000000
H        4.47579450       4.47579803       4.70497827       0.00000000       0.00000000       0.00000000
H        5.90092284       5.90092643       3.58290570       0.00000000       0.00000000       0.00000000
H        5.38933710       5.38934018       2.00382741       0.00000000       0.00000000       0.00000000
H        3.56224778       3.56225067       2.00383502       0.00000000       0.00000000       0.00000000
H        3.05066699       3.05067030       3.58291603       0.00000000       0.00000000       0.00000000
H        0.00000348       8.95157626       4.70497583       0.00000000       0.00000000       0.00000000
H        1.42512586       7.52645430       3.58289565       0.00000000       0.00000000       0.00000000
H        0.91354605       8.03803590       2.00382148       0.00000000       0.00000000       0.00000000
H        8.03803680       0.91354491       2.00382628       0.00000000       0.00000000       0.00000000
H        7.52645594       1.42512382       3.58291356       0.00000000       0.00000000       0.00000000
Pb       8.93239436       4.48830020       0.05887142       0.00000000       0.00000000       0.00000000
Pb       4.56872277       8.94446761       6.26779844       0.00000000       0.00000000       0.00000000
I        8.86879891       4.44183622       3.15203319       0.00000000       0.00000000       0.00000000
I        4.41986272       0.01603169       3.13326924       0.00000000       0.00000000       0.00000000
I        1.97350894       1.98803119       6.26500079       0.00000000       0.00000000       0.00000000
I        2.49592707       6.42434999       6.22613813       0.00000000       0.00000000       0.00000000
I        6.43999179       2.49973870       6.31918123       0.00000000       0.00000000       0.00000000
I        6.93905881       7.03619464       0.02040744       0.00000000       0.00000000       0.00000000
24
Lattice="8.951583967708043 0.0 0.0 0.0 8.951583967708043 0.0 0.0 0.0 6.328972425814492" Properties=species:S:1:pos:R:3:momenta:R:3 config_id=t-FAPI3_cage_rattle_11 phase=t-FAPI3 mode=cage_rattle seed=156576312 source=t-FAPI3/CONTCAR pbc="T T T"
C        4.47580859       4.47581216       3.61395771       0.00000000       0.00000000       0.00000000
C        0.00000663       8.95157291       3.61395304       0.00000000       0.00000000       0.00000000
N        5.30254330       5.30254700       3.01626364       0.00000000       0.00000000       0.00000000
N        3.64903041       3.64903389       3.01626875       0.00000000       0.00000000       0.00000000
N        0.82676527       8.12481519       3.01626668       0.00000000       0.00000000       0.00000000
N        8.12482240       0.82675785       3.01626817       0.00000000       0.00000000       0.00000000
H        4.47579450       4.47579803       4.70497827       0.00000000       0.00000000       0.00000000
H        5.90092284       5.90092643       3.58290570       0.00000000       0.00000000       0.00000000
H        5.38933710       5.38934018       2.00382741       0.00000000       0.00000000       0.00000000
H        3.56224778       3.56225067       2.00383502       0.00000000       0.00000000       0.00000000
H        3.05066699       3.05067030       3.58291603       0.00000000       0.00000000       0.00000000
H        0.00000348       8.95157626       4.70497583       0.00000000       0.00000000       0.00000000
H        1.42512586       7.52645430       3.58289565       0.00000000       0.00000000       0.00000000
H        0.91354605       8.03803590       2.00382148       0.00000000       0.00000000       0.00000000
H        8.03803680       0.91354491       2.00382628       0.00000000       0.00000000       0.00000000
H        7.52645594       1.42512382       3.58291356       0.00000000       0.00000000       0.00000000
Pb       8.91739156       4.45068229       6.32423123       0.00000000       0.00000000       0.00000000
Pb       4.53614057       0.04411208       6.25329367       0.00000000       0.00000000       0.00000000
I        8.91301644       4.47657075       3.09863825       0.00000000       0.00000000       0.00000000
I        4.47729139       8.90345386       3.14653847       0.00000000       0.00000000       0.00000000
I        1.98538656       1.99301155       6.25907334       0.00000000       0.00000000       0.00000000
I        2.55306172       6.46733629       6.23072988       0.00000000       0.00000000       0.00000000
I        6.40898517       2.56608466       6.20556442       0.00000000       0.00000000       0.00000000
I        6.97423397       6.97294391       6.13514559       0.00000000       0.00000000       0.00000000
24
Lattice="8.951583967708043 0.0 0.0 0.0 8.951583967708043 0.0 0.0 0.0 6.328972425814492" Properties=species:S:1:pos:R:3:momenta:R:3 config_id=t-FAPI3_cage_rattle_12 phase=t-FAPI3 mode=cage_rattle seed=4205212233 source=t-FAPI3/CONTCAR pbc="T T T"
C        4.47580859       4.47581216       3.61395771       0.00000000       0.00000000       0.00000000
C        0.00000663       8.95157291       3.61395304       0.00000000       0.00000000       0.00000000
N        5.30254330       5.30254700       3.01626364       0.00000000       0.00000000       0.00000000
N        3.64903041       3.64903389       3.01626875       0.00000000       0.00000000       0.00000000
N        0.82676527       8.12481519       3.01626668       0.00000000       0.00000000       0.00000000
N        8.12482240       0.82675785       3.01626817       0.00000000       0.00000000       0.00000000
H        4.47579450       4.47579803       4.70497827       0.00000000       0.00000000       0.00000000
H        5.90092284       5.90092643       3.58290570       0.00000000       0.00000000       0.00000000
H        5.38933710       5.38934018       2.00382741       0.00000000       0.00000000       0.00000000
H        3.56224778       3.56225067       2.00383502       0.00000000       0.00000000       0.00000000
H        3.05066699       3.05067030       3.58291603       0.00000000       0.00000000       0.00000000
H        0.00000348       8.95157626       4.70497583       0.00000000       0.00000000       0.00000000
H        1.42512586       7.52645430       3.58289565       0.00000000       0.00000000       0.00000000
H        0.91354605       8.03803590       2.00382148       0.00000000       0.00000000       0.00000000
H        8.03803680       0.91354491       2.00382628       0.00000000       0.00000000       0.00000000
H        7.52645594       1.42512382       3.58291356       0.00000000       0.00000000       0.00000000
Pb       8.91986801       4.45538008       6.20259625       0.00000000       0.00000000       0.00000000
Pb       4.46147066       0.05735905       6.28477524       0.00000000       0.00000000       0.00000000
I        0.04262285       4.49464604       3.14982214       0.00000000       0.00000000       0.00000000
I        4.44718170       8.93165402       3.09958203       0.00000000       0.00000000       0.00000000
I        1.94968854       2.03358806       6.27524106       0.00000000       0.00000000       0.00000000
I        2.51040341       6.45940921       6.28390555       0.00000000       0.00000000       0.00000000
I        6.45750973       2.55000370       6.23493745       0.00000000       0.00000000       0.00000000
I        7.07509313       6.99098456       6.28068191       0.00000000       0.00000000       0.00000000
24
Lattice="8.951583967708043 0.0 0.0 0.0 8.951583967708043 0.0 0.0 0.0 6.328972425814492" Properties=species:S:1:pos:R:3:momenta:R:3 config_id=t-FAPI3_cage_rattle_13 phase=t-FAPI3 mode=cage_rattle seed=2137877002 source=t-FAPI3/CONTCAR pbc="T T T"
C        4.47580859       4.47581216       3.61395771       0.00000000       0.00000000       0.00000000
C        0.00000663       8.95157291       3.61395304       0.00000000       0.00000000       0.00000000
N        5.30254330       5.30254700       3.01626364       0.00000000       0.00000000       0.00000000
N        3.64903041       3.64903389       3.01626875       0.00000000       0.00000000       0.00000000
N        0.82676527       8.12481519       3.01626668       0.00000000       0.00000000       0.00000000
N        8.12482240       0.82675785       3.01626817       0.00000000       0.00000000       0.00000000
H        4.47579450       4.47579803       4.70497827       0.00000000       0.00000000       0.00000000
H        5.90092284       5.90092643       3.58290570       0.00000000       0.00000000       0.00000000
H        5.38933710       5.38934018       2.00382741       0.00000000       0.00000000       0.00000000
H        3.56224778       3.56225067       2.00383502       0.00000000       0.00000000       0.00000000
H        3.05066699       3.05067030       3.58291603       0.00000000       0.00000000       0.00000000
H        0.00000348       8.95157626       4.70497583       0.00000000       0.00000000       0.00000000
H        1.42512586       7.52645430       3.58289565       0.00000000       0.00000000       0.00000000
H        0.91354605       8.03803590       2.00382148       0.00000000       0.00000000       0.00000000
H        8.03803680       0.91354491       2.00382628       0.00000000       0.00000000       0.00000000
H        7.52645594       1.42512382       3.58291356       0.00000000       0.00000000       0.00000000
Pb       8.89407141       4.50814325       6.22850814       0.00000000       0.00000000       0.00000000
Pb       4.42246694       8.94822897       6.30610081       0.00000000       0.00000000       0.00000000
I        0.08356333       4.51309215       3.06143281       0.00000000       0.00000000       0.00000000
I        4.47978432       8.91096195       3.14887279       0.00000000       0.00000000       0.00000000
I        1.97501595       1.96966065       6.28365355       0.00000000       0.00000000       0.00000000
I        2.52702746       6.40493873       6.27405147       0.00000000       0.00000000       0.00000000
I        6.41752014       2.49736571       6.23319281       0.00000000       0.00000000       0.00000000
I        6.98430932       7.01607219       0.01357603       0.00000000       0.00000000       0.00000000
24
Lattice="8.951583967708043 0.0 0.0 0.0 8.951583967708043 0.0 0.0 0.0 6.328972425814492" Properties=species:S:1:pos:R:3:momenta:R:3 config_id=t-FAPI3_cage_rattle_14 phase=t-FAPI3 mode=cage_rattle seed=2621594004 source=t-FAPI3/CONTCAR pbc="T T T"
C        4.47580859       4.47581216       3.61395771       0.00000000       0.00000000       0.00000000
C        0.00000663       8.95157291       3.61395304       0.00000000       0.00000000       0.00000000
N        5.30254330       5.30254700       3.01626364       0.00000000       0.00000000       0.00000000
N        3.64903041       3.64903389       3.01626875       0.00000000       0.00000000       0.00000000
N        0.82676527       8.12481519       3.01626668       0.00000000       0.00000000       0.00000000
N        8.12482240       0.82675785       3.01626817       0.00000000       0.00000000       0.00000000
H        4.47579450       4.47579803       4.70497827       0.00000000       0.00000000       0.00000000
H        5.90092284       5.90092643       3.58290570       0.00000000       0.00000000       0.00000000
H        5.38933710       5.38934018       2.00382741       0.00000000       0.00000000       0.00000000
H        3.56224778       3.56225067       2.00383502       0.00000000       0.00000000       0.00000000
H        3.05066699       3.05067030       3.58291603       0.00000000       0.00000000       0.00000000
H        0.00000348       8.95157626       4.70497583       0.00000000       0.00000000       0.00000000
H        1.42512586       7.52645430       3.58289565       0.00000000       0.00000000       0.00000000
H        0.91354605       8.03803590       2.00382148       0.00000000       0.00000000       0.00000000
H        8.03803680       0.91354491       2.00382628       0.00000000       0.00000000       0.00000000
H        7.52645594       1.42512382       3.58291356       0.00000000       0.00000000       0.00000000
Pb       0.04137065       4.40683212       6.15132577       0.00000000       0.00000000       0.00000000
Pb       4.38328846       8.90448202       6.30022300       0.00000000       0.00000000       0.00000000
I        0.10677649       4.46167730       3.11510269       0.00000000       0.00000000       0.00000000
I        4.50258875       0.04469186       3.06705200       0.00000000       0.00000000       0.00000000
I        1.94397805       2.01964578       6.26582263       0.00000000       0.00000000       0.00000000
I        2.49122502       6.41117690       6.30167992       0.00000000       0.00000000       0.00000000
I        6.48360256       2.50651120       6.30359820       0.00000000       0.00000000       0.00000000
I        6.99659919       6.98362131       6.29372271       0.00000000       0.00000000       0.00000000
24
Lattice="8.951583967708043 0.0 0.0 0.0 8.951583967708043 0.0 0.0 0.0 6.328972425814492" Properties=species:S:1:pos:R:3:momenta:R:3 config_id=t-FAPI3_cage_rattle_15 phase=t-FAPI3 mode=cage_rattle seed=4017507702 source=t-FAPI3/CONTCAR pbc="T T T"
C        4.47580859       4.47581216       3.61395771       0.00000000       0.00000000       0.00000000
C        0.00000663       8.95157291       3.61395304       0.00000000       0.00000000       0.00000000
N        5.30254330       5.30254700       3.01626364       0.00000000       0.00000000       0.00000000
N        3.64903041       3.64903389       3.01626875       0.00000000       0.00000000       0.00000000
N        0.82676527       8.12481519       3.01626668       0.00000000       0.00000000       0.00000000
N        8.12482240       0.82675785       3.01626817       0.00000000       0.00000000       0.00000000
H        4.47579450       4.47579803       4.70497827       0.00000000       0.00000000       0.00000000
H        5.90092284       5.90092643       3.58290570       0.00000000       0.00000000       0.00000000
H        5.38933710       5.38934018       2.00382741       0.00000000       0.00000000       0.00000000
H        3.56224778       3.56225067       2.00383502       0.00000000       0.00000000       0.00000000
H        3.05066699       3.05067030       3.58291603       0.00000000       0.00000000       0.00000000
H        0.00000348       8.95157626       4.70497583       0.00000000       0.00000000       0.00000000
H        1.42512586       7.52645430       3.58289565       0.00000000       0.00000000       0.00000000
H        0.91354605       8.03803590       2.00382148       0.00000000       0.00000000       0.00000000
H        8.03803680       0.91354491       2.00382628       0.00000000       0.00000000       0.00000000
H        7.52645594       1.42512382       3.58291356       0.00000000       0.00000000       0.00000000
Pb       8.91057502       4.48116770       6.25609265       0.00000000       0.00000000       0.00000000
Pb       4.49671609       0.01262503       6.22562188       0.00000000       0.00000000       0.00000000
I        0.04478473       4.45619334       3.07962674       0.00000000       0.00000000       0.00000000
I        4.42043924       8.90589988       3.17626293       0.00000000       0.00000000       0.00000000
I        1.92086837       1.95902114       6.30215449       0.00000000       0.00000000       0.00000000
I        2.50810484       6.41123720       6.22898039       0.00000000       0.00000000       0.00000000
I        6.41491018       2.52189052       6.27458890       0.00000000       0.00000000       0.00000000
I        7.01768598       6.99612054       6.30231680       0.00000000       0.00000000       0.00000000
24
Lattice="8.951583967708043 0.0 0.0 0.0 8.951583967708043 0.0 0.0 0.0 6.328972425814492" Properties=species:S:1:pos:R:3:momenta:R:3 config_id=t-FAPI3_cage_rattle_16 phase=t-FAPI3 mode=cage_rattle seed=2438464306 source=t-FAPI3/CONTCAR pbc="T T T"
C        4.47580859       4.47581216       3.61395771       0.00000000       0.00000000       0.00000000
C        0.00000663       8.95157291       3.61395304       0.00000000       0.00000000       0.00000000
N        5.30254330       5.30254700       3.01626364       0.00000000       0.00000000       0.00000000
N        3.64903041       3.64903389       3.01626875       0.00000000       0.00000000       0.00000000
N        0.82676527       8.12481519       3.01626668       0.00000000       0.00000000       0.00000000
N        8.12482240       0.82675785       3.01626817       0.00000000       0.00000000       0.00000000
H        4.47579450       4.47579803       4.70497827       0.00000000       0.00000000       0.00000000
H        5.90092284       5.90092643       3.58290570       0.00000000       0.00000000       0.00000000
H        5.38933710       5.38934018       2.00382741       0.00000000       0.00000000       0.00000000
H        3.56224778       3.56225067       2.00383502       0.00000000       0.00000000       0.00000000
H        3.05066699       3.05067030       3.58291603       0.00000000       0.00000000       0.00000000
H        0.00000348       8.95157626       4.70497583       0.00000000       0.00000000       0.00000000
H        1.42512586       7.52645430       3.58289565       0.00000000       0.00000000       0.00000000
H        0.91354605       8.03803590       2.00382148       0.00000000       0.00000000       0.00000000
H        8.03803680       0.91354491       2.00382628       0.00000000       0.00000000       0.00000000
H        7.52645594       1.42512382       3.58291356       0.00000000       0.00000000       0.00000000
Pb       8.92942569       4.49243444       6.25703920       0.00000000       0.00000000       0.00000000
Pb       4.45220171       0.09632591       6.16356245       0.00000000       0.00000000       0.00000000
I        0.02839647       4.47171630       3.13909394       0.00000000       0.00000000       0.00000000
I        4.49184792       8.92825480       3.12223618       0.00000000       0.00000000       0.00000000
I        1.98986715       1.98720972       6.32678022       0.00000000       0.00000000       0.00000000
I        2.54427420       6.41145592       6.22228680       0.00000000       0.00000000       0.00000000
I        6.43037472       2.46840393       6.25963449       0.00000000       0.00000000       0.00000000
I        7.03870724       6.95229677       6.20937029       0.00000000       0.00000000       0.00000000
24
Lattice="8.951583967708043 0.0 0.0 0.0 8.951583967708043 0.0 0.0 0.0 6.328972425814492" Properties=species:S:1:pos:R:3:momenta:R:3 config_id=t-FAPI3_cage_rattle_17 phase=t-FAPI3 mode=cage_rattle seed=2872200326 source=t-FAPI3/CONTCAR pbc="T T T"
C        4.47580859       4.47581216       3.61395771       0.00000000       0.00000000       0.00000000
C        0.00000663       8.95157291       3.61395304       0.00000000       0.00000000       0.00000000
N        5.30254330       5.30254700       3.01626364       0.00000000       0.00000000       0.00000000
N        3.64903041       3.64903389       3.01626875       0.00000000       0.00000000       0.00000000
N        0.82676527       8.12481519       3.01626668       0.00000000       0.00000000       0.00000000
N        8.12482240       0.82675785       3.01626817       0.00000000       0.00000000       0.00000000
H        4.47579450       4.47579803       4.70497827       0.00000000       0.00000000       0.00000000
H        5.90092284       5.90092643       3.58290570       0.00000000       0.00000000       0.00000000
H        5.38933710       5.38934018       2.00382741       0.00000000       0.00000000       0.00000000
H        3.56224778       3.56225067       2.00383502       0.00000000       0.00000000       0.00000000
H        3.05066699       3.05067030       3.58291603       0.00000000       0.00000000       0.00000000
H        0.00000348       8.95157626       4.70497583       0.00000000       0.00000000       0.00000000
H        1.42512586       7.52645430       3.58289565       0.00000000       0.00000000       0.00000000
H        0.91354605       8.03803590       2.00382148       0.00000000       0.00000000       0.00000000
H        8.03803680       0.91354491       2.00382628       0.00000000       0.00000000       0.00000000
H        7.52645594       1.42512382       3.58291356       0.00000000       0.00000000       0.00000000
Pb       8.90708236       4.41476045       0.00568846       0.00000000       0.00000000       0.00000000
Pb       4.52283213       0.02570000       6.21806511       0.00000000       0.00000000       0.00000000
I        8.93938618       4.52777428       3.02501096       0.00000000       0.00000000       0.00000000
I        4.52275630       8.90719669       3.13325525       0.00000000       0.00000000       0.00000000
I        1.96292017       1.98206259       6.29669889       0.00000000       0.00000000       0.00000000
I        2.61001527       6.51076192       6.17862438       0.00000000       0.00000000       0.00000000
I        6.37233815       2.57263731       6.24381704       0.00000000       0.00000000       0.00000000
I        6.96726144       7.02121863       6.30731063       0.00000000       0.00000000       0.00000000
24
Lattice="8.951583967708043 0.0 0.0 0.0 8.951583967708043 0.0 0.0 0.0 6.328972425814492" Properties=species:S:1:pos:R:3:momenta:R:3 config_id=t-FAPI3_all_rattle_01 phase=t-FAPI3 mode=all_rattle seed=2091264016 source=t-FAPI3/CONTCAR pbc="T T T"
C        4.43107397       4.48213868       3.78612743       0.00000000       0.00000000       0.00000000
C        0.14693682       0.05330339       3.70897699       0.00000000       0.00000000       0.00000000
N        5.22018871       5.32463738       3.03979812       0.00000000       0.00000000       0.00000000
N        3.65294947       3.65150564       3.04518293       0.00000000       0.00000000       0.00000000
N        0.88735082       8.13948273       3.01673829       0.00000000       0.00000000       0.00000000
N        8.19657210       0.82516817       2.95029402       0.00000000       0.00000000       0.00000000
H        4.46257641       4.48365319       4.81408342       0.00000000       0.00000000       0.00000000
H        6.00905295       5.89109598       3.62528442       0.00000000       0.00000000       0.00000000
H        5.44169860       5.38935078       1.99146845       0.00000000       0.00000000       0.00000000
H        3.61048849       3.56621407       2.03432657       0.00000000       0.00000000       0.00000000
H        3.05144148       3.02699775       3.51385899       0.00000000       0.00000000       0.00000000
H        8.92389636       8.92565441       4.75247249       0.00000000       0.00000000       0.00000000
H        1.37332083       7.45558890       3.54622459       0.00000000       0.00000000       0.00000000
H        0.91852418       8.04549187       1.95614851       0.00000000       0.00000000       0.00000000
H        8.03424191       0.91442932       2.06979127       0.00000000       0.00000000       0.00000000
H        7.44758575       1.44432180       3.62612511       0.00000000       0.00000000       0.00000000
Pb       8.92702031       4.43088179       6.24254596       0.00000000       0.00000000       0.00000000
Pb       4.47800657       0.07718953       6.21662006       0.00000000       0.00000000       0.00000000
I        0.01619191       4.45925044       3.11431658       0.00000000       0.00000000       0.00000000
I        4.50584314       8.91142056       3.13853643       0.00000000       0.00000000       0.00000000
I        1.92950298       1.97179461       6.27010138       0.00000000       0.00000000       0.00000000
I        2.46792171       6.39545219       6.30590217       0.00000000       0.00000000       0.00000000
I        6.45575078       2.47586116       6.29999653       0.00000000       0.00000000       0.00000000
I        7.08756324       6.95962293       6.27893215       0.00000000       0.00000000       0.00000000
24
Lattice="8.951583967708043 0.0 0.0 0.0 8.951583967708043 0.0 0.0 0.0 6.328972425814492" Properties=species:S:1:pos:R:3:momenta:R:3 config_id=t-FAPI3_all_rattle_02 phase=t-FAPI3 mode=all_rattle seed=2967487925 source=t-FAPI3/CONTCAR pbc="T T T"
C        4.48475419       4.51003952       3.66724670       0.00000000       0.00000000       0.00000000
C        8.91621975       0.04136815       3.66536767       0.00000000       0.00000000       0.00000000
N        5.26907536       5.36476227       3.08009365       0.00000000       0.00000000       0.00000000
N        3.62107760       3.61173535       2.99298159       0.00000000       0.00000000       0.00000000
N        0.80786508       8.17279034       3.09429322       0.00000000       0.00000000       0.00000000
N        8.08087925       0.85317093       3.00236569       0.00000000       0.00000000       0.00000000
H        4.42126795       4.48009178       4.67193817       0.00000000       0.00000000       0.00000000
H        5.92932643       5.85133368       3.65940671       0.00000000       0.00000000       0.00000000
H        5.30260038       5.31084894       2.09591135       0.00000000       0.00000000       0.00000000
H        3.51058476       3.62769459       2.00809517       0.00000000       0.00000000       0.00000000
H        3.02980687       3.07254201       3.63169128       0.00000000       0.00000000       0.00000000
H        8.88797315       8.82712547       4.72449592       0.00000000       0.00000000       0.00000000
H        1.35106094       7.44796614       3.57203000       0.00000000       0.00000000       0.00000000
H        0.99170732       8.02928655       2.07128140       0.00000000       0.00000000       0.00000000
H        7.94530277       0.91986126       1.95801651       0.00000000       0.00000000       0.00000000
H        7.51811691       1.47093548       3.55710595       0.00000000       0.00000000       0.00000000
Pb       0.03623812       4.43594216       0.00054049       0.00000000       0.00000000       0.00000000
Pb       4.43752474       0.03940301       6.26484491       0.00000000       0.00000000       0.00000000
I        0.05294889       4.40188544       3.07450627       0.00000000       0.00000000       0.00000000
I        4.37417614       0.04416204       3.17895237       0.00000000       0.00000000       0.00000000
I        1.92806912       2.00062314       6.32264028       0.00000000       0.00000000       0.00000000
I        2.49808343       6.46543657       6.22831775       0.00000000       0.00000000       0.00000000
I        6.52476745       2.49530765       6.21112767       0.00000000       0.00000000       0.00000000
I        6.84571151       6.96476441       6.19653764       0.00000000       0.00000000       0.00000000
24
Lattice="8.951583967708043 0.0 0.0 0.0 8.951583967708043 0.0 0.0 0.0 6.328972425814492" Properties=species:S:1:pos:R:3:momenta:R:3 config_id=t-FAPI3_all_rattle_03 phase=t-FAPI3 mode=all_rattle seed=3964747857 source=t-FAPI3/CONTCAR pbc="T T T"
C        4.47472730       4.47422885       3.65006368       0.00000000       0.00000000       0.00000000
C        0.05117724       0.01142292       3.58060316       0.00000000       0.00000000       0.00000000
N        5.27159489       5.29465145       2.98567371       0.00000000       0.00000000       0.00000000
N        3.62339927       3.65676111       2.97445502       0.00000000       0.00000000       0.00000000
N        0.81734134       8.11735045       3.01277532       0.00000000       0.00000000       0.00000000
N        8.14988580       0.80370508       3.01799001       0.00000000       0.00000000       0.00000000
H        4.43163499       4.54485981       4.68226284       0.00000000       0.00000000       0.00000000
H        5.86993407       5.94672745       3.60255321       0.00000000       0.00000000       0.00000000
H        5.36960018       5.36587961       2.01608263       0.00000000       0.00000000       0.00000000
H        3.54871487       3.57686200       2.01115017       0.00000000       0.00000000       0.00000000
H        3.08171211       3.02548584       3.62876271       0.00000000       0.00000000       0.00000000
H        0.01062172       0.02892525       4.68214719       0.00000000       0.00000000       0.00000000
H        1.43198057       7.49088844       3.57756809       0.00000000       0.00000000       0.00000000
H        0.90789463       8.04921702       2.02145805       0.00000000       0.00000000       0.00000000
H        8.04836341       0.95970039       2.02525713       0.00000000       0.00000000       0.00000000
H        7.46902760       1.47078590       3.63032231       0.00000000       0.00000000       0.00000000
Pb       8.90381128       4.43389548       6.23069673       0.00000000       0.00000000       0.00000000
Pb       4.46536158       8.94852866       6.29165630       0.00000000       0.00000000       0.00000000
I        0.00452948       4.53914251       3.10709711       0.00000000       0.00000000       0.00000000
I        4.48857712       8.92638674       3.07406356       0.00000000       0.00000000       0.00000000
I        1.94514301       1.96170238       6.29678508       0.00000000       0.00000000       0.00000000
I        2.55234101       6.46316325       6.28347925       0.00000000       0.00000000       0.00000000
I        6.34899777       2.53283987       6.29474729       0.00000000       0.00000000       0.00000000
I        6.98703393       7.02103310       6.26833537       0.00000000       0.00000000       0.00000000
24
Lattice="8.951583967708043 0.0 0.0 0.0 8.951583967708043 0.0 0.0 0.0 6.328972425814492" Properties=species:S:1:pos:R:3:momenta:R:3 config_id=t-FAPI3_all_rattle_04 phase=t-FAPI3 mode=all_rattle seed=399645231 source=t-FAPI3/CONTCAR pbc="T T T"
C        4.45752095       4.44950853       3.69724295       0.00000000       0.00000000       0.00000000
C        8.93358643       0.02833985       3.59629528       0.00000000       0.00000000       0.00000000
N        5.32816827       5.28832905       2.96697507       0.00000000       0.00000000       0.00000000
N        3.64297936       3.68308590       3.01156903       0.00000000       0.00000000       0.00000000
N        0.82219485       8.20567189       2.98441110       0.00000000       0.00000000       0.00000000
N        8.11679069       0.80886263       3.08518483       0.00000000       0.00000000       0.00000000
H        4.50714226       4.54224526       4.78548618       0.00000000       0.00000000       0.00000000
H        5.84278302       5.86842644       3.58426558       0.00000000       0.00000000       0.00000000
H        5.37594529       5.30348226       1.99316243       0.00000000       0.00000000       0.00000000
H        3.48899102       3.66446981       2.03623982       0.00000000       0.00000000       0.00000000
H        3.04022211       2.97780533       3.58839904       0.00000000       0.00000000       0.00000000
H        0.08797626       0.02959804       4.70636372       0.00000000       0.00000000       0.00000000
H        1.42772802       7.50899042       3.49252076       0.00000000       0.00000000       0.00000000
H        0.84486940       8.11156429       2.04605055       0.00000000       0.00000000       0.00000000
H        7.92432542       1.00403869       1.95840625       0.00000000       0.00000000       0.00000000
H        7.43714158       1.42668264       3.55149547       0.00000000       0.00000000       0.00000000
Pb       0.04042244       4.44955364       6.19413724       0.00000000       0.00000000       0.00000000
Pb       4.49786433       0.04241464       6.32286183       0.00000000       0.00000000       0.00000000
I        0.02348618       4.40885065       2.98098324       0.00000000       0.00000000       0.00000000
I        4.32115367       8.86701281       3.17396244       0.00000000       0.00000000       0.00000000
I        1.88531366       1.94829648       6.29878142       0.00000000       0.00000000       0.00000000
I        2.51616227       6.33153605       6.20561025       0.00000000       0.00000000       0.00000000
I        6.50424799       2.56126494       6.25500942       0.00000000       0.00000000       0.00000000
I        7.05521768       6.98276618       6.20007687       0.00000000       0.00000000       0.00000000
24
Lattice="8.951583967708043 0.0 0.0 0.0 8.951583967708043 0.0 0.0 0.0 6.328972425814492" Properties=species:S:1:pos:R:3:momenta:R:3 config_id=t-FAPI3_all_rattle_05 phase=t-FAPI3 mode=all_rattle seed=4277976050 source=t-FAPI3/CONTCAR pbc="T T T"
C        4.42000227       4.48753233       3.63994565       0.00000000       0.00000000       0.00000000
C        0.00816608       8.92439305       3.67873094       0.00000000       0.00000000       0.00000000
N        5.29607702       5.29573760       3.03328352       0.00000000       0.00000000       0.00000000
N        3.65652556       3.63095205       3.02022786       0.00000000       0.00000000       0.00000000
N        0.84137571       8.15117352       3.06917031       0.00000000       0.00000000       0.00000000
N        8.10512505       0.83615759       2.94358260       0.00000000       0.00000000       0.00000000
H        4.48280806       4.44249567       4.68444457       0.00000000       0.00000000       0.00000000
H        5.86015295       6.02215148       3.58067059       0.00000000       0.00000000       0.00000000
H        5.42122696       5.41139841       1.93520069       0.00000000       0.00000000       0.00000000
H        3.53979011       3.56542806       2.07162057       0.00000000       0.00000000       0.00000000
H        2.99887496       3.01928788       3.52978877       0.00000000       0.00000000       0.00000000
H        0.02613809       0.00435661       4.69880719       0.00000000       0.00000000       0.00000000
H        1.39700965       7.55286284       3.55920707       0.00000000       0.00000000       0.00000000
H        0.91956379       8.06621319       2.03156909       0.00000000       0.00000000       0.00000000
H        8.00583084       0.92559773       2.00134245       0.00000000       0.00000000       0.00000000
H        7.57438261       1.42779645       3.55059537       0.00000000       0.00000000       0.00000000
Pb       8.88471053       4.52458074       6.24354892       0.00000000       0.00000000       0.00000000
Pb       4.54664247       0.06767563       6.25974769       0.00000000       0.00000000       0.00000000
I        8.92933970       4.40216777       3.10924246       0.00000000       0.00000000       0.00000000
I        4.56185378       0.00344840       3.13138405       0.00000000       0.00000000       0.00000000
I        1.99741037       1.97891410       6.22474167       0.00000000       0.00000000       0.00000000
I        2.47951249       6.37594048       6.23128165       0.00000000       0.00000000       0.00000000
I        6.48832852       2.50785579       6.30266801       0.00000000       0.00000000       0.00000000
I        6.99335132       7.00848231       6.26861321       0.00000000       0.00000000       0.00000000
24
Lattice="8.951583967708043 0.0 0.0 0.0 8.951583967708043 0.0 0.0 0.0 6.328972425814492" Properties=species:S:1:pos:R:3:momenta:R:3 config_id=t-FAPI3_all_rattle_06 phase=t-FAPI3 mode=all_rattle seed=2204627086 source=t-FAPI3/CONTCAR pbc="T T T"
C        4.37876054       4.43161927       3.65389296       0.00000000       0.00000000       0.00000000
C        8.88968588       8.91727999       3.54182901       0.00000000       0.00000000       0.00000000
N        5.24971566       5.32715146       3.01887144       0.00000000       0.00000000       0.00000000
N        3.62878316       3.65388798       3.07316058       0.00000000       0.00000000       0.00000000
N        0.86767673       8.11170667       2.97624843       0.00000000       0.00000000       0.00000000
N        8.17322628       0.87335081       3.00086234       0.00000000       0.00000000       0.00000000
H        4.48475826       4.41854967       4.68673744       0.00000000       0.00000000       0.00000000
H        5.84438020       5.90381296       3.51386724       0.00000000       0.00000000       0.00000000
H        5.38271656       5.53576058       2.11996514       0.00000000       0.00000000       0.00000000
H        3.52721647       3.59401999       1.95333230       0.00000000       0.00000000       0.00000000
H        3.07956463       3.10593081       3.64684563       0.00000000       0.00000000       0.00000000
H        0.01662937       0.09784615       4.68936383       0.00000000       0.00000000       0.00000000
H        1.44103342       7.52282834       3.51222690       0.00000000       0.00000000       0.00000000
H        0.88093451       8.03694781       2.01947134       0.00000000       0.00000000       0.00000000
H        8.09463342       0.91272321       2.03956895       0.00000000       0.00000000       0.00000000
H        7.56094799       1.47361472       3.62173830       0.00000000       0.00000000       0.00000000
Pb       8.92688417       4.52436790       6.31098317       0.00000000       0.00000000       0.00000000
Pb       4.51417805       8.94786300       0.00823891       0.00000000       0.00000000       0.00000000
I        8.88155246       4.49034950       3.14432357       0.00000000       0.00000000       0.00000000
I        4.36525222       8.84701467       3.09060858       0.00000000       0.00000000       0.00000000
I        1.98614123       1.79250136       6.29288789       0.00000000       0.00000000       0.00000000
I        2.57981210       6.55059444       0.07188714       0.00000000       0.00000000       0.00000000
I        6.48076256       2.52860329       6.17425135       0.00000000       0.00000000       0.00000000
I        6.98923049       6.91857535       0.00690406       0.00000000       0.00000000       0.00000000
24
Lattice="8.951583967708043 0.0 0.0 0.0 8.951583967708043 0.0 0.0 0.0 6.328972425814492" Properties=species:S:1:pos:R:3:momenta:R:3 config_id=t-FAPI3_all_rattle_07 phase=t-FAPI3 mode=all_rattle seed=3682180487 source=t-FAPI3/CONTCAR pbc="T T T"
C        4.49633632       4.52023943       3.69885406       0.00000000       0.00000000       0.00000000
C        0.04769912       0.03363414       3.62387037       0.00000000       0.00000000       0.00000000
N        5.40397009       5.26368726       2.92432746       0.00000000       0.00000000       0.00000000
N        3.63383363       3.64647272       2.94016539       0.00000000       0.00000000       0.00000000
N        0.86109316       8.16001427       3.02992687       0.00000000       0.00000000       0.00000000
N        8.21712656       0.85934607       3.04854205       0.00000000       0.00000000       0.00000000
H        4.47006643       4.43909357       4.69445771       0.00000000       0.00000000       0.00000000
H        5.94783469       6.00762170       3.53099818       0.00000000       0.00000000       0.00000000
H        5.27679457       5.41015516       2.04628507       0.00000000       0.00000000       0.00000000
H        3.61718543       3.64609771       1.99083436       0.00000000       0.00000000       0.00000000
H        3.00122733       3.01488457       3.56731426       0.00000000       0.00000000       0.00000000
H        8.90115551       8.94974805       4.72267469       0.00000000       0.00000000       0.00000000
H        1.45430139       7.55058527       3.51984286       0.00000000       0.00000000       0.00000000
H        0.95585271       8.02045449       1.95274574       0.00000000       0.00000000       0.00000000
H        8.09063919       0.89260173       2.01579180       0.00000000       0.00000000       0.00000000
H        7.63929794       1.40636473       3.54443235       0.00000000       0.00000000       0.00000000
Pb       8.93990442       4.43775696       0.04875388       0.00000000       0.00000000       0.00000000
Pb       4.46100524       0.14217681       6.25259485       0.00000000       0.00000000       0.00000000
I        0.00483332       4.45705924       3.01762177       0.00000000       0.00000000       0.00000000
I        4.46255659       0.04508038       3.11698026       0.00000000       0.00000000       0.00000000
I        1.93019868       1.87931631       6.22859683       0.00000000       0.00000000       0.00000000
I        2.51075797       6.47190595       0.02975300       0.00000000       0.00000000       0.00000000
I        6.37805622       2.43796990       6.30737210       0.00000000       0.00000000       0.00000000
I        7.06819240       6.94917090       0.00227131       0.00000000       0.00000000       0.00000000
24
Lattice="8.951583967708043 0.0 0.0 0.0 8.951583967708043 0.0 0.0 0.0 6.328972425814492" Properties=species:S:1:pos:R:3:momenta:R:3 config_id=t-FAPI3_all_rattle_08 phase=t-FAPI3 mode=all_rattle seed=3545552176 source=t-FAPI3/CONTCAR pbc="T T T"
C        4.48830922       4.41047755       3.52731754       0.00000000       0.00000000       0.00000000
C        0.00432517       8.94746014       3.63896110       0.00000000       0.00000000       0.00000000
N        5.26871616       5.32467374       3.02676898       0.00000000       0.00000000       0.00000000
N        3.67029226       3.63613252       3.03769131       0.00000000       0.00000000       0.00000000
N        0.84516146       8.15750143       3.01879704       0.00000000       0.00000000       0.00000000
N        8.14124522       0.88305689       3.00477884       0.00000000       0.00000000       0.00000000
H        4.48968366       4.51715516       4.65817370       0.00000000       0.00000000       0.00000000
H        5.84264341       5.85361577       3.52686128       0.00000000       0.00000000       0.00000000
H        5.40512439       5.41341229       2.03513988       0.00000000       0.00000000       0.00000000
H        3.54999128       3.58970878       1.95018103       0.00000000       0.00000000       0.00000000
H        3.04342855       3.10879540       3.59888847       0.00000000       0.00000000       0.00000000
H        8.93328623       0.03517886       4.67720680       0.00000000       0.00000000       0.00000000
H        1.44102897       7.48660800       3.53340691       0.00000000       0.00000000       0.00000000
H        0.95187710       8.05340798       1.99841976       0.00000000       0.00000000       0.00000000
H        7.98722267       0.91612018       1.94067923       0.00000000       0.00000000       0.00000000
H        7.49079275       1.42335755       3.55508452       0.00000000       0.00000000       0.00000000
Pb       8.95069379       4.50401683       6.22618912       0.00000000       0.00000000       0.00000000
Pb       4.50980374       8.94004677       0.00140125       0.00000000       0.00000000       0.00000000
I        8.92421956       4.47556053       3.12316765       0.00000000       0.00000000       0.00000000
I        4.45001617       0.00244887       3.08044836       0.00000000       0.00000000       0.00000000
I        1.97622744       1.91410152       6.25789914       0.00000000       0.00000000       0.00000000
I        2.54017422       6.37721324       6.23568694       0.00000000       0.00000000       0.00000000
I        6.46744852       2.53477890       6.29756497       0.00000000       0.00000000       0.00000000
I        7.03881005       6.97197024       6.28455225       0.00000000       0.00000000       0.00000000
24
Lattice="8.951583967708043 0.0 0.0 0.0 8.951583967708043 0.0 0.0 0.0 6.328972425814492" Properties=species:S:1:pos:R:3:momenta:R:3 config_id=t-FAPI3_all_rattle_09 phase=t-FAPI3 mode=all_rattle seed=2303418162 source=t-FAPI3/CONTCAR pbc="T T T"
C        4.50622408       4.52156877       3.58179434       0.00000000       0.00000000       0.00000000
C        8.90697395       8.90219977       3.55146426       0.00000000       0.00000000       0.00000000
N        5.34088657       5.37014967       2.99624494       0.00000000       0.00000000       0.00000000
N        3.58617258       3.63085729       2.97263913       0.00000000       0.00000000       0.00000000
N        0.76062558       8.15608140       2.98910869       0.00000000       0.00000000       0.00000000
N        8.11324906       0.75626189       3.06198817       0.00000000       0.00000000       0.00000000
H        4.42188264       4.51046187       4.72405748       0.00000000       0.00000000       0.00000000
H        5.90980086       5.79564863       3.57415344       0.00000000       0.00000000       0.00000000
H        5.38052431       5.28212795       1.90516189       0.00000000       0.00000000       0.00000000
H        3.51792460       3.51398358       1.97574525       0.00000000       0.00000000       0.00000000
H        3.01209978       3.09012320       3.61868314       0.00000000       0.00000000       0.00000000
H        0.01408199       8.92879369       4.64296243       0.00000000       0.00000000       0.00000000
H        1.38686206       7.70244660       3.58873309       0.00000000       0.00000000       0.00000000
H        0.89855648       8.04097583       1.97342283       0.00000000       0.00000000       0.00000000
H        8.03210560       0.90284164       1.98626029       0.00000000       0.00000000       0.00000000
H        7.59155324       1.32382528       3.60482484       0.00000000       0.00000000       0.00000000
Pb       8.92162756       4.53542939       6.26298139       0.00000000       0.00000000       0.00000000
Pb       4.51134283       0.01240773       6.31446654       0.00000000       0.00000000       0.00000000
I        0.04075417       4.44725641       3.09181380       0.00000000       0.00000000       0.00000000
I        4.54323603       8.86859136       3.08784604       0.00000000       0.00000000       0.00000000
I        1.89044336       1.97825388       6.17786858       0.00000000       0.00000000       0.00000000
I        2.57459224       6.35729833       6.22420148       0.00000000       0.00000000       0.00000000
I        6.45744838       2.52415858       6.27046060       0.00000000       0.00000000       0.00000000
I        6.96155608       7.00147743       6.29227866       0.00000000       0.00000000       0.00000000
24
Lattice="8.951583967708043 0.0 0.0 0.0 8.951583967708043 0.0 0.0 0.0 6.328972425814492" Properties=species:S:1:pos:R:3:momenta:R:3 config_id=t-FAPI3_all_rattle_10 phase=t-FAPI3 mode=all_rattle seed=2055787085 source=t-FAPI3/CONTCAR pbc="T T T"
C        4.47414297       4.38516163       3.68026719       0.00000000       0.00000000       0.00000000
C        8.87546919       8.92861324       3.62003058       0.00000000       0.00000000       0.00000000
N        5.29217583       5.37541109       2.95431851       0.00000000       0.00000000       0.00000000
N        3.58744264       3.69811923       2.96615009       0.00000000       0.00000000       0.00000000
N        0.74520795       8.08014420       3.01947861       0.00000000       0.00000000       0.00000000
N        8.19320462       0.79379364       3.15329237       0.00000000       0.00000000       0.00000000
H        4.36670297       4.44348118       4.68857179       0.00000000       0.00000000       0.00000000
H        5.86987432       5.98922831       3.47988930       0.00000000       0.00000000       0.00000000
H        5.42054733       5.32007336       1.93117341       0.00000000       0.00000000       0.00000000
H        3.61530431       3.53529807       2.01334774       0.00000000       0.00000000       0.00000000
H        3.03843315       3.05391222       3.48855748       0.00000000       0.00000000       0.00000000
H        8.92135063       8.84144807       4.59994104       0.00000000       0.00000000       0.00000000
H        1.43025190       7.53329089       3.45260212       0.00000000       0.00000000       0.00000000
H        0.85828368       8.03669077       2.00256759       0.00000000       0.00000000       0.00000000
H        8.14062253       0.91708336       1.95580645       0.00000000       0.00000000       0.00000000
H        7.47535649       1.32663808       3.55296745       0.00000000       0.00000000       0.00000000
Pb       0.03492804       4.49814234       6.25988055       0.00000000       0.00000000       0.00000000
Pb       4.54293394       0.07583023       6.32457415       0.00000000       0.00000000       0.00000000
I        0.00764587       4.43411762       3.17075669       0.00000000       0.00000000       0.00000000
I        4.45445507       8.94898654       3.10677286       0.00000000       0.00000000       0.00000000
I        1.87850659       1.93092147       6.31891980       0.00000000       0.00000000       0.00000000
I        2.56226096       6.34271539       6.17810494       0.00000000       0.00000000       0.00000000
I        6.39173529       2.61820963       6.18853361       0.00000000       0.00000000       0.00000000
I        6.98243886       6.93776337       6.12103250       0.00000000       0.00000000       0.00000000
24
Lattice="8.951583967708043 0.0 0.0 0.0 8.951583967708043 0.0 0.0 0.0 6.328972425814492" Properties=species:S:1:pos:R:3:momenta:R:3 config_id=t-FAPI3_all_rattle_11 phase=t-FAPI3 mode=all_rattle seed=1906171184 source=t-FAPI3/CONTCAR pbc="T T T"
C        4.40415881       4.46086789       3.62523344       0.00000000       0.00000000       0.00000000
C        8.91550791       0.05532237       3.65104595       0.00000000       0.00000000       0.00000000
N        5.29878501       5.36967087       2.96387599       0.00000000       0.00000000       0.00000000
N        3.62117953       3.60297379       3.04551906       0.00000000       0.00000000       0.00000000
N        0.82864231       8.00015451       2.98828890       0.00000000       0.00000000       0.00000000
N        8.14924883       0.84853657       3.00864264       0.00000000       0.00000000       0.00000000
H        4.44936485       4.48330748       4.72372538       0.00000000       0.00000000       0.00000000
H        5.87563022       5.87061478       3.66319983       0.00000000       0.00000000       0.00000000
H        5.38337156       5.45521739       2.01792297       0.00000000       0.00000000       0.00000000
H        3.53877652       3.56759674       2.00955725       0.00000000       0.00000000       0.00000000
H        3.12509168       3.11706475       3.56101900       0.00000000       0.00000000       0.00000000
H        0.01919918       0.00781575       4.69727832       0.00000000       0.00000000       0.00000000
H        1.41781451       7.53503558       3.51965048       0.00000000       0.00000000       0.00000000
H        0.86815011       7.99997145       2.06222938       0.00000000       0.00000000       0.00000000
H        7.96313478       0.93758249       1.91828597       0.00000000       0.00000000       0.00000000
H        7.58774110       1.45465393       3.55501372       0.00000000       0.00000000       0.00000000
Pb       8.92666339       4.45246538       0.02867709       0.00000000       0.00000000       0.00000000
Pb       4.55487669       0.07073838       6.26402856       0.00000000       0.00000000       0.00000000
I        0.02225109       4.48892709       3.13709519       0.00000000       0.00000000       0.00000000
I        4.44805960       8.91534587       3.13078114       0.00000000       0.00000000       0.00000000
I        1.99948166       1.96489076       6.31390681       0.00000000       0.00000000       0.00000000
I        2.51406689       6.47574462       6.31054345       0.00000000       0.00000000       0.00000000
I        6.38224194       2.52439025       6.21971660       0.00000000       0.00000000       0.00000000
I        6.90290993       6.90061380       0.04119838       0.00000000       0.00000000       0.00000000
24
Lattice="8.951583967708043 0.0 0.0 0.0 8.951583967708043 0.0 0.0 0.0 6.328972425814492" Properties=species:S:1:pos:R:3:momenta:R:3 config_id=t-FAPI3_all_rattle_12 phase=t-FAPI3 mode=all_rattle seed=3997102086 source=t-FAPI3/CONTCAR pbc="T T T"
C        4.46769697       4.43941739       3.73801950       0.00000000       0.00000000       0.00000000
C        8.92742807       8.92258277       3.57313147       0.00000000       0.00000000       0.00000000
N        5.27851231       5.28484133       3.02966439       0.00000000       0.00000000       0.00000000
N        3.57484341       3.72285004       3.08235614       0.00000000       0.00000000       0.00000000
N        0.80496431       8.16946044       3.05284784       0.00000000       0.00000000       0.00000000
N        8.10804421       0.84489589       2.99994392       0.00000000       0.00000000       0.00000000
H        4.45581202       4.50945784       4.68364430       0.00000000       0.00000000       0.00000000
H        5.97621368       5.86512333       3.51515358       0.00000000       0.00000000       0.00000000
H        5.46611399       5.37717543       2.04204605       0.00000000       0.00000000       0.00000000
H        3.53568454       3.41637467       2.01207129       0.00000000       0.00000000       0.00000000
H        3.11266504       3.10510930       3.62639476       0.00000000       0.00000000       0.00000000
H        8.81580165       0.04554983       4.66390431       0.00000000       0.00000000       0.00000000
H        1.45445229       7.48418104       3.55927552       0.00000000       0.00000000       0.00000000
H        0.85981995       8.03512873       1.96498053       0.00000000       0.00000000       0.00000000
H        7.96338982       0.90035515       1.94867658       0.00000000       0.00000000       0.00000000
H        7.53188020       1.31621531       3.51790291       0.00000000       0.00000000       0.00000000
Pb       8.93881288       4.52096359       6.18086695       0.00000000       0.00000000       0.00000000
Pb       4.54819787       8.88659648       6.29880706       0.00000000       0.00000000       0.00000000
I        8.91136536       4.53257456       3.11973314       0.00000000       0.00000000       0.00000000
I        4.51973516       8.94747842       3.09625461       0.00000000       0.00000000       0.00000000
I        1.94920742       1.95799419       6.19582449       0.00000000       0.00000000       0.00000000
I        2.54463051       6.53315817       6.28095333       0.00000000       0.00000000       0.00000000
I        6.41906865       2.50059071       6.22970991       0.00000000       0.00000000       0.00000000
I        7.07709914       7.01182618       0.04512794       0.00000000       0.00000000       0.00000000
24
Lattice="8.951583967708043 0.0 0.0 0.0 8.951583967708043 0.0 0.0 0.0 6.328972425814492" Properties=species:S:1:pos:R:3:momenta:R:3 config_id=t-FAPI3_all_rattle_13 phase=t-FAPI3 mode=all_rattle seed=2994406834 source=t-FAPI3/CONTCAR pbc="T T T"
C        4.46050822       4.44273360       3.63160762       0.00000000       0.00000000       0.00000000
C        8.88777915       0.01613927       3.58340430       0.00000000       0.00000000       0.00000000
N        5.35983635       5.30174800       3.04470623       0.00000000       0.00000000       0.00000000
N        3.64520897       3.67811774       3.00339699       0.00000000       0.00000000       0.00000000
N        0.77903950       8.07723268       3.01704744       0.00000000       0.00000000       0.00000000
N        8.09540538       0.86568912       2.89686458       0.00000000       0.00000000       0.00000000
H        4.48870252       4.54776538       4.72308381       0.00000000       0.00000000       0.00000000
H        5.92363018       5.98286515       3.66323001       0.00000000       0.00000000       0.00000000
H        5.46049540       5.35679478       2.03434143       0.00000000       0.00000000       0.00000000
H        3.62715503       3.59182445       1.97737473       0.00000000       0.00000000       0.00000000
H        3.03816380       3.07535209       3.63591900       0.00000000       0.00000000       0.00000000
H        0.01714867       0.02119725       4.68525289       0.00000000       0.00000000       0.00000000
H        1.40489241       7.47448495       3.50442380       0.00000000       0.00000000       0.00000000
H        0.96299143       8.03981383       2.02961036       0.00000000       0.00000000       0.00000000
H        7.99526798       0.98586460       1.95080681       0.00000000       0.00000000       0.00000000
H        7.47966258       1.35826926       3.49530919       0.00000000       0.00000000       0.00000000
Pb       0.01777890       4.37320723       6.30933269       0.00000000       0.00000000       0.00000000
Pb       4.46555319       0.02678177       6.20362817       0.00000000       0.00000000       0.00000000
I        8.91235239       4.46848463       3.14590607       0.00000000       0.00000000       0.00000000
I        4.41399905       8.89867977       3.06150441       0.00000000       0.00000000       0.00000000
I        1.88365939       1.89361611       6.27161187       0.00000000       0.00000000       0.00000000
I        2.55009319       6.43644891       6.25598387       0.00000000       0.00000000       0.00000000
I        6.34356297       2.55923617       6.21617805       0.00000000       0.00000000       0.00000000
I        6.91621822       6.99361658       6.25795536       0.00000000       0.00000000       0.00000000
24
Lattice="8.951583967708043 0.0 0.0 0.0 8.951583967708043 0.0 0.0 0.0 6.328972425814492" Properties=species:S:1:pos:R:3:momenta:R:3 config_id=t-FAPI3_all_rattle_14 phase=t-FAPI3 mode=all_rattle seed=442853200 source=t-FAPI3/CONTCAR pbc="T T T"
C        4.43706763       4.46831183       3.58417189       0.00000000       0.00000000       0.00000000
C        0.00067561       0.01193820       3.63337958       0.00000000       0.00000000       0.00000000
N        5.27142972       5.34965667       3.04427254       0.00000000       0.00000000       0.00000000
N        3.65163682       3.68082874       3.01371983       0.00000000       0.00000000       0.00000000
N        0.84811873       8.06531661       2.97009375       0.00000000       0.00000000       0.00000000
N        8.13918091       0.79961409       2.97295757       0.00000000       0.00000000       0.00000000
H        4.44766312       4.48144982       4.72541172       0.00000000       0.00000000       0.00000000
H        5.88571672       5.88832060       3.56599968       0.00000000       0.00000000       0.00000000
H        5.37545895       5.38609317       2.01107659       0.00000000       0.00000000       0.00000000
H        3.57706156       3.59738271       2.02081505       0.00000000       0.00000000       0.00000000
H        3.05254933       3.03724402       3.58751167       0.00000000       0.00000000       0.00000000
H        0.02040506       8.94519187       4.68100114       0.00000000       0.00000000       0.00000000
H        1.39160574       7.53343740       3.58675659       0.00000000       0.00000000       0.00000000
H        0.86769125       8.06050084       2.00841461       0.00000000       0.00000000       0.00000000
H        8.06316132       0.92721204       1.98844165       0.00000000       0.00000000       0.00000000
H        7.53983095       1.43219401       3.61622784       0.00000000       0.00000000       0.00000000
Pb       8.92263968       4.43015216       6.29497811       0.00000000       0.00000000       0.00000000
Pb       4.45388233       8.93980351       6.27491291       0.00000000       0.00000000       0.00000000
I        8.91790451       4.49609625       3.04685994       0.00000000       0.00000000       0.00000000
I        4.52648044       0.03077112       3.11469028       0.00000000       0.00000000       0.00000000
I        1.92787109       1.94697697       6.30019927       0.00000000       0.00000000       0.00000000
I        2.51184324       6.43618225       6.24819872       0.00000000       0.00000000       0.00000000
I        6.43664908       2.46968869       6.26629060       0.00000000       0.00000000       0.00000000
I        6.96423928       6.93925485       6.27030200       0.00000000       0.00000000       0.00000000
24
Lattice="8.951583967708043 0.0 0.0 0.0 8.951583967708043 0.0 0.0 0.0 6.328972425814492" Properties=species:S:1:pos:R:3:momenta:R:3 config_id=t-FAPI3_all_rattle_15 phase=t-FAPI3 mode=all_rattle seed=2457972471 source=t-FAPI3/CONTCAR pbc="T T T"
C        4.49768949       4.52600974       3.60432274       0.00000000       0.00000000       0.00000000
C        8.93147638       0.05731770       3.61795769       0.00000000       0.00000000       0.00000000
N        5.29523054       5.22081328       3.02652307       0.00000000       0.00000000       0.00000000
N        3.70195506       3.59993928       2.98089933       0.00000000       0.00000000       0.00000000
N        0.90725159       8.08689091       2.99047615       0.00000000       0.00000000       0.00000000
N        8.10746721       0.77911360       2.99401859       0.00000000       0.00000000       0.00000000
H        4.45861647       4.46793830       4.62880807       0.00000000       0.00000000       0.00000000
H        5.89682405       5.85067747       3.60254633       0.00000000       0.00000000       0.00000000
H        5.40617023       5.36462193       1.97707181       0.00000000       0.00000000       0.00000000
H        3.53546049       3.53327641       2.02758502       0.00000000       0.00000000       0.00000000
H        3.06052351       3.02970773       3.60270545       0.00000000       0.00000000       0.00000000
H        8.91324344       8.93260649       4.71867830       0.00000000       0.00000000       0.00000000
H        1.45244005       7.52282793       3.51865249       0.00000000       0.00000000       0.00000000
H        0.92303054       8.03852046       2.01962675       0.00000000       0.00000000       0.00000000
H        8.06674754       0.94014304       2.04484581       0.00000000       0.00000000       0.00000000
H        7.52450794       1.48485227       3.50657881       0.00000000       0.00000000       0.00000000
Pb       0.01941993       4.52610739       6.31074494       0.00000000       0.00000000       0.00000000
Pb       4.51368469       0.01572063       0.00890987       0.00000000       0.00000000       0.00000000
I        0.04675209       4.49533833       3.05611213       0.00000000       0.00000000       0.00000000
I        4.46855515       0.07163693       3.07545449       0.00000000       0.00000000       0.00000000
I        1.91930275       1.95449532       6.21426175       0.00000000       0.00000000       0.00000000
I        2.52926794       6.39659571       6.29137058       0.00000000       0.00000000       0.00000000
I        6.46085485       2.47271297       6.24799104       0.00000000       0.00000000       0.00000000
I        6.97187568       7.02892408       6.21539641       0.00000000       0.00000000       0.00000000
24
Lattice="8.951583967708043 0.0 0.0 0.0 8.951583967708043 0.0 0.0 0.0 6.328972425814492" Properties=species:S:1:pos:R:3:momenta:R:3 config_id=t-FAPI3_all_rattle_16 phase=t-FAPI3 mode=all_rattle seed=461500476 source=t-FAPI3/CONTCAR pbc="T T T"
C        4.48523769       4.43939643       3.60078305       0.00000000       0.00000000       0.00000000
C        8.94662763       0.01800922       3.55818391       0.00000000       0.00000000       0.00000000
N        5.28495824       5.29100476       3.06203213       0.00000000       0.00000000       0.00000000
N        3.61408808       3.64700745       2.98904304       0.00000000       0.00000000       0.00000000
N        0.81331371       8.16617364       3.03856996       0.00000000       0.00000000       0.00000000
N        8.14338232       0.79371567       3.06275169       0.00000000       0.00000000       0.00000000
H        4.46542825       4.46635636       4.69327566       0.00000000       0.00000000       0.00000000
H        5.90778612       5.90381884       3.52723150       0.00000000       0.00000000       0.00000000
H        5.34361498       5.36779295       1.97802146       0.00000000       0.00000000       0.00000000
H        3.61333348       3.56894792       2.01122504       0.00000000       0.00000000       0.00000000
H        3.04698658       3.07810638       3.58312175       0.00000000       0.00000000       0.00000000
H        0.01490850       0.01112335       4.66330958       0.00000000       0.00000000       0.00000000
H        1.39222516       7.51422548       3.58701316       0.00000000       0.00000000       0.00000000
H        0.87253791       8.03072995       1.98319110       0.00000000       0.00000000       0.00000000
H        8.09378804       0.87144236       1.98777937       0.00000000       0.00000000       0.00000000
H        7.53583173       1.49329692       3.55562613       0.00000000       0.00000000       0.00000000
Pb       0.05256816       4.47350511       6.27464154       0.00000000       0.00000000       0.00000000
Pb       4.48982025       8.91765868       6.26361642       0.00000000       0.00000000       0.00000000
I        0.00555506       4.48948932       3.11890216       0.00000000       0.00000000       0.00000000
I        4.44954248       8.93911995       3.07840551       0.00000000       0.00000000       0.00000000
I        1.93795719       1.95324484       6.25961719       0.00000000       0.00000000       0.00000000
I        2.55561094       6.49017655       6.29529788       0.00000000       0.00000000       0.00000000
I        6.41378966       2.49211687       6.25544087       0.00000000       0.00000000       0.00000000
I        6.97698317       7.02118409       0.02893329       0.00000000       0.00000000       0.00000000
24
Lattice="8.951583967708043 0.0 0.0 0.0 8.951583967708043 0.0 0.0 0.0 6.328972425814492" Properties=species:S:1:pos:R:3:momenta:R:3 config_id=t-FAPI3_all_rattle_17 phase=t-FAPI3 mode=all_rattle seed=4214912556 source=t-FAPI3/CONTCAR pbc="T T T"
C        4.47686097       4.46166699       3.58121005       0.00000000       0.00000000       0.00000000
C        8.95127054       8.93160983       3.59676541       0.00000000       0.00000000       0.00000000
N        5.29402582       5.27964425       3.02578008       0.00000000       0.00000000       0.00000000
N        3.66275972       3.69790265       2.99801139       0.00000000       0.00000000       0.00000000
N        0.84409607       8.14728943       3.03270780       0.00000000       0.00000000       0.00000000
N        8.14186521       0.84876756       3.02267908       0.00000000       0.00000000       0.00000000
H        4.48722629       4.46122903       4.72068223       0.00000000       0.00000000       0.00000000
H        5.90355073       5.91934528       3.56184929       0.00000000       0.00000000       0.00000000
H        5.36494143       5.38172922       2.03241092       0.00000000       0.00000000       0.00000000
H        3.55293015       3.53492926       2.00956789       0.00000000       0.00000000       0.00000000
H        3.09755036       3.05890198       3.56633592       0.00000000       0.00000000       0.00000000
H        0.01020013       0.01306070       4.69897179       0.00000000       0.00000000       0.00000000
H        1.43051923       7.51956875       3.55874300       0.00000000       0.00000000       0.00000000
H        0.92255676       8.07286755       2.00376271       0.00000000       0.00000000       0.00000000
H        8.02606120       0.90356764       1.98681861       0.00000000       0.00000000       0.00000000
H        7.56618116       1.42647892       3.56937092       0.00000000       0.00000000       0.00000000
Pb       0.02778453       4.49503751       6.28994841       0.00000000       0.00000000       0.00000000
Pb       4.47432773       8.95096041       6.26798056       0.00000000       0.00000000       0.00000000
I        0.00254680       4.48090732       3.10362995       0.00000000       0.00000000       0.00000000
I        4.43888532       0.04284660       3.13471547       0.00000000       0.00000000       0.00000000
I        1.98197084       1.97348284       6.24404206       0.00000000       0.00000000       0.00000000
I        2.52563440       6.39937858       6.31445345       0.00000000       0.00000000       0.00000000
I        6.45563958       2.50695756       6.27969562       0.00000000       0.00000000       0.00000000
I        6.98854974       7.01623704       6.25248723       0.00000000       0.00000000       0.00000000
24
Lattice="8.848874063078677 0.0601046109593987 -0.0317595445743069 0.0601046109593987 9.086474751244861 -0.0745326987005293 -0.0224547166839211 -0.0526963045421745 6.429514751133833" Properties=species:S:1:pos:R:3:momenta:R:3 config_id=t-FAPI3_strain_rattle_01 phase=t-FAPI3 mode=strain_rattle seed=2015970803 source=t-FAPI3/CONTCAR pbc="T T T"
C        4.44168384       4.54321973       3.61822285       0.00000000       0.00000000       0.00000000
C        0.04728906       9.05637307       3.59683182       0.00000000       0.00000000       0.00000000
N        5.26660426       5.39294014       3.00121703       0.00000000       0.00000000       0.00000000
N        3.62096128       3.70340795       3.02085624       0.00000000       0.00000000       0.00000000
N        0.86113088       8.22768465       2.99360107       0.00000000       0.00000000       0.00000000
N        8.02644841       0.86865554       3.02847472       0.00000000       0.00000000       0.00000000
H        4.43779896       4.53412123       4.72657558       0.00000000       0.00000000       0.00000000
H        5.86012539       5.99963629       3.56975555       0.00000000       0.00000000       0.00000000
H        5.35657700       5.49005372       1.97166660       0.00000000       0.00000000       0.00000000
H        3.53818374       3.62316403       1.99336942       0.00000000       0.00000000       0.00000000
H        3.02343537       3.08729198       3.60361035       0.00000000       0.00000000       0.00000000
H        0.04341510       9.04729237       4.70518663       0.00000000       0.00000000       0.00000000
H        1.44659792       7.61960687       3.57209066       0.00000000       0.00000000       0.00000000
H        0.94992534       8.14861019       1.96548677       0.00000000       0.00000000       0.00000000
H        7.94483337       0.96459747       1.99953444       0.00000000       0.00000000       0.00000000
H        7.43695482       1.46730257       3.60126271       0.00000000       0.00000000       0.00000000
Pb       8.85407188       4.57053548       6.32622332       0.00000000       0.00000000       0.00000000
Pb       4.37223175      -0.00687019       6.36609000       0.00000000       0.00000000       0.00000000
I        8.86385556       4.59882289       3.07767701       0.00000000       0.00000000       0.00000000
I        4.39125182       0.02312683       3.15169396       0.00000000       0.00000000       0.00000000
I        1.93659798       1.95021799       6.35347799       0.00000000       0.00000000       0.00000000
I        2.52520642       6.47983128       6.28988217       0.00000000       0.00000000       0.00000000
I        6.34169043       2.55873242       6.31351605       0.00000000       0.00000000       0.00000000
I        6.94995361       7.10765863       6.27300408       0.00000000       0.00000000       0.00000000
24
Lattice="8.866403951807722 -0.0479765080618511 -0.0624838092502648 -0.0479765080618511 9.06586795557092 -0.0753679289242606 -0.0441774670529099 -0.0532868312103342 6.448847742520908" Properties=species:S:1:pos:R:3:momenta:R:3 config_id=t-FAPI3_strain_rattle_02 phase=t-FAPI3 mode=strain_rattle seed=3935958245 source=t-FAPI3/CONTCAR pbc="T T T"
C        4.38400393       4.47853832       3.61348253       0.00000000       0.00000000       0.00000000
C       -0.07319598       9.03542902       3.60703604       0.00000000       0.00000000       0.00000000
N        5.20261283       5.31642936       2.99173623       0.00000000       0.00000000       0.00000000
N        3.57369621       3.65066807       3.01720504       0.00000000       0.00000000       0.00000000
N        0.75429855       8.19871733       2.99921903       0.00000000       0.00000000       0.00000000
N        8.02202435       0.76837206       3.00972472       0.00000000       0.00000000       0.00000000
H        4.37637451       4.46933823       4.72516803       0.00000000       0.00000000       0.00000000
H        5.78813608       5.91447035       3.55989603       0.00000000       0.00000000       0.00000000
H        5.29518255       5.41238967       1.95878714       0.00000000       0.00000000       0.00000000
H        3.49527149       3.57176620       1.98693152       0.00000000       0.00000000       0.00000000
H        2.98027826       3.04310130       3.60379965       0.00000000       0.00000000       0.00000000
H       -0.08081467       9.02624655       4.71872359       0.00000000       0.00000000       0.00000000
H        1.34621712       7.58473954       3.57744159       0.00000000       0.00000000       0.00000000
H        0.84778571       8.11888932       1.96772227       0.00000000       0.00000000       0.00000000
H        7.94266647       0.86525651       1.97798153       0.00000000       0.00000000       0.00000000
H        7.42218946       1.37281341       3.58624156       0.00000000       0.00000000       0.00000000
Pb       8.77590288       4.42063001       6.30606651       0.00000000       0.00000000       0.00000000
Pb       4.34263344       8.97489981       6.32084934       0.00000000       0.00000000       0.00000000
I        8.78443235       4.45111996       3.06920011       0.00000000       0.00000000       0.00000000
I        4.35451542       9.00462600       3.04665979       0.00000000       0.00000000       0.00000000
I        1.90610641       1.93055292       6.34913243       0.00000000       0.00000000       0.00000000
I        2.41148447       6.44596360       6.33819951       0.00000000       0.00000000       0.00000000
I        6.30621895       2.47419823       6.32148985       0.00000000       0.00000000       0.00000000
I        6.84974111       6.99962403       6.27771308       0.00000000       0.00000000       0.00000000
24
Lattice="9.053137609335277 -0.0137926002517076 -0.0599356626471515 -0.0137926002517076 9.032295594281631 -0.0796074290030348 -0.0423758697438511 -0.0562842536994258 6.30273946378847" Properties=species:S:1:pos:R:3:momenta:R:3 config_id=t-FAPI3_strain_rattle_03 phase=t-FAPI3 mode=strain_rattle seed=1228892460 source=t-FAPI3/CONTCAR pbc="T T T"
C        4.49549188       4.47713250       3.52920638       0.00000000       0.00000000       0.00000000
C       -0.03798323       9.00014514       3.51936619       0.00000000       0.00000000       0.00000000
N        5.33433376       5.31536309       2.92110202       0.00000000       0.00000000       0.00000000
N        3.66460984       3.64948883       2.94688313       0.00000000       0.00000000       0.00000000
N        0.80343049       8.16997442       2.92597404       0.00000000       0.00000000       0.00000000
N        8.19552722       0.79486955       2.94201354       0.00000000       0.00000000       0.00000000
H        4.48817268       4.46741570       4.61570499       0.00000000       0.00000000       0.00000000
H        5.93478582       5.91317659       3.47606747       0.00000000       0.00000000       0.00000000
H        5.42875728       5.41180882       1.91150924       0.00000000       0.00000000       0.00000000
H        3.58375519       3.57106053       1.93999867       0.00000000       0.00000000       0.00000000
H        3.05658608       3.04161282       3.52050939       0.00000000       0.00000000       0.00000000
H       -0.04529141       8.99044594       4.60586679       0.00000000       0.00000000       0.00000000
H        1.40570741       7.56025738       3.49156933       0.00000000       0.00000000       0.00000000
H        0.89810835       8.09128276       1.91791601       0.00000000       0.00000000       0.00000000
H        8.11440218       0.89157659       1.93357739       0.00000000       0.00000000       0.00000000
H        7.58565647       1.39451339       3.50499529       0.00000000       0.00000000       0.00000000
Pb       8.97248749       4.45381511       6.19458895       0.00000000       0.00000000       0.00000000
Pb       4.44161066       8.96213499       6.19264749       0.00000000       0.00000000       0.00000000
I       -0.00861025       4.42008323       3.07915609       0.00000000       0.00000000       0.00000000
I        4.46121985       8.98445586       2.97869744       0.00000000       0.00000000       0.00000000
I        1.93338287       1.91980266       6.20073673       0.00000000       0.00000000       0.00000000
I        2.54240316       6.40696960       6.12760478       0.00000000       0.00000000       0.00000000
I        6.47887976       2.45680152       6.13874927       0.00000000       0.00000000       0.00000000
I        7.00076465       6.98581809       6.17318277       0.00000000       0.00000000       0.00000000
24
Lattice="9.086775367532715 0.0177101703854078 -0.0621780172115294 0.0177101703854078 9.008058298035355 -0.0238886192417774 -0.0439612651619181 -0.0168897943668288 6.257281681235706" Properties=species:S:1:pos:R:3:momenta:R:3 config_id=t-FAPI3_strain_rattle_04 phase=t-FAPI3 mode=strain_rattle seed=3550014847 source=t-FAPI3/CONTCAR pbc="T T T"
C        4.52715699       4.50326019       3.52998751       0.00000000       0.00000000       0.00000000
C       -0.00738576       8.99840282       3.54912774       0.00000000       0.00000000       0.00000000
N        5.37216472       5.33844147       2.93111497       0.00000000       0.00000000       0.00000000
N        3.69040821       3.67122518       2.94701802       0.00000000       0.00000000       0.00000000
N        0.83437487       8.16965991       2.95467525       0.00000000       0.00000000       0.00000000
N        8.22821221       0.83999887       2.92346009       0.00000000       0.00000000       0.00000000
H        4.51956439       4.50033440       4.60864979       0.00000000       0.00000000       0.00000000
H        5.97682924       5.94026768       3.48558522       0.00000000       0.00000000       0.00000000
H        5.46747345       5.42865577       1.92931250       0.00000000       0.00000000       0.00000000
H        3.60917566       3.58642459       1.94688690       0.00000000       0.00000000       0.00000000
H        3.07788823       3.06639059       3.51299973       0.00000000       0.00000000       0.00000000
H       -0.01496724       8.99549463       4.62779211       0.00000000       0.00000000       0.00000000
H        1.43665256       7.56719572       3.51232636       0.00000000       0.00000000       0.00000000
H        0.92932704       8.08520668       1.95332720       0.00000000       0.00000000       0.00000000
H        8.14732009       0.92986361       1.92285774       0.00000000       0.00000000       0.00000000
H        7.61805681       1.43944384       3.48624632       0.00000000       0.00000000       0.00000000
Pb       9.03797483       4.53707606       6.11797843       0.00000000       0.00000000       0.00000000
Pb       4.55206120       8.99648422       6.14964867       0.00000000       0.00000000       0.00000000
I        9.05160195       4.46231544       2.95557418       0.00000000       0.00000000       0.00000000
I        4.52639796       8.96903003       3.01752303       0.00000000       0.00000000       0.00000000
I        1.93011125       1.92629928       6.18124496       0.00000000       0.00000000       0.00000000
I        2.52655817       6.44121955       6.10705517       0.00000000       0.00000000       0.00000000
I        6.45956186       2.49100798       6.16501626       0.00000000       0.00000000       0.00000000
I        7.04334163       6.97756802       6.18777099       0.00000000       0.00000000       0.00000000
24
Lattice="8.903711608893666 0.0423025845234421 -0.0079306351133305 0.0423025845234421 8.987148012556577 0.0374388789908439 -0.0056071384832596 0.0264701346310585 6.454130997710686" Properties=species:S:1:pos:R:3:momenta:R:3 config_id=t-FAPI3_strain_rattle_05 phase=t-FAPI3 mode=strain_rattle seed=1280617861 source=t-FAPI3/CONTCAR pbc="T T T"
C        4.46982193       4.52986056       3.70017971       0.00000000       0.00000000       0.00000000
C        0.03910736       9.00225185       3.72285958       0.00000000       0.00000000       0.00000000
N        5.29657177       5.36128709       3.09339122       0.00000000       0.00000000       0.00000000
N        3.64408770       3.69339068       3.08794574       0.00000000       0.00000000       0.00000000
N        0.85806706       8.17361675       3.10916341       0.00000000       0.00000000       0.00000000
N        8.08260626       0.88105322       3.07217601       0.00000000       0.00000000       0.00000000
H        4.46884126       4.53440936       4.81277570       0.00000000       0.00000000       0.00000000
H        5.89407697       5.96724152       3.67321141       0.00000000       0.00000000       0.00000000
H        5.38420852       5.44460087       2.06121966       0.00000000       0.00000000       0.00000000
H        3.55825603       3.60161819       2.05520455       0.00000000       0.00000000       0.00000000
H        3.04559457       3.09219207       3.66382629       0.00000000       0.00000000       0.00000000
H        0.03813765       9.00681826       4.83545791       0.00000000       0.00000000       0.00000000
H        1.44989798       7.57807614       3.68396506       0.00000000       0.00000000       0.00000000
H        0.94487062       8.08266837       2.07625677       0.00000000       0.00000000       0.00000000
H        7.99759188       0.96354054       2.04015245       0.00000000       0.00000000       0.00000000
H        7.48976550       1.48133868       3.65305981       0.00000000       0.00000000       0.00000000
Pb       0.01576025       4.45487854       6.45236802       0.00000000       0.00000000       0.00000000
Pb       4.49494703       0.09064165       6.41477058       0.00000000       0.00000000       0.00000000
I        8.90548794       4.52988323       3.11336035       0.00000000       0.00000000       0.00000000
I        4.47434050       9.00438513       3.24078393       0.00000000       0.00000000       0.00000000
I        1.96212819       1.95157266       6.38822562       0.00000000       0.00000000       0.00000000
I        2.46627516       6.49547841       6.41633324       0.00000000       0.00000000       0.00000000
I        6.39528889       2.60328524       6.41456090       0.00000000       0.00000000       0.00000000
I        7.04362510       7.11694898       6.42610374       0.00000000       0.00000000       0.00000000
24
Lattice="8.815158879537623 0.0273626180674811 -0.0126153881771469 0.0273626180674811 8.7929210928345 -0.0601857647258263 -0.0089193649081696 -0.0425526975729014 6.400683117146574" Properties=species:S:1:pos:R:3:momenta:R:3 config_id=t-FAPI3_strain_rattle_06 phase=t-FAPI3 mode=strain_rattle seed=1468167705 source=t-FAPI3/CONTCAR pbc="T T T"
C        4.41618405       4.38586336       3.61850508       0.00000000       0.00000000       0.00000000
C        0.02227600       8.76861192       3.59471539       0.00000000       0.00000000       0.00000000
N        5.23368848       5.20449038       3.00731517       0.00000000       0.00000000       0.00000000
N        3.60032131       3.57523068       3.02076797       0.00000000       0.00000000       0.00000000
N        0.83474971       7.96305383       2.99465047       0.00000000       0.00000000       0.00000000
N        7.99927381       0.81665955       3.03343519       0.00000000       0.00000000       0.00000000
H        4.41463256       4.37851399       4.72188761       0.00000000       0.00000000       0.00000000
H        5.82397905       5.79028309       3.57551110       0.00000000       0.00000000       0.00000000
H        5.32085163       5.29681759       1.98270162       0.00000000       0.00000000       0.00000000
H        3.51602282       3.49652745       1.99756860       0.00000000       0.00000000       0.00000000
H        3.00844954       2.98183394       3.59870202       0.00000000       0.00000000       0.00000000
H        0.02073534       8.76127973       4.69810004       0.00000000       0.00000000       0.00000000
H        1.42136351       7.37331794       3.57087945       0.00000000       0.00000000       0.00000000
H        0.92136948       7.88488508       1.97119486       0.00000000       0.00000000       0.00000000
H        7.91550296       0.90845019       2.00906059       0.00000000       0.00000000       0.00000000
H        7.41105713       1.39878088       3.60332116       0.00000000       0.00000000       0.00000000
Pb       8.80762036       4.39370429       6.30036962       0.00000000       0.00000000       0.00000000
Pb       4.39703482      -0.02738921       6.32841959       0.00000000       0.00000000       0.00000000
I        8.79996950       4.42181843       3.11049533       0.00000000       0.00000000       0.00000000
I        4.41394027       8.78515321       3.09646071       0.00000000       0.00000000       0.00000000
I        1.93682724       1.88843633       6.32525937       0.00000000       0.00000000       0.00000000
I        2.51704951       6.29146406       6.32077030       0.00000000       0.00000000       0.00000000
I        6.33608462       2.42826671       6.30471661       0.00000000       0.00000000       0.00000000
I        6.91879620       6.85252925       6.28017150       0.00000000       0.00000000       0.00000000
24
Lattice="8.875074871516757 0.0454282264464218 0.0113420955605628 0.0454282264464218 8.850652143357788 -0.0135482022382667 0.0080191182155815 -0.0095788855575359 6.213509143122738" Properties=species:S:1:pos:R:3:momenta:R:3 config_id=t-FAPI3_strain_rattle_07 phase=t-FAPI3 mode=strain_rattle seed=544760014 source=t-FAPI3/CONTCAR pbc="T T T"
C        4.46484718       4.44259050       3.54692303       0.00000000       0.00000000       0.00000000
C        0.05001380       8.84517153       3.53447332       0.00000000       0.00000000       0.00000000
N        5.28795407       5.26510384       2.95992931       0.00000000       0.00000000       0.00000000
N        3.64018235       3.62184321       2.96034182       0.00000000       0.00000000       0.00000000
N        0.86475315       8.03283606       2.94998976       0.00000000       0.00000000       0.00000000
N        8.06339709       0.85410330       2.97028381       0.00000000       0.00000000       0.00000000
H        4.46621551       4.44092520       4.61803944       0.00000000       0.00000000       0.00000000
H        5.88497394       5.85891546       3.51608630       0.00000000       0.00000000       0.00000000
H        5.37316370       5.35289120       1.96594217       0.00000000       0.00000000       0.00000000
H        3.55241824       3.53713039       1.96639992       0.00000000       0.00000000       0.00000000
H        3.04461449       3.02633210       3.51679888       0.00000000       0.00000000       0.00000000
H        0.05139308       8.84352357       4.60559192       0.00000000       0.00000000       0.00000000
H        1.45568089       7.44340089       3.50794514       0.00000000       0.00000000       0.00000000
H        0.94906900       7.94900797       1.95625651       0.00000000       0.00000000       0.00000000
H        7.97651086       0.94100371       1.97607120       0.00000000       0.00000000       0.00000000
H        7.47389946       1.44182826       3.52492776       0.00000000       0.00000000       0.00000000
Pb       8.86437132       4.45567904       6.18169957       0.00000000       0.00000000       0.00000000
Pb       4.45796021       0.02857980       6.19469389       0.00000000       0.00000000       0.00000000
I        8.89811550       4.46489321       3.08841200       0.00000000       0.00000000       0.00000000
I        4.45830401       0.02736494       3.05054895       0.00000000       0.00000000       0.00000000
I        1.88757789       1.96521348       6.17443320       0.00000000       0.00000000       0.00000000
I        2.48069034       6.36426709       6.16719178       0.00000000       0.00000000       0.00000000
I        6.40279082       2.47156345       6.11347854       0.00000000       0.00000000       0.00000000
I        6.92827549       6.97574784       6.11154571       0.00000000       0.00000000       0.00000000
24
Lattice="8.952024253999898 -0.038566322613317855 -0.030610553744450087 -0.038566322613317855 8.865879424747764 0.06633179737468411 -0.021642354167308392 0.046898081730956304 6.381483387176578" Properties=species:S:1:pos:R:3:momenta:R:3 config_id=t-FAPI3_strain_rattle_08 phase=t-FAPI3 mode=strain_rattle seed=4224899628 source=t-FAPI3/CONTCAR pbc="T T T"
C        4.44438731       4.44045611       3.66180313       0.00000000       0.00000000       0.00000000
C       -0.05091780       8.89264806       3.71026940       0.00000000       0.00000000       0.00000000
N        5.26964470       5.25128481       3.06244913       0.00000000       0.00000000       0.00000000
N        3.62317433       3.62072673       3.05585594       0.00000000       0.00000000       0.00000000
N        0.78148727       8.06581508       3.09867061       0.00000000       0.00000000       0.00000000
N        8.11134575       0.80618865       3.01963684       0.00000000       0.00000000       0.00000000
H        4.44064246       4.44852671       4.76187575       0.00000000       0.00000000       0.00000000
H        5.86353799       5.84555606       3.63618040       0.00000000       0.00000000       0.00000000
H        5.35953093       5.32937087       2.04195914       0.00000000       0.00000000       0.00000000
H        3.54022341       3.52764608       2.03467582       0.00000000       0.00000000       0.00000000
H        3.02542174       3.03486884       3.62481688       0.00000000       0.00000000       0.00000000
H       -0.05465179       8.90073594       4.81034435       0.00000000       0.00000000       0.00000000
H        1.38051760       7.47480386       3.66352082       0.00000000       0.00000000       0.00000000
H        0.87210831       7.97199047       2.07688543       0.00000000       0.00000000       0.00000000
H        8.02764408       0.88501643       1.99973467       0.00000000       0.00000000       0.00000000
H        7.50843422       1.40560256       3.59746372       0.00000000       0.00000000       0.00000000
Pb       8.86895252       4.48155957       6.30291009       0.00000000       0.00000000       0.00000000
Pb       4.39917859       8.88151296       6.39508844       0.00000000       0.00000000       0.00000000
I        8.89042071       4.38836718       3.13854765       0.00000000       0.00000000       0.00000000
I        4.46025431       8.86138613       3.20291550       0.00000000       0.00000000       0.00000000
I        1.90841133       1.98224474       6.35721573       0.00000000       0.00000000       0.00000000
I        2.48452933       6.39614319       6.39477980       0.00000000       0.00000000       0.00000000
I        6.40901685       2.53908717       6.31236871       0.00000000       0.00000000       0.00000000
I        6.91495638       6.92644105       6.32436638       0.00000000       0.00000000       0.00000000
24
Lattice="8.988948710166364 0.04313157972290481 0.007321695100357926 0.04313157972290481 8.86307726632217 -0.03762219690179691 0.005176604114707416 -0.02659974454230602 6.453022917140578" Properties=species:S:1:pos:R:3:momenta:R:3 config_id=t-FAPI3_strain_rattle_09 phase=t-FAPI3 mode=strain_rattle seed=2747692741 source=t-FAPI3/CONTCAR pbc="T T T"
C        4.51901286       4.43793554       3.66964246       0.00000000       0.00000000       0.00000000
C        0.04609412       8.84787743       3.64716587       0.00000000       0.00000000       0.00000000
N        5.35269304       5.26299173       3.05743490       0.00000000       0.00000000       0.00000000
N        3.68431108       3.61786017       3.06303714       0.00000000       0.00000000       0.00000000
N        0.87183128       8.03578967       3.04191559       0.00000000       0.00000000       0.00000000
N        8.16518682       0.84505452       3.07855900       0.00000000       0.00000000       0.00000000
H        4.51989101       4.43333609       4.78204753       0.00000000       0.00000000       0.00000000
H        5.95691692       5.85595649       3.63315790       0.00000000       0.00000000       0.00000000
H        5.43943922       5.35360009       2.02486071       0.00000000       0.00000000       0.00000000
H        3.59591997       3.53577196       2.03105304       0.00000000       0.00000000       0.00000000
H        3.08103040       3.02014812       3.64281636       0.00000000       0.00000000       0.00000000
H        0.04698334       8.84329532       4.75957315       0.00000000       0.00000000       0.00000000
H        1.47026985       7.44384656       3.62265495       0.00000000       0.00000000       0.00000000
H        0.95772806       7.95454168       2.01006173       0.00000000       0.00000000       0.00000000
H        8.07762903       0.93482047       2.04583710       0.00000000       0.00000000       0.00000000
H        7.56766931       1.43223964       3.65330662       0.00000000       0.00000000       0.00000000
Pb       9.01252974       4.44137183       6.40586799       0.00000000       0.00000000       0.00000000
Pb       4.55506706       8.84998857       6.37661392       0.00000000       0.00000000       0.00000000
I        9.00235690       4.45829614       3.14898463       0.00000000       0.00000000       0.00000000
I        4.49628598       0.02313954       3.19208772       0.00000000       0.00000000       0.00000000
I        2.00330988       1.90375518       6.37952809       0.00000000       0.00000000       0.00000000
I        2.58246268       6.35560610       6.36711972       0.00000000       0.00000000       0.00000000
I        6.46718735       2.49661949       6.38183608       0.00000000       0.00000000       0.00000000
I        7.06487470       6.90871394       6.35623002       0.00000000       0.00000000       0.00000000
24
Lattice="9.100068874511935 0.04536633806301006 -0.06397038907255796 0.04536633806301006 8.888610346134564 0.04772608201884639 -0.04522851262629734 0.033743419955516336 6.387321449967729" Properties=species:S:1:pos:R:3:momenta:R:3 config_id=t-FAPI3_strain_rattle_10 phase=t-FAPI3 mode=strain_rattle seed=1342081236 source=t-FAPI3/CONTCAR pbc="T T T"
C        4.54690829       4.48627656       3.63915389       0.00000000       0.00000000       0.00000000
C        0.01954676       8.90786748       3.69499732       0.00000000       0.00000000       0.00000000
N        5.39581766       5.30819860       3.03444921       0.00000000       0.00000000       0.00000000
N        3.70649704       3.65793790       3.03745497       0.00000000       0.00000000       0.00000000
N        0.86010055       8.08792931       3.08148452       0.00000000       0.00000000       0.00000000
N        8.24222829       0.87819949       2.99042200       0.00000000       0.00000000       0.00000000
H        4.53909718       4.49207932       4.74023298       0.00000000       0.00000000       0.00000000
H        6.00310605       5.90842215       3.60522947       0.00000000       0.00000000       0.00000000
H        5.49172615       5.38942319       2.01252147       0.00000000       0.00000000       0.00000000
H        3.62507020       3.56592750       2.01584473       0.00000000       0.00000000       0.00000000
H        3.09112634       3.06377238       3.61041221       0.00000000       0.00000000       0.00000000
H        0.01174684       8.91368766       4.79607867       0.00000000       0.00000000       0.00000000
H        1.46130473       7.49983133       3.64587119       0.00000000       0.00000000       0.00000000
H        0.95511621       7.99680237       2.05862240       0.00000000       0.00000000       0.00000000
H        8.16167813       0.95853827       1.96972896       0.00000000       0.00000000       0.00000000
H        7.63291949       1.47234462       3.56975781       0.00000000       0.00000000       0.00000000
Pb       9.06626755       4.53372031       6.30161741       0.00000000       0.00000000       0.00000000
Pb       4.51973894       8.94385044       6.35864238       0.00000000       0.00000000       0.00000000
I        0.00713412       4.46300383       3.13044990       0.00000000       0.00000000       0.00000000
I        4.54894471       0.06001124       3.10174161       0.00000000       0.00000000       0.00000000
I        1.96219633       1.96616799       6.31610394       0.00000000       0.00000000       0.00000000
I        2.55427885       6.42457493       6.36494927       0.00000000       0.00000000       0.00000000
I        6.49966523       2.58049676       6.27429637       0.00000000       0.00000000       0.00000000
I        7.07279751       6.98681922       6.33201386       0.00000000       0.00000000       0.00000000
24
Lattice="9.07734443962938 -0.05616650507773989 0.03720344783515177 -0.05616650507773989 8.931545132589227 -0.009537810977524071 0.026303679476537417 -0.0067434481871744435 6.326378118551501" Properties=species:S:1:pos:R:3:momenta:R:3 config_id=t-FAPI3_strain_rattle_11 phase=t-FAPI3 mode=strain_rattle seed=357569262 source=t-FAPI3/CONTCAR pbc="T T T"
C        4.52562556       4.43385871       3.62630918       0.00000000       0.00000000       0.00000000
C       -0.04113985       8.92768343       3.60293387       0.00000000       0.00000000       0.00000000
N        5.35630365       5.25419234       3.03141521       0.00000000       0.00000000       0.00000000
N        3.68993556       3.61475568       3.02630999       0.00000000       0.00000000       0.00000000
N        0.79993733       8.09822583       3.00980949       0.00000000       0.00000000       0.00000000
N        8.24631610       0.77071428       3.04791823       0.00000000       0.00000000       0.00000000
H        4.53014572       4.43268223       4.71688248       0.00000000       0.00000000       0.00000000
H        5.96169029       5.84687399       3.59967433       0.00000000       0.00000000       0.00000000
H        5.43956446       5.34132539       2.01966223       0.00000000       0.00000000       0.00000000
H        3.59827050       3.52978998       2.01402305       0.00000000       0.00000000       0.00000000
H        3.08927520       3.02088224       3.59087570       0.00000000       0.00000000       0.00000000
H       -0.03660869       8.92652432       4.69350943       0.00000000       0.00000000       0.00000000
H        1.41281362       7.49684628       3.57933056       0.00000000       0.00000000       0.00000000
H        0.88427398       8.01217504       1.99823242       0.00000000       0.00000000       0.00000000
H        8.15355891       0.85893034       2.03543820       0.00000000       0.00000000       0.00000000
H        7.63814379       1.37089144       3.61120694       0.00000000       0.00000000       0.00000000
Pb       9.06742733       4.41253176       6.32203014       0.00000000       0.00000000       0.00000000
Pb       4.48498344       8.89024845       6.30135613       0.00000000       0.00000000       0.00000000
I       -0.01359359       4.47819331       3.12008721       0.00000000       0.00000000       0.00000000
I        4.49301532       8.89516639       3.13070837       0.00000000       0.00000000       0.00000000
I        2.00874793       1.93814887       6.26184969       0.00000000       0.00000000       0.00000000
I        2.53446604       6.41885377       6.25717241       0.00000000       0.00000000       0.00000000
I        6.52911725       2.46550864       6.30704503       0.00000000       0.00000000       0.00000000
I        7.07509813       6.92806748       6.26860792       0.00000000       0.00000000       0.00000000
24
Lattice="8.896701444676735 0.05638219315162561 0.07985264735193152 0.05638219315162561 8.94547965197861 0.029144572874986344 0.05645762862101172 0.020605872519694115 6.275117734611205" Properties=species:S:1:pos:R:3:momenta:R:3 config_id=t-FAPI3_strain_rattle_12 phase=t-FAPI3 mode=strain_rattle seed=2865988132 source=t-FAPI3/CONTCAR pbc="T T T"
C        4.50879678       4.51271751       3.63770453       0.00000000       0.00000000       0.00000000
C        0.08862700       8.95723495       3.61234567       0.00000000       0.00000000       0.00000000
N        5.33033826       5.34214986       3.05516296       0.00000000       0.00000000       0.00000000
N        3.67654839       3.67934957       3.03503434       0.00000000       0.00000000       0.00000000
N        0.89977769       8.13430248       3.02442852       0.00000000       0.00000000       0.00000000
N        8.10712282       0.88718921       3.06577132       0.00000000       0.00000000       0.00000000
H        4.51851514       4.51625545       4.71944118       0.00000000       0.00000000       0.00000000
H        5.93387278       5.94573505       3.62426937       0.00000000       0.00000000       0.00000000
H        5.40811515       5.42613424       2.05239861       0.00000000       0.00000000       0.00000000
H        3.58071981       3.58878263       2.03015895       0.00000000       0.00000000       0.00000000
H        3.08313951       3.07947007       3.58957403       0.00000000       0.00000000       0.00000000
H        0.09835637       8.96079043       4.69408468       0.00000000       0.00000000       0.00000000
H        1.49575551       7.54196327       3.58962544       0.00000000       0.00000000       0.00000000
H        0.97644830       8.04483263       2.02109003       0.00000000       0.00000000       0.00000000
H        8.01238444       0.97007415       2.06145292       0.00000000       0.00000000       0.00000000
H        7.52124858       1.48322317       3.62420542       0.00000000       0.00000000       0.00000000
Pb       0.10590458       4.50397334       6.26312179       0.00000000       0.00000000       0.00000000
Pb       4.56382407       8.98674691       6.30947254       0.00000000       0.00000000       0.00000000
I        0.06664619       4.48847714       3.09676921       0.00000000       0.00000000       0.00000000
I        4.53787213       8.96956667       3.16405395       0.00000000       0.00000000       0.00000000
I        2.01289057       2.01888591       6.26029587       0.00000000       0.00000000       0.00000000
I        2.60855770       6.44540580       6.26292814       0.00000000       0.00000000       0.00000000
I        6.45807711       2.59065671       6.29224073       0.00000000       0.00000000       0.00000000
I        7.05992709       7.05615700       6.29543823       0.00000000       0.00000000       0.00000000
24
Lattice="8.961364489461205 0.050625403507763116 -0.08502330851511149 0.050625403507763116 9.078437601031991 -0.04923387596923947 -0.06011340306752845 -0.03480946439751368 6.252004824937839" Properties=species:S:1:pos:R:3:momenta:R:3 config_id=t-FAPI3_strain_rattle_13 phase=t-FAPI3 mode=strain_rattle seed=428720862 source=t-FAPI3/CONTCAR pbc="T T T"
C        4.47168585       4.54467522       3.50287896       0.00000000       0.00000000       0.00000000
C        0.01630619       9.05854962       3.52076932       0.00000000       0.00000000       0.00000000
N        5.30967640       5.39108869       2.90005405       0.00000000       0.00000000       0.00000000
N        3.64500543       3.70479210       2.92485872       0.00000000       0.00000000       0.00000000
N        0.84496934       8.22803884       2.92704605       0.00000000       0.00000000       0.00000000
N        8.10972640       0.86783406       2.89786907       0.00000000       0.00000000       0.00000000
H        4.46130900       4.53866018       4.58063166       0.00000000       0.00000000       0.00000000
H        5.90671181       5.99821538       3.45083050       0.00000000       0.00000000       0.00000000
H        5.40667213       5.48517111       1.89862847       0.00000000       0.00000000       0.00000000
H        3.56725341       3.62185666       1.92603894       0.00000000       0.00000000       0.00000000
H        3.03722213       3.09144845       3.49358926       0.00000000       0.00000000       0.00000000
H        0.00594038       9.05255235       4.59852403       0.00000000       0.00000000       0.00000000
H        1.43521778       7.62146607       3.48439184       0.00000000       0.00000000       0.00000000
H        0.94097049       8.14608904       1.92656637       0.00000000       0.00000000       0.00000000
H        8.03295310       0.96092861       1.89808661       0.00000000       0.00000000       0.00000000
H        7.50870813       1.46817892       3.46001574       0.00000000       0.00000000       0.00000000
Pb       8.92419617       4.52082467       6.11029573       0.00000000       0.00000000       0.00000000
Pb       4.40801534       0.04680225       6.12127002       0.00000000       0.00000000       0.00000000
I        8.94298331       4.60064292       2.95072737       0.00000000       0.00000000       0.00000000
I        4.51585982       9.05608432       3.01169289       0.00000000       0.00000000       0.00000000
I        1.88402679       1.96288071       6.21358260       0.00000000       0.00000000       0.00000000
I        2.52391807       6.51289984       6.15065436       0.00000000       0.00000000       0.00000000
I        6.36149890       2.56948824       6.12150109       0.00000000       0.00000000       0.00000000
I        6.97753134       7.07502084       6.10927949       0.00000000       0.00000000       0.00000000
24
Lattice="8.778912316060625 -0.06373119141763327 -0.04157929720186139 -0.06373119141763327 8.798371519321032 0.07433472406570744 -0.029397503997575108 0.052556331995492436 6.305432764102138" Properties=species:S:1:pos:R:3:momenta:R:3 config_id=t-FAPI3_strain_rattle_14 phase=t-FAPI3 mode=strain_rattle seed=1361156470 source=t-FAPI3/CONTCAR pbc="T T T"
C        4.34082020       4.39735049       3.61689394       0.00000000       0.00000000       0.00000000
C       -0.08051109       8.82837118       3.67484608       0.00000000       0.00000000       0.00000000
N        5.14849786       5.19908593       3.02444808       0.00000000       0.00000000       0.00000000
N        3.53865265       3.58564612       3.01840267       0.00000000       0.00000000       0.00000000
N        0.73896212       8.00491460       3.06867705       0.00000000       0.00000000       0.00000000
N        7.94820215       0.77980965       2.97417601       0.00000000       0.00000000       0.00000000
H        4.33573879       4.40639663       4.70385656       0.00000000       0.00000000       0.00000000
H        5.72844277       5.78766894       3.59117217       0.00000000       0.00000000       0.00000000
H        5.23770220       5.27536830       2.01609504       0.00000000       0.00000000       0.00000000
H        3.45886454       3.49255876       2.00941697       0.00000000       0.00000000       0.00000000
H        2.95345943       3.00648949       3.58075287       0.00000000       0.00000000       0.00000000
H       -0.08558191       8.83743444       4.76181102       0.00000000       0.00000000       0.00000000
H        1.32740874       7.41724034       3.62545035       0.00000000       0.00000000       0.00000000
H        0.82938948       7.91059532       2.05887377       0.00000000       0.00000000       0.00000000
H        7.86717541       0.85732176       1.96662355       0.00000000       0.00000000       0.00000000
H        7.35448577       1.37689975       3.54646209       0.00000000       0.00000000       0.00000000
Pb       8.69672608       4.41962152       6.27090008       0.00000000       0.00000000       0.00000000
Pb       4.30959451       8.79943287       6.34342451       0.00000000       0.00000000       0.00000000
I       -0.03942014       4.42216628       3.17603181       0.00000000       0.00000000       0.00000000
I        4.36746071      -0.00085091       3.07033126       0.00000000       0.00000000       0.00000000
I        1.87238100       1.98277639       6.27454657       0.00000000       0.00000000       0.00000000
I        2.39973224       6.35927197       6.27814653       0.00000000       0.00000000       0.00000000
I        6.25519767       2.45528869       6.23597323       0.00000000       0.00000000       0.00000000
I        6.77203425       6.89097025       6.27293262       0.00000000       0.00000000       0.00000000
24
Lattice="9.128055769165925 0.04425806016089335 0.020057747462096574 0.04425806016089335 9.097756060517556 0.03419531208597683 0.014181281331829223 0.02417685943236264 6.329468533530154" Properties=species:S:1:pos:R:3:momenta:R:3 config_id=t-FAPI3_strain_rattle_15 phase=t-FAPI3 mode=strain_rattle seed=3421711136 source=t-FAPI3/CONTCAR pbc="T T T"
C        4.59427172       4.58483307       3.64136764       0.00000000       0.00000000       0.00000000
C        0.05236253       9.11155026       3.64843161       0.00000000       0.00000000       0.00000000
N        5.44005296       5.42687212       3.04863733       0.00000000       0.00000000       0.00000000
N        3.74576744       3.73818328       3.03862095       0.00000000       0.00000000       0.00000000
N        0.88999306       8.27309671       3.04939268       0.00000000       0.00000000       0.00000000
N        8.29584156       0.89195079       3.03786807       0.00000000       0.00000000       0.00000000
H        4.59670192       4.58898637       4.73247364       0.00000000       0.00000000       0.00000000
H        6.05445713       6.04014567       3.61895042       0.00000000       0.00000000       0.00000000
H        5.52671837       5.51164415       2.03664777       0.00000000       0.00000000       0.00000000
H        3.65457636       3.64568635       2.02558189       0.00000000       0.00000000       0.00000000
H        3.13391915       3.12925510       3.60168614       0.00000000       0.00000000       0.00000000
H        0.05480398       9.11572139       4.73953993       0.00000000       0.00000000       0.00000000
H        1.49846100       7.67008800       3.61512105       0.00000000       0.00000000       0.00000000
H        0.97578700       8.18146187       2.03673106       0.00000000       0.00000000       0.00000000
H        8.20550557       0.97585837       2.02548389       0.00000000       0.00000000       0.00000000
H        7.68990697       1.49929377       3.60550290       0.00000000       0.00000000       0.00000000
Pb       9.14387620       4.60509808       0.05257214       0.00000000       0.00000000       0.00000000
Pb       4.53926125       0.04579181       0.01914925       0.00000000       0.00000000       0.00000000
I        0.09018759       4.51662255       3.09585353       0.00000000       0.00000000       0.00000000
I        4.56621111       9.10562789       3.16676885       0.00000000       0.00000000       0.00000000
I        2.01456238       1.98903003       6.27431809       0.00000000       0.00000000       0.00000000
I        2.59778234       6.61815587       6.30409827       0.00000000       0.00000000       0.00000000
I        6.52147339       2.64048309       6.31137956       0.00000000       0.00000000       0.00000000
I        7.14067044       7.17806604       6.34543708       0.00000000       0.00000000       0.00000000
24
Lattice="9.032197065249813 -0.05110974439019106 -0.055989142152151734 -0.05110974439019106 8.926665502953611 -0.024717923557644173 -0.039585590450167525 -0.01747613128403408 6.297724917461559" Properties=species:S:1:pos:R:3:momenta:R:3 config_id=t-FAPI3_strain_rattle_16 phase=t-FAPI3 mode=strain_rattle seed=2658944019 source=t-FAPI3/CONTCAR pbc="T T T"
C        4.46795622       4.42781872       3.55576113       0.00000000       0.00000000       0.00000000
C       -0.07370705       8.91667526       3.57139223       0.00000000       0.00000000       0.00000000
N        5.30115412       5.24918228       2.95356420       0.00000000       0.00000000       0.00000000
N        3.64219141       3.60971289       2.96847728       0.00000000       0.00000000       0.00000000
N        0.76895569       8.08914893       2.97376861       0.00000000       0.00000000       0.00000000
N        8.17440396       0.76973833       2.94827525       0.00000000       0.00000000       0.00000000
H        4.46111811       4.42479208       4.64139521       0.00000000       0.00000000       0.00000000
H        5.89796169       5.84091485       3.51201366       0.00000000       0.00000000       0.00000000
H        5.39456643       5.33803394       1.94534406       0.00000000       0.00000000       0.00000000
H        3.56145520       3.52646236       1.96182458       0.00000000       0.00000000       0.00000000
H        3.03831167       3.01486668       3.53772171       0.00000000       0.00000000       0.00000000
H       -0.08053422       8.91366599       4.65702842       0.00000000       0.00000000       0.00000000
H        1.37257711       7.48747268       3.53550971       0.00000000       0.00000000       0.00000000
H        0.86334594       8.00491138       1.96601890       0.00000000       0.00000000       0.00000000
H        8.09267377       0.85957495       1.94113518       0.00000000       0.00000000       0.00000000
H        7.56368834       1.36829038       3.51421331       0.00000000       0.00000000       0.00000000
Pb       8.96487426       4.39619810       6.20449210       0.00000000       0.00000000       0.00000000
Pb       4.41576117       8.87345683       6.22409416       0.00000000       0.00000000       0.00000000
I        8.98537250       4.42217600       3.02981879       0.00000000       0.00000000       0.00000000
I        4.44466201       8.89054931       3.04398404       0.00000000       0.00000000       0.00000000
I        1.90610535       1.91393758       6.21760207       0.00000000       0.00000000       0.00000000
I        2.44549576       6.39422262       6.22232391       0.00000000       0.00000000       0.00000000
I        6.41944903       2.43686188       6.19564155       0.00000000       0.00000000       0.00000000
I        6.99674720       6.90815589       6.19005889       0.00000000       0.00000000       0.00000000
24
Lattice="9.01363018567811 -0.00680300329790214 -0.04774693339888591 -0.00680300329790214 8.897482146004062 -0.06336658248289836 -0.03375816235303909 -0.044801607704189 6.449942612415857" Properties=species:S:1:pos:R:3:momenta:R:3 config_id=t-FAPI3_strain_rattle_17 phase=t-FAPI3 mode=strain_rattle seed=3439239723 source=t-FAPI3/CONTCAR pbc="T T T"
C        4.48415378       4.41977708       3.62747689       0.00000000       0.00000000       0.00000000
C       -0.02607281       8.87188865       3.61966257       0.00000000       0.00000000       0.00000000
N        5.31917859       5.24511795       3.00809663       0.00000000       0.00000000       0.00000000
N        3.65546129       3.60285498       3.02862643       0.00000000       0.00000000       0.00000000
N        0.81023267       8.05373031       3.01199482       0.00000000       0.00000000       0.00000000
N        8.16442126       0.79423479       3.02473074       0.00000000       0.00000000       0.00000000
H        4.47832020       4.41203992       4.73935108       0.00000000       0.00000000       0.00000000
H        5.91822851       5.83541497       3.57814181       0.00000000       0.00000000       0.00000000
H        5.41190826       5.33848745       1.97523164       0.00000000       0.00000000       0.00000000
H        3.57354333       3.52382904       1.99791854       0.00000000       0.00000000       0.00000000
H        3.05038273       3.00455135       3.61353177       0.00000000       0.00000000       0.00000000
H       -0.03189540       8.86416884       4.73153886       0.00000000       0.00000000       0.00000000
H        1.41017308       7.45452001       3.59049825       0.00000000       0.00000000       0.00000000
H        0.90308119       7.97457645       1.98034944       0.00000000       0.00000000       0.00000000
H        8.08236843       0.88773016       1.99278588       0.00000000       0.00000000       0.00000000
H        7.55843016       1.38542791       3.60116274       0.00000000       0.00000000       0.00000000
Pb       8.97601576       4.38613289       6.29785542       0.00000000       0.00000000       0.00000000
Pb       4.45979523       8.84282795       6.28438547       0.00000000       0.00000000       0.00000000
I        8.95644565       4.41608772       3.07007406       0.00000000       0.00000000       0.00000000
I        4.48273487       8.85708574       3.12547019       0.00000000       0.00000000       0.00000000
I        1.93940615       1.90165186       6.35280153       0.00000000       0.00000000       0.00000000
I        2.48610807       6.33244142       6.30649461       0.00000000       0.00000000       0.00000000
I        6.43917224       2.44294686       6.34102932       0.00000000       0.00000000       0.00000000
I        7.03048382       6.90619263       6.29740952       0.00000000       0.00000000       0.00000000
24
Lattice="9.067399726261623 0.0425737739501478 -0.0497703920048676 0.0425737739501478 8.825533561647623 0.0162128047821859 -0.0351887933752396 0.0114628198519641 6.351884457405832" Properties=species:S:1:pos:R:3:momenta:R:3 config_id=t-FAPI3_mixed_01 phase=t-FAPI3 mode=mixed seed=1915546367 source=t-FAPI3/CONTCAR pbc="T T T"
C        4.56344073       4.42948680       3.65889901       0.00000000       0.00000000       0.00000000
C        8.82814632       0.15074381       3.59613211       0.00000000       0.00000000       0.00000000
N        5.33337198       5.28087606       2.97148030       0.00000000       0.00000000       0.00000000
N        3.71837878       3.63495455       3.03245171       0.00000000       0.00000000       0.00000000
N        0.96470853       8.35728825       3.70582722       0.00000000       0.00000000       0.00000000
N        8.22845137       0.48893000       2.36545291       0.00000000       0.00000000       0.00000000
H        4.49134275       4.43252017       4.73964342       0.00000000       0.00000000       0.00000000
H        5.95680235       5.90222686       3.54631339       0.00000000       0.00000000       0.00000000
H        5.53965085       5.35945402       2.03458528       0.00000000       0.00000000       0.00000000
H        3.64332433       3.52726843       2.01123951       0.00000000       0.00000000       0.00000000
H        3.07825979       3.03827770       3.57690244       0.00000000       0.00000000       0.00000000
H        8.15787228       0.47735189       4.35050663       0.00000000       0.00000000       0.00000000
H        1.24211857       8.15304404       4.68255381       0.00000000       0.00000000       0.00000000
H        1.61979671       8.05808998       2.98503330       0.00000000       0.00000000       0.00000000
H        8.75856448       0.18195143       1.46473706       0.00000000       0.00000000       0.00000000
H        7.40625199       0.89768029       2.28903063       0.00000000       0.00000000       0.00000000
Pb      -0.00147619       4.41147949       6.30425583       0.00000000       0.00000000       0.00000000
Pb       4.60441423       8.83984112      -0.00237882       0.00000000       0.00000000       0.00000000
I        0.04809432       4.41974269       3.10441993       0.00000000       0.00000000       0.00000000
I        4.53861056       8.83401494       3.10948750       0.00000000       0.00000000       0.00000000
I        1.99460732       1.90222702       6.32654141       0.00000000       0.00000000       0.00000000
I        2.62305270       6.32844691       6.27915384       0.00000000       0.00000000       0.00000000
I        6.52892493       2.53159370       6.29349026       0.00000000       0.00000000       0.00000000
I        7.06006616       6.90314198       6.27609609       0.00000000       0.00000000       0.00000000
24
Lattice="9.074694974561776 0.0109089336466124 0.0040716008965043 0.0109089336466124 8.870891718945177 0.0300068774499557 0.0028787139679253 0.0212155413668303 6.405245059353489" Properties=species:S:1:pos:R:3:momenta:R:3 config_id=t-FAPI3_mixed_02 phase=t-FAPI3 mode=mixed seed=3947787327 source=t-FAPI3/CONTCAR pbc="T T T"
C        4.60239305       4.47836242       3.67717433       0.00000000       0.00000000       0.00000000
C        0.01986282       8.86216384       3.63673120       0.00000000       0.00000000       0.00000000
N        5.39976225       5.28172141       3.12177190       0.00000000       0.00000000       0.00000000
N        3.73553299       3.63759448       3.15032992       0.00000000       0.00000000       0.00000000
N        0.97430961       8.17261418       3.20715684       0.00000000       0.00000000       0.00000000
N        8.26257320       0.75653622       2.95034427       0.00000000       0.00000000       0.00000000
H        4.55821845       4.49817354       4.81964813       0.00000000       0.00000000       0.00000000
H        5.95929084       5.85342972       3.63692322       0.00000000       0.00000000       0.00000000
H        5.38494875       5.33401812       2.06990728       0.00000000       0.00000000       0.00000000
H        3.57152602       3.50154338       2.02823442       0.00000000       0.00000000       0.00000000
H        3.10995825       3.00339226       3.66962081       0.00000000       0.00000000       0.00000000
H        8.92727946       0.05191058       4.75899044       0.00000000       0.00000000       0.00000000
H        1.58296970       7.68492579       3.83406498       0.00000000       0.00000000       0.00000000
H        1.13394436       7.98949175       2.16626935       0.00000000       0.00000000       0.00000000
H        8.19429203       0.84440529       1.89310328       0.00000000       0.00000000       0.00000000
H        7.48384484       1.25124902       3.44598754       0.00000000       0.00000000       0.00000000
Pb       0.04208219       4.49811871       6.37925833       0.00000000       0.00000000       0.00000000
Pb       4.52384667       8.88638909       6.35378428       0.00000000       0.00000000       0.00000000
I        0.05513591       4.49660341       3.18146184       0.00000000       0.00000000       0.00000000
I        4.53498262       8.84547788       3.19291467       0.00000000       0.00000000       0.00000000
I        1.96943064       1.95407519       6.32022053       0.00000000       0.00000000       0.00000000
I        2.56669602       6.46425440       6.32089739       0.00000000       0.00000000       0.00000000
I        6.49739541       2.51162617       6.31332212       0.00000000       0.00000000       0.00000000
I        7.13949500       6.94195214       6.35608690       0.00000000       0.00000000       0.00000000
24
Lattice="8.82704809999213 0.0589334639696083 -0.0545063127129506 0.0589334639696083 9.083584163490022 -0.032513768915676 -0.0385371964824916 -0.0229879703602116 6.385073357099373" Properties=species:S:1:pos:R:3:momenta:R:3 config_id=t-FAPI3_mixed_03 phase=t-FAPI3 mode=mixed seed=3250864131 source=t-FAPI3/CONTCAR pbc="T T T"
C        4.46285595       4.62022538       3.60899777       0.00000000       0.00000000       0.00000000
C        8.68146124       0.06619463       3.55257069       0.00000000       0.00000000       0.00000000
N        5.20642755       5.44071877       3.03552546       0.00000000       0.00000000       0.00000000
N        3.63270963       3.65053270       2.89500083       0.00000000       0.00000000       0.00000000
N        1.15585309       8.84178865       3.49435947       0.00000000       0.00000000       0.00000000
N        7.83534999       0.24229456       2.51310422       0.00000000       0.00000000       0.00000000
H        4.44251248       4.53019679       4.61399963       0.00000000       0.00000000       0.00000000
H        5.78566843       6.05263467       3.59309221       0.00000000       0.00000000       0.00000000
H        5.33581591       5.59348843       1.99974466       0.00000000       0.00000000       0.00000000
H        3.54887695       3.53351215       2.02270233       0.00000000       0.00000000       0.00000000
H        3.02464612       3.06463084       3.57897612       0.00000000       0.00000000       0.00000000
H        8.19146621       0.09911458       4.61538608       0.00000000       0.00000000       0.00000000
H        1.72664479       8.65709327       4.23856489       0.00000000       0.00000000       0.00000000
H        1.58657457       8.70678951       2.55268421       0.00000000       0.00000000       0.00000000
H        8.09696548       0.24321254       1.51687980       0.00000000       0.00000000       0.00000000
H        6.84846246       0.47946396       2.81957690       0.00000000       0.00000000       0.00000000
Pb       8.80833917       4.61286699       6.25955266       0.00000000       0.00000000       0.00000000
Pb       4.46549625       9.00626435       6.12272750       0.00000000       0.00000000       0.00000000
I        0.03694024       4.49344049       3.08827622       0.00000000       0.00000000       0.00000000
I        4.49476810       0.03058166       3.02143304       0.00000000       0.00000000       0.00000000
I        1.91285692       2.05993926       6.26244571       0.00000000       0.00000000       0.00000000
I        2.45419846       6.58293499       6.31531765       0.00000000       0.00000000       0.00000000
I        6.25560517       2.56566805       6.29146115       0.00000000       0.00000000       0.00000000
I        6.93260314       7.10026905       6.30620673       0.00000000       0.00000000       0.00000000
24
Lattice="9.0503235000406 0.0635051514474233 -0.0554700378553427 0.0635051514474233 8.912376294795099 0.0177794268754711 -0.0392185719657878 0.012570457122177 6.332960212621968" Properties=species:S:1:pos:R:3:momenta:R:3 config_id=t-FAPI3_mixed_04 phase=t-FAPI3 mode=mixed seed=743749397 source=t-FAPI3/CONTCAR pbc="T T T"
C        4.64927955       4.64749529       3.57855293       0.00000000       0.00000000       0.00000000
C        9.00633765       0.09045737       3.56802816       0.00000000       0.00000000       0.00000000
N        5.31884630       5.14673823       2.58879943       0.00000000       0.00000000       0.00000000
N        3.68026839       3.77260876       3.49049371       0.00000000       0.00000000       0.00000000
N        0.84708395       8.12870618       3.02253885       0.00000000       0.00000000       0.00000000
N        8.18164778       0.87896187       3.00397779       0.00000000       0.00000000       0.00000000
H        4.93237773       4.91800771       4.59508416       0.00000000       0.00000000       0.00000000
H        6.11767587       5.81943001       2.77219755       0.00000000       0.00000000       0.00000000
H        5.13999016       4.97882738       1.59733467       0.00000000       0.00000000       0.00000000
H        3.29039386       3.32806880       2.56674484       0.00000000       0.00000000       0.00000000
H        3.24407059       3.35862640       4.32885732       0.00000000       0.00000000       0.00000000
H        9.01182765       0.07930593       4.63857147       0.00000000       0.00000000       0.00000000
H        1.46806586       7.50789304       3.64052030       0.00000000       0.00000000       0.00000000
H        0.95138474       7.99587367       2.01097416       0.00000000       0.00000000       0.00000000
H        8.12529146       0.94976530       1.95777758       0.00000000       0.00000000       0.00000000
H        7.64801010       1.49024810       3.53955526       0.00000000       0.00000000       0.00000000
Pb      -0.00360085       4.44912721       6.29503907       0.00000000       0.00000000       0.00000000
Pb       4.50670326       8.93846660       6.25605646       0.00000000       0.00000000       0.00000000
I        9.05675027       4.54414305       3.11796171       0.00000000       0.00000000       0.00000000
I        4.58848301       8.94106692       3.10977972       0.00000000       0.00000000       0.00000000
I        1.96876031       1.95188797       6.26397520       0.00000000       0.00000000       0.00000000
I        2.53628470       6.42056927       6.28368421       0.00000000       0.00000000       0.00000000
I        6.48775336       2.56030120       6.25587998       0.00000000       0.00000000       0.00000000
I        7.10304338       7.00154678       6.26454549       0.00000000       0.00000000       0.00000000
24
Lattice="8.975861846469728 -0.0456095010936282 -0.0253746143354099 -0.0456095010936282 8.853057200791609 -0.0496773243902723 -0.0179404265238217 -0.035122992465743 6.261664495580412" Properties=species:S:1:pos:R:3:momenta:R:3 config_id=t-FAPI3_mixed_05 phase=t-FAPI3 mode=mixed seed=3469388101 source=t-FAPI3/CONTCAR pbc="T T T"
C        4.52504850       4.18767528       3.46004568       0.00000000       0.00000000       0.00000000
C        8.96412262      -0.06027445       3.59031829       0.00000000       0.00000000       0.00000000
N        5.26473241       5.26605652       3.14508580       0.00000000       0.00000000       0.00000000
N        3.62934133       3.65841142       2.82258872       0.00000000       0.00000000       0.00000000
N        0.83364299       8.00005146       2.95175036       0.00000000       0.00000000       0.00000000
N        8.13674006       0.74578934       2.96838770       0.00000000       0.00000000       0.00000000
H        4.87912988       3.73856020       4.35084498       0.00000000       0.00000000       0.00000000
H        5.88213453       5.59894068       3.68465731       0.00000000       0.00000000       0.00000000
H        5.09978225       5.84457840       2.27771155       0.00000000       0.00000000       0.00000000
H        3.25570797       4.04854824       1.88227684       0.00000000       0.00000000       0.00000000
H        3.16285965       2.75706033       3.10177666       0.00000000       0.00000000       0.00000000
H        8.87427305       8.65970351       4.51443038       0.00000000       0.00000000       0.00000000
H        1.41708051       7.45286292       3.53147054       0.00000000       0.00000000       0.00000000
H        0.88464953       7.95623206       1.96130144       0.00000000       0.00000000       0.00000000
H        8.06979373       0.87148233       1.95314384       0.00000000       0.00000000       0.00000000
H        7.50391123       1.33515699       3.52660961       0.00000000       0.00000000       0.00000000
Pb       8.91740524       4.32612433       6.17725326       0.00000000       0.00000000       0.00000000
Pb       4.41962258       0.00821949       6.12939711       0.00000000       0.00000000       0.00000000
I        8.92896099       4.37570564       2.98715695       0.00000000       0.00000000       0.00000000
I        4.45470188      -0.00180788       2.95190540       0.00000000       0.00000000       0.00000000
I        1.96122844       1.86213378       6.18448587       0.00000000       0.00000000       0.00000000
I        2.42337529       6.29923363       6.21318094       0.00000000       0.00000000       0.00000000
I        6.46557206       2.42103194       6.13034016       0.00000000       0.00000000       0.00000000
I        6.89118805       6.80678100       6.08609367       0.00000000       0.00000000       0.00000000
24
Lattice="8.836354597269436 0.0074455542992768 0.0020857393640542 0.0074455542992768 8.942458412761226 0.0558913242764254 0.0014746649274759 0.0395164309985602 6.243654748249236" Properties=species:S:1:pos:R:3:momenta:R:3 config_id=t-FAPI3_mixed_06 phase=t-FAPI3 mode=mixed seed=312317121 source=t-FAPI3/CONTCAR pbc="T T T"
C        4.22803606       4.50886162       3.53169650       0.00000000       0.00000000       0.00000000
C        8.81553203       0.03321798       3.57485328       0.00000000       0.00000000       0.00000000
N        5.02902577       5.50207527       3.28688190       0.00000000       0.00000000       0.00000000
N        3.98415707       3.49225602       2.71807859       0.00000000       0.00000000       0.00000000
N        0.82670132       8.12288016       3.03681227       0.00000000       0.00000000       0.00000000
N        8.00314943       0.83441518       3.00583870       0.00000000       0.00000000       0.00000000
H        3.65704654       4.49187576       4.46595319       0.00000000       0.00000000       0.00000000
H        5.10906069       6.22499388       4.02661604       0.00000000       0.00000000       0.00000000
H        5.57134154       5.63714082       2.47996676       0.00000000       0.00000000       0.00000000
H        4.43945325       3.39805236       1.83027379       0.00000000       0.00000000       0.00000000
H        3.37419827       2.76037495       3.01995666       0.00000000       0.00000000       0.00000000
H        8.82531675       8.97828662       4.72194483       0.00000000       0.00000000       0.00000000
H        1.41451495       7.55692823       3.59721110       0.00000000       0.00000000       0.00000000
H        0.89291660       8.04196103       2.02280973       0.00000000       0.00000000       0.00000000
H        7.92071574       0.94731966       2.00267911       0.00000000       0.00000000       0.00000000
H        7.45732732       1.44470528       3.55287295       0.00000000       0.00000000       0.00000000
Pb       8.83596210       4.48899662       6.20944672       0.00000000       0.00000000       0.00000000
Pb       4.44223951       0.06055012       6.20778310       0.00000000       0.00000000       0.00000000
I        0.00911428       4.49014741       3.12298444       0.00000000       0.00000000       0.00000000
I        4.40941727       0.03407192       3.11084315       0.00000000       0.00000000       0.00000000
I        1.93231261       1.98141303       6.19164232       0.00000000       0.00000000       0.00000000
I        2.50189689       6.48230804       6.21721277       0.00000000       0.00000000       0.00000000
I        6.36192823       2.58057773       6.22571833       0.00000000       0.00000000       0.00000000
I        6.89442711       7.01630568       6.22924001       0.00000000       0.00000000       0.00000000
24
Lattice="8.851117808309846 0.0301428350902172 -0.0234125077519529 0.0301428350902172 8.837577446623946 -0.0411120047412861 -0.0165531727698486 -0.0290671176538352 6.239034562882738" Properties=species:S:1:pos:R:3:momenta:R:3 config_id=t-FAPI3_mixed_07 phase=t-FAPI3 mode=mixed seed=3191567480 source=t-FAPI3/CONTCAR pbc="T T T"
C        4.59527140       4.42291912       3.57650151       0.00000000       0.00000000       0.00000000
C        8.73711371       0.17962849       3.54431770       0.00000000       0.00000000       0.00000000
N        4.81527073       5.50184652       2.86676251       0.00000000       0.00000000       0.00000000
N        3.98390101       3.32966566       3.00432767       0.00000000       0.00000000       0.00000000
N        0.82292506       8.03525273       3.50537269       0.00000000       0.00000000       0.00000000
N        8.13444056       0.64956336       2.42303505       0.00000000       0.00000000       0.00000000
H        4.72145976       4.42968659       4.56331693       0.00000000       0.00000000       0.00000000
H        5.17240127       6.36077394       3.41294244       0.00000000       0.00000000       0.00000000
H        4.64948666       5.59981098       1.87002552       0.00000000       0.00000000       0.00000000
H        3.79884796       3.25530206       2.06659222       0.00000000       0.00000000       0.00000000
H        3.89364071       2.50119330       3.61792975       0.00000000       0.00000000       0.00000000
H        8.37676630       0.56602621       4.44844981       0.00000000       0.00000000       0.00000000
H        1.23085922       7.82374464       4.43047619       0.00000000       0.00000000       0.00000000
H        1.16606292       7.65412121       2.73271479       0.00000000       0.00000000       0.00000000
H        8.38261100       0.29428528       1.45600016       0.00000000       0.00000000       0.00000000
H        7.47101646       1.37361684       2.51318802       0.00000000       0.00000000       0.00000000
Pb       0.03819139       4.37294492       6.15957033       0.00000000       0.00000000       0.00000000
Pb       4.48355389       8.82187634       6.17629650       0.00000000       0.00000000       0.00000000
I        8.84996983       4.39137948       3.01503376       0.00000000       0.00000000       0.00000000
I        4.45802567       8.83596265       3.05730348       0.00000000       0.00000000       0.00000000
I        1.92300690       1.85881867       6.16580692       0.00000000       0.00000000       0.00000000
I        2.51687584       6.30864054       6.18346587       0.00000000       0.00000000       0.00000000
I        6.34840024       2.49117801       6.13680473       0.00000000       0.00000000       0.00000000
I        6.91772002       6.95227604       6.12349730       0.00000000       0.00000000       0.00000000
24
Lattice="8.841273334754415 -0.03633983481645045 0.018204937772931723 -0.03633983481645045 8.86189995264955 -0.05975413586389772 0.012871302955342109 -0.04224752620041736 6.252433444152926" Properties=species:S:1:pos:R:3:momenta:R:3 config_id=t-FAPI3_mixed_08 phase=t-FAPI3 mode=mixed seed=563541034 source=t-FAPI3/CONTCAR pbc="T T T"
C        4.37439042       4.15581335       3.53577635       0.00000000       0.00000000       0.00000000
C       -0.01122574       8.82993076       3.55025800       0.00000000       0.00000000       0.00000000
N        5.03463984       5.39660060       3.35363457       0.00000000       0.00000000       0.00000000
N        3.79718904       3.62108270       2.57859376       0.00000000       0.00000000       0.00000000
N        0.81556901       8.06064925       2.94492288       0.00000000       0.00000000       0.00000000
N        8.05829229       0.74421710       3.01782862       0.00000000       0.00000000       0.00000000
H        4.27796367       3.80326767       4.45759981       0.00000000       0.00000000       0.00000000
H        5.38195649       5.74320844       4.23477849       0.00000000       0.00000000       0.00000000
H        5.10795945       5.87852244       2.48652215       0.00000000       0.00000000       0.00000000
H        3.80936149       3.84150653       1.64292410       0.00000000       0.00000000       0.00000000
H        3.45987495       2.76563401       2.79948685       0.00000000       0.00000000       0.00000000
H        8.80005691       8.74248454       4.68808251       0.00000000       0.00000000       0.00000000
H        1.43608013       7.45901486       3.50002102       0.00000000       0.00000000       0.00000000
H        0.81793109       7.95347234       1.90699555       0.00000000       0.00000000       0.00000000
H        7.86569920       0.90249921       2.00868125       0.00000000       0.00000000       0.00000000
H        7.44620162       1.33122762       3.57706309       0.00000000       0.00000000       0.00000000
Pb       0.00690380       4.42372184       6.17907667       0.00000000       0.00000000       0.00000000
Pb       4.42409643       8.72960435       6.16017339       0.00000000       0.00000000       0.00000000
I        0.06033199       4.42803841       3.04558721       0.00000000       0.00000000       0.00000000
I        4.38702713       8.79377486       3.04373091       0.00000000       0.00000000       0.00000000
I        1.92771389       1.86899819       6.14099683       0.00000000       0.00000000       0.00000000
I        2.51296742       6.27879651       6.08023717       0.00000000       0.00000000       0.00000000
I        6.36864806       2.41244611       6.22875393       0.00000000       0.00000000       0.00000000
I        6.94154049       6.91049756       6.13496908       0.00000000       0.00000000       0.00000000
24
Lattice="9.051597666504597 -0.011660944290642726 0.05919829308865516 -0.011660944290642726 8.963340422700972 0.0034770675920049376 0.04185453278044957 0.002458365468265491 6.415688324708899" Properties=species:S:1:pos:R:3:momenta:R:3 config_id=t-FAPI3_mixed_09 phase=t-FAPI3 mode=mixed seed=3374372360 source=t-FAPI3/CONTCAR pbc="T T T"
C        4.57546632       4.28099731       3.67957264       0.00000000       0.00000000       0.00000000
C        9.01712956       8.78440240       3.69463349       0.00000000       0.00000000       0.00000000
N        5.61150523       5.00206138       3.14645846       0.00000000       0.00000000       0.00000000
N        3.46327967       4.13701619       3.02814229       0.00000000       0.00000000       0.00000000
N        0.27771176       8.00356868       2.67519889       0.00000000       0.00000000       0.00000000
N        8.82643933       1.14254178       3.55934325       0.00000000       0.00000000       0.00000000
H        4.69653014       3.83513218       4.71096547       0.00000000       0.00000000       0.00000000
H        6.37560486       5.08649181       3.78788785       0.00000000       0.00000000       0.00000000
H        5.58791399       5.54299727       2.29793558       0.00000000       0.00000000       0.00000000
H        3.14965808       4.42676951       2.08153359       0.00000000       0.00000000       0.00000000
H        2.74794110       3.49411506       3.42155581       0.00000000       0.00000000       0.00000000
H        8.88984295       8.31820007       4.70826175       0.00000000       0.00000000       0.00000000
H        0.42401430       6.98286026       2.80778659       0.00000000       0.00000000       0.00000000
H        0.43210288       8.29747880       1.65298759       0.00000000       0.00000000       0.00000000
H        8.87953134       1.62543861       2.71609505       0.00000000       0.00000000       0.00000000
H        8.60277182       1.61373645       4.43870925       0.00000000       0.00000000       0.00000000
Pb       0.04372614       4.50750354       6.39695212       0.00000000       0.00000000       0.00000000
Pb       4.52268662       8.92186706       6.38920800       0.00000000       0.00000000       0.00000000
I        9.03965527       4.47058807       3.22358472       0.00000000       0.00000000       0.00000000
I        4.54920498      -0.00241344       3.18270351       0.00000000       0.00000000       0.00000000
I        2.03506920       1.98190080       6.39151565       0.00000000       0.00000000       0.00000000
I        2.61913213       6.46583270       6.38827436       0.00000000       0.00000000       0.00000000
I        6.50283666       2.53475881       6.40353335       0.00000000       0.00000000       0.00000000
I        7.10065801       6.97704625       6.31944416       0.00000000       0.00000000       0.00000000
24
Lattice="8.929361125083933 -0.016105164217719056 -0.014964790728944551 -0.016105164217719056 8.943839282487117 0.011901723746751311 -0.010580445675674576 0.008414788006746133 6.3039877359730445" Properties=species:S:1:pos:R:3:momenta:R:3 config_id=t-FAPI3_mixed_10 phase=t-FAPI3 mode=mixed seed=317851060 source=t-FAPI3/CONTCAR pbc="T T T"
C        4.49907666       4.44456801       3.60343118       0.00000000       0.00000000       0.00000000
C        8.77891145       0.09464629       3.55588834       0.00000000       0.00000000       0.00000000
N        5.02938798       5.47900123       3.02572164       0.00000000       0.00000000       0.00000000
N        3.91072405       3.42751679       2.95787543       0.00000000       0.00000000       0.00000000
N        1.09255781       8.57958116       3.42536285       0.00000000       0.00000000       0.00000000
N        7.97115645       0.28714937       2.66140660       0.00000000       0.00000000       0.00000000
H        4.50041908       4.39597209       4.67352550       0.00000000       0.00000000       0.00000000
H        5.44256496       6.24269502       3.58244579       0.00000000       0.00000000       0.00000000
H        4.98791601       5.65250266       2.05838826       0.00000000       0.00000000       0.00000000
H        3.78831324       3.34349436       1.98561913       0.00000000       0.00000000       0.00000000
H        3.53177199       2.67188765       3.52388546       0.00000000       0.00000000       0.00000000
H        8.38678694       0.15781841       4.53897707       0.00000000       0.00000000       0.00000000
H        1.63479442       8.45425552       4.25329766       0.00000000       0.00000000       0.00000000
H        1.55924240       8.44572089       2.50815847       0.00000000       0.00000000       0.00000000
H        8.11852353       0.17988538       1.64163927       0.00000000       0.00000000       0.00000000
H        6.92910208       0.49894765       2.78623275       0.00000000       0.00000000       0.00000000
Pb       8.88821886       4.51926100       6.21312638       0.00000000       0.00000000       0.00000000
Pb       4.42330464       8.91271242       6.28303323       0.00000000       0.00000000       0.00000000
I        8.91269736       4.45638872       3.12175093       0.00000000       0.00000000       0.00000000
I        4.51003906       0.04451180       3.12834755       0.00000000       0.00000000       0.00000000
I        1.97056411       1.94849276       6.28055745       0.00000000       0.00000000       0.00000000
I        2.47926945       6.46981965       6.24628140       0.00000000       0.00000000       0.00000000
I        6.38669572       2.50050511       6.25646517       0.00000000       0.00000000       0.00000000
I        6.94603785       6.97094319       6.23994224       0.00000000       0.00000000       0.00000000
24
Lattice="8.821082861165491 -0.06073259604403 0.011585255726172031 -0.06073259604403 8.905758850351955 0.062245714242870204 0.008191037955009627 0.04400912849495629 6.323664076718602" Properties=species:S:1:pos:R:3:momenta:R:3 config_id=t-FAPI3_mixed_11 phase=t-FAPI3 mode=mixed seed=2227301912 source=t-FAPI3/CONTCAR pbc="T T T"
C        4.43797095       4.43059893       3.64072267       0.00000000       0.00000000       0.00000000
C        0.08143150       0.09547265       3.58925075       0.00000000       0.00000000       0.00000000
N        5.16164102       5.27939274       3.00963633       0.00000000       0.00000000       0.00000000
N        3.55068143       3.63709811       3.10203713       0.00000000       0.00000000       0.00000000
N        0.68861463       8.02700095       3.03410453       0.00000000       0.00000000       0.00000000
N        8.03488152       0.82440247       3.07371602       0.00000000       0.00000000       0.00000000
H        4.52342772       4.37477480       4.76346159       0.00000000       0.00000000       0.00000000
H        5.83684465       5.83727871       3.55888144       0.00000000       0.00000000       0.00000000
H        5.15944192       5.40339370       2.00244941       0.00000000       0.00000000       0.00000000
H        3.37087578       3.58386852       2.06891419       0.00000000       0.00000000       0.00000000
H        3.05123904       3.00903513       3.68469905       0.00000000       0.00000000       0.00000000
H        0.30684269       0.27459128       4.63911927       0.00000000       0.00000000       0.00000000
H        1.35131786       7.47631620       3.59417846       0.00000000       0.00000000       0.00000000
H        0.54901657       7.76578750       2.08113181       0.00000000       0.00000000       0.00000000
H        7.74760768       0.72504533       2.10851141       0.00000000       0.00000000       0.00000000
H        7.57612106       1.52626525       3.60356797       0.00000000       0.00000000       0.00000000
Pb       8.79029693       4.40953117       6.31913128       0.00000000       0.00000000       0.00000000
Pb       4.41003854       0.04765070       6.26351507       0.00000000       0.00000000       0.00000000
I        8.78986238       4.41024255       3.13977625       0.00000000       0.00000000       0.00000000
I        4.33126200       8.86495317       3.20946613       0.00000000       0.00000000       0.00000000
I        1.92272768       1.98999932       6.28314917       0.00000000       0.00000000       0.00000000
I        2.45611529       6.43090823       6.30779711       0.00000000       0.00000000       0.00000000
I        6.33304970       2.51113937       6.28446754       0.00000000       0.00000000       0.00000000
I        6.86077585       6.94739759       6.35930449       0.00000000       0.00000000       0.00000000
24
Lattice="8.854682240501704 -0.05322532006754105 0.03780507937337967 -0.05322532006754105 8.925428851675699 -0.01584304615205178 0.026729046588065467 -0.011201392133387455 6.368083294787304" Properties=species:S:1:pos:R:3:momenta:R:3 config_id=t-FAPI3_mixed_12 phase=t-FAPI3 mode=mixed seed=1826210991 source=t-FAPI3/CONTCAR pbc="T T T"
C        4.42123695       4.40789993       3.60952542       0.00000000       0.00000000       0.00000000
C        8.76417582       8.74818103       3.62354497       0.00000000       0.00000000       0.00000000
N        5.24447148       5.21638728       3.03236695       0.00000000       0.00000000       0.00000000
N        3.60607088       3.61624218       3.04056745       0.00000000       0.00000000       0.00000000
N        0.57967656       8.01054220       2.83504968       0.00000000       0.00000000       0.00000000
N        8.22935483       0.89445106       3.27956181       0.00000000       0.00000000       0.00000000
H        4.47129543       4.46077451       4.79228981       0.00000000       0.00000000       0.00000000
H        5.82725060       5.83755022       3.61905551       0.00000000       0.00000000       0.00000000
H        5.30708204       5.33655043       2.04259837       0.00000000       0.00000000       0.00000000
H        3.50237544       3.50347754       2.01263123       0.00000000       0.00000000       0.00000000
H        3.02237746       3.01288797       3.61237864       0.00000000       0.00000000       0.00000000
H        8.70532253       8.43731566       4.68188107       0.00000000       0.00000000       0.00000000
H        1.03732584       7.16132576       3.21616744       0.00000000       0.00000000       0.00000000
H        0.78468642       8.17731532       1.79169456       0.00000000       0.00000000       0.00000000
H        8.27354782       1.31043263       2.33593891       0.00000000       0.00000000       0.00000000
H        7.72177505       1.43460616       3.98481765       0.00000000       0.00000000       0.00000000
Pb       0.01385054       4.42461346       6.28523788       0.00000000       0.00000000       0.00000000
Pb       4.41276137       8.81846578       6.35611229       0.00000000       0.00000000       0.00000000
I        8.81955181       4.42157976       3.14857158       0.00000000       0.00000000       0.00000000
I        4.42746448      -0.03094896       3.16938726       0.00000000       0.00000000       0.00000000
I        1.94214243       1.90846866       6.31801228       0.00000000       0.00000000       0.00000000
I        2.50813981       6.40317029       6.33380381       0.00000000       0.00000000       0.00000000
I        6.38093363       2.47062066       6.34941420       0.00000000       0.00000000       0.00000000
I        6.87773798       6.94686388       6.33266158       0.00000000       0.00000000       0.00000000
24
Lattice="8.959131166405006 0.055368115603047545 -0.01783931531695344 0.055368115603047545 8.855525143136365 0.023174116729487496 -0.012612799605488863 0.016384624922541564 6.327796147280572" Properties=species:S:1:pos:R:3:momenta:R:3 config_id=t-FAPI3_mixed_13 phase=t-FAPI3 mode=mixed seed=3935123146 source=t-FAPI3/CONTCAR pbc="T T T"
C        4.65119911       4.69791287       3.51709352       0.00000000       0.00000000       0.00000000
C        0.14447658       8.75990824       3.62752521       0.00000000       0.00000000       0.00000000
N        5.30603003       4.85208032       2.36370186       0.00000000       0.00000000       0.00000000
N        3.62467074       3.86628037       3.70612954       0.00000000       0.00000000       0.00000000
N        0.77848696       8.07588509       2.81685601       0.00000000       0.00000000       0.00000000
N        8.09555549       0.82670992       3.31322751       0.00000000       0.00000000       0.00000000
H        4.97388019       5.33008075       4.39935526       0.00000000       0.00000000       0.00000000
H        6.03124246       5.50581692       2.27963089       0.00000000       0.00000000       0.00000000
H        5.04347657       4.33421977       1.55636752       0.00000000       0.00000000       0.00000000
H        3.22031821       3.21282968       3.03475322       0.00000000       0.00000000       0.00000000
H        3.13354079       3.85613095       4.65216312       0.00000000       0.00000000       0.00000000
H        0.40908305       8.70916768       4.63100780       0.00000000       0.00000000       0.00000000
H        1.53737465       7.40481571       3.14786158       0.00000000       0.00000000       0.00000000
H        0.65656824       8.10783769       1.77566887       0.00000000       0.00000000       0.00000000
H        7.80483910       1.04397958       2.38130008       0.00000000       0.00000000       0.00000000
H        7.68501397       1.38527073       3.99034838       0.00000000       0.00000000       0.00000000
Pb       8.93920503       4.44915331       6.27807952       0.00000000       0.00000000       0.00000000
Pb       4.53670453       8.82515423       0.03976565       0.00000000       0.00000000       0.00000000
I        8.92164800       4.49931600       3.05902817       0.00000000       0.00000000       0.00000000
I        4.53369041       8.83979330       3.16440534       0.00000000       0.00000000       0.00000000
I        1.99162825       1.96988089       6.25175276       0.00000000       0.00000000       0.00000000
I        2.50252925       6.42747926       6.25552585       0.00000000       0.00000000       0.00000000
I        6.44678547       2.52808669       6.26300838       0.00000000       0.00000000       0.00000000
I        7.00318866       6.96163112       6.29968077       0.00000000       0.00000000       0.00000000
24
Lattice="8.87415206162864 0.016457101136607342 0.04140319468921068 0.016457101136607342 8.834579148879136 0.006089620139100217 0.029272995536200712 0.004305499237127516 6.397862192107669" Properties=species:S:1:pos:R:3:momenta:R:3 config_id=t-FAPI3_mixed_14 phase=t-FAPI3 mode=mixed seed=2532100801 source=t-FAPI3/CONTCAR pbc="T T T"
C        4.44722256       4.40974975       3.68708213       0.00000000       0.00000000       0.00000000
C        0.04031000       8.77572501       3.65964384       0.00000000       0.00000000       0.00000000
N        5.28706445       5.26488099       3.05889701       0.00000000       0.00000000       0.00000000
N        3.64070449       3.59572246       3.06494154       0.00000000       0.00000000       0.00000000
N        0.98677361       8.23853974       2.95414803       0.00000000       0.00000000       0.00000000
N        7.90068146       0.69958932       3.20511897       0.00000000       0.00000000       0.00000000
H        4.49668999       4.42423826       4.78350798       0.00000000       0.00000000       0.00000000
H        5.88216973       5.82658723       3.63581939       0.00000000       0.00000000       0.00000000
H        5.33435733       5.32430211       2.03591683       0.00000000       0.00000000       0.00000000
H        3.54006756       3.52423072       2.03248831       0.00000000       0.00000000       0.00000000
H        3.04295454       3.03178604       3.65447837       0.00000000       0.00000000       0.00000000
H        8.88830496       8.56594645       4.80304251       0.00000000       0.00000000       0.00000000
H        1.66453071       7.65451008       3.45108018       0.00000000       0.00000000       0.00000000
H        1.10878531       8.38943030       1.94316535       0.00000000       0.00000000       0.00000000
H        7.83297038       0.94271062       2.20845076       0.00000000       0.00000000       0.00000000
H        7.24568700       1.03131236       3.84849582       0.00000000       0.00000000       0.00000000
Pb       0.04488890       4.42542753       6.34876744       0.00000000       0.00000000       0.00000000
Pb       4.47615846       0.01747439       6.39055728       0.00000000       0.00000000       0.00000000
I        0.02849442       4.43166180       3.16335481       0.00000000       0.00000000       0.00000000
I        4.43463728       0.02281366       3.17244987       0.00000000       0.00000000       0.00000000
I        1.98209992       1.94174216       6.35834175       0.00000000       0.00000000       0.00000000
I        2.51582241       6.37265630       6.36565119       0.00000000       0.00000000       0.00000000
I        6.40349536       2.49512301       6.35942572       0.00000000       0.00000000       0.00000000
I        6.97428437       6.92674234       6.36455914       0.00000000       0.00000000       0.00000000
24
Lattice="8.859474350883426 -0.005516591735971612 0.020761533517558457 -0.005516591735971612 8.940796272723787 0.06525739199096249 0.014678873998642072 0.04613845281251565 6.398718106749322" Properties=species:S:1:pos:R:3:momenta:R:3 config_id=t-FAPI3_mixed_15 phase=t-FAPI3 mode=mixed seed=2570233932 source=t-FAPI3/CONTCAR pbc="T T T"
C        4.54220921       4.75273528       3.62027192       0.00000000       0.00000000       0.00000000
C        8.76462658       8.92662759       3.72012305       0.00000000       0.00000000       0.00000000
N        4.83531954       5.30238545       2.48986693       0.00000000       0.00000000       0.00000000
N        4.00799618       3.62274099       3.68977330       0.00000000       0.00000000       0.00000000
N        0.84511120       8.23935117       3.07168519       0.00000000       0.00000000       0.00000000
N        7.95463406       0.87160847       3.09394525       0.00000000       0.00000000       0.00000000
H        4.63879903       5.30830622       4.49130279       0.00000000       0.00000000       0.00000000
H        5.22174530       6.25710169       2.56466440       0.00000000       0.00000000       0.00000000
H        4.74937094       4.79912794       1.55775553       0.00000000       0.00000000       0.00000000
H        3.72734864       2.82134396       2.96701133       0.00000000       0.00000000       0.00000000
H        3.74973576       3.16708010       4.71259725       0.00000000       0.00000000       0.00000000
H        8.83350532       8.88658584       4.80669878       0.00000000       0.00000000       0.00000000
H        1.40902749       7.55008818       3.70515592       0.00000000       0.00000000       0.00000000
H        0.90300121       8.08625191       2.11938549       0.00000000       0.00000000       0.00000000
H        7.95318701       0.88106758       2.04899433       0.00000000       0.00000000       0.00000000
H        7.46536426       1.45752888       3.63716277       0.00000000       0.00000000       0.00000000
Pb       8.78711912       4.52792282       6.39709052       0.00000000       0.00000000       0.00000000
Pb       4.57079485       8.96306319       6.40566119       0.00000000       0.00000000       0.00000000
I        0.00985789       4.46324243       3.14674735       0.00000000       0.00000000       0.00000000
I        4.44856154       0.03670620       3.14876994       0.00000000       0.00000000       0.00000000
I        1.95468179       2.00677954       6.30432734       0.00000000       0.00000000       0.00000000
I        2.45294966       6.47205652       6.40733866       0.00000000       0.00000000       0.00000000
I        6.34797853       2.55264647       6.32588498       0.00000000       0.00000000       0.00000000
I        6.93240887       7.10944412       6.42766502       0.00000000       0.00000000       0.00000000
24
Lattice="9.000614367510128 -0.024251720065251763 0.06442852841856189 -0.024251720065251763 8.834086589412271 -0.05175118240540611 0.045552427510914345 -0.03658925701067544 6.341701158805713" Properties=species:S:1:pos:R:3:momenta:R:3 config_id=t-FAPI3_mixed_16 phase=t-FAPI3 mode=mixed seed=337318137 source=t-FAPI3/CONTCAR pbc="T T T"
C        4.67594779       4.42174481       3.54221079       0.00000000       0.00000000       0.00000000
C        9.02181107       0.04622778       3.72840419       0.00000000       0.00000000       0.00000000
N        4.74789234       5.52290270       2.86232204       0.00000000       0.00000000       0.00000000
N        4.20073822       3.25194938       3.16879316       0.00000000       0.00000000       0.00000000
N        0.85728956       8.06455715       2.96139447       0.00000000       0.00000000       0.00000000
N        8.20767344       0.73933510       3.08380811       0.00000000       0.00000000       0.00000000
H        5.02849747       4.47627345       4.65998941       0.00000000       0.00000000       0.00000000
H        5.11453430       6.30610542       3.33552829       0.00000000       0.00000000       0.00000000
H        4.50108898       5.53651366       1.94423526       0.00000000       0.00000000       0.00000000
H        3.87657707       3.08307893       2.29854932       0.00000000       0.00000000       0.00000000
H        4.07723648       2.53709644       3.81628378       0.00000000       0.00000000       0.00000000
H        0.04250464       8.77117167       4.68053171       0.00000000       0.00000000       0.00000000
H        1.45534209       7.42824467       3.54818580       0.00000000       0.00000000       0.00000000
H        0.88278152       7.92305866       1.95839516       0.00000000       0.00000000       0.00000000
H        8.14923516       0.86714393       2.06849526       0.00000000       0.00000000       0.00000000
H        7.57109175       1.36636034       3.67058651       0.00000000       0.00000000       0.00000000
Pb       9.02566313       4.28296587       6.33715204       0.00000000       0.00000000       0.00000000
Pb       4.55636178       8.72851238       6.23429056       0.00000000       0.00000000       0.00000000
I        8.99077419       4.38217635       3.10943937       0.00000000       0.00000000       0.00000000
I        4.58282833       0.02598317       3.14733229       0.00000000       0.00000000       0.00000000
I        1.99899375       1.90530159       6.27427130       0.00000000       0.00000000       0.00000000
I        2.57088811       6.32788393       6.20528937       0.00000000       0.00000000       0.00000000
I        6.50046784       2.41626259       6.33507976       0.00000000       0.00000000       0.00000000
I        7.07237960       6.79756621       6.26589585       0.00000000       0.00000000       0.00000000
24
Lattice="8.910976892967767 0.04888950416151946 -0.02782660053192646 0.04888950416151946 8.982286736691512 0.05797904992792228 -0.019674036249453793 0.040992500276204734 6.423849758205516" Properties=species:S:1:pos:R:3:momenta:R:3 config_id=t-FAPI3_mixed_17 phase=t-FAPI3 mode=mixed seed=469458426 source=t-FAPI3/CONTCAR pbc="T T T"
C        4.47008364       4.51637399       3.74379701       0.00000000       0.00000000       0.00000000
C        0.04939210       0.09182044       3.64067539       0.00000000       0.00000000       0.00000000
N        5.35368624       5.33436340       3.11524271       0.00000000       0.00000000       0.00000000
N        3.63161915       3.74126610       3.04475591       0.00000000       0.00000000       0.00000000
N        0.93918281       8.09997839       3.51422873       0.00000000       0.00000000       0.00000000
N        8.09413224       0.80076234       2.75919881       0.00000000       0.00000000       0.00000000
H        4.42135484       4.55789825       4.78192200       0.00000000       0.00000000       0.00000000
H        5.92629174       5.98420172       3.71986003       0.00000000       0.00000000       0.00000000
H        5.42863746       5.41772326       2.03776202       0.00000000       0.00000000       0.00000000
H        3.65985750       3.57740268       2.06818593       0.00000000       0.00000000       0.00000000
H        3.08917022       3.10679945       3.58349722       0.00000000       0.00000000       0.00000000
H        8.68397714       0.38609691       4.65296939       0.00000000       0.00000000       0.00000000
H        1.38748676       7.76668925       4.24400278       0.00000000       0.00000000       0.00000000
H        1.07150314       7.81373647       2.44127778       0.00000000       0.00000000       0.00000000
H        8.16307686       0.60060292       1.71012638       0.00000000       0.00000000       0.00000000
H        7.42604033       1.50180310       3.02818693       0.00000000       0.00000000       0.00000000
Pb       0.01751369       4.52483066       6.42606484       0.00000000       0.00000000       0.00000000
Pb       4.50366595       0.15874151       6.38677846       0.00000000       0.00000000       0.00000000
I        0.02382951       4.48173307       3.16434251       0.00000000       0.00000000       0.00000000
I        4.49517561       0.07728103       3.07537825       0.00000000       0.00000000       0.00000000
I        2.02840350       2.02258843       6.33392839       0.00000000       0.00000000       0.00000000
I        2.45708972       6.53385762       6.41403386       0.00000000       0.00000000       0.00000000
I        6.48659864       2.64958129       6.32141641       0.00000000       0.00000000       0.00000000
I        7.03830497       7.05570391       6.40431268       0.00000000       0.00000000       0.00000000
