C  N  H  Pb I                           
   1.0000000000000000     
     9.0414064833097978    0.0660644272930697    0.0229800260159591
     0.0642946148244494    8.8147372003529778    0.0502054039542464
     0.0326027265631275    0.0731891910403817   12.8467858161132042
  C               N               H               Pb              I             
     4     8    20     4    12
Direct
     0.5149129473972494    0.0436599544788265    0.2339284064037983
     0.0071849527236836    0.4648558274285435    0.7440190702776519
     0.9836224916178509    0.5504652663397138    0.2268975721451127
     0.4949627670768635    0.9617924997129563    0.7469522697562283
     0.5435242237407678    0.9223181008488055    0.1787075618022840
     0.0667453594738845    0.5619616356766315    0.6914065526494326
     0.1130623264127735    0.5932922534879879    0.2660519717651368
     0.6247137944331698    0.9136720815468848    0.7389387712477600
     0.3931631414068875    0.0945922555879619    0.2672432295811547
     0.8714833922100382    0.4188835259243220    0.7389696194215460
     0.9554171671795473    0.4203822148540581    0.1843510362896481
     0.4295690403375261    0.0680420586868564    0.6885689351928335
     0.6202044803506368    0.1084217903268367    0.2510056173568955
     0.0798065580440266    0.4069665011066519    0.8077861998129379
     0.8897169433669987    0.6308447303285050    0.2331366311522984
     0.4232998925674210    0.9032203083122781    0.8087824084352491
     0.6413544865521459    0.8961372286828180    0.1460197716795761
     0.1837310797629925    0.5876773401868576    0.6967441510416990
     0.1246577246405707    0.6993083741577877    0.2977368143932395
     0.6740071480630689    0.8375535662529217    0.7926650815830669
     0.4502193853147745    0.8520149892768671    0.1544489351109917
     0.0111386967548910    0.6179162905630378    0.6309684244611091
     0.2031903332977762    0.5235033465409913    0.2626379280134330
     0.7045909795462322    0.9619136221717639    0.6885874896357791
     0.2981376851177089    0.0394863804098762    0.2552929297824278
     0.7966371751516448    0.4609527668877647    0.6875704640996716
     0.0357913798101208    0.3330680427354835    0.1762228015330578
     0.4854429219573433    0.1153158342622405    0.6322841354561106
     0.3910402021669128    0.1876648389646363    0.3132966042672223
     0.8301292063284649    0.3378292671451959    0.7904215249615874
     0.8523443529367256    0.3998707874486200    0.1552914891252826
     0.3154728401837801    0.0874484483790425    0.6969554153051547
     0.5060594753079357    0.4917274309093358    0.9818850411761915
     0.9962677673077991    0.0115152604817155    0.4804847087160553
     0.9974989807329635    0.9854060498821795    0.9846495745185564
     0.4991755886477094    0.5144089514962644    0.4814578629956330
     0.7961560332483870    0.7133205579597615    0.5037484331116744
     0.9603419093960426    0.9943866192703865    0.2322711822722212
     0.7086213809085535    0.1929429620204459    0.9639341984627094
     0.2049658338891831    0.2891788140986762    0.0027783419206528
     0.2077150403320616    0.2996591785927691    0.4597825391745261
     0.2900993414292614    0.8024556663180960    0.4615277260869846
     0.7911300950534823    0.6993473636410954    0.9626097714301736
     0.7025303247785573    0.2128804917066134    0.5050695598543768
     0.4587861487206624    0.5080226361163511    0.7285537108418012
     0.0400299837029152    0.0056823979373846    0.7351356033955412
     0.2943342724692783    0.7931520321671002    0.0029648710761947
     0.5387261729629955    0.4946069873342012    0.2302256764373070

  0.00000000E+00  0.00000000E+00  0.00000000E+00
  0.00000000E+00  0.00000000E+00  0.00000000E+00
  0.00000000E+00  0.00000000E+00  0.00000000E+00
  0.00000000E+00  0.00000000E+00  0.00000000E+00
  0.00000000E+00  0.00000000E+00  0.00000000E+00
  0.00000000E+00  0.00000000E+00  0.00000000E+00
  0.00000000E+00  0.00000000E+00  0.00000000E+00
  0.00000000E+00  0.00000000E+00  0.00000000E+00
  0.00000000E+00  0.00000000E+00  0.00000000E+00
  0.00000000E+00  0.00000000E+00  0.00000000E+00
  0.00000000E+00  0.00000000E+00  0.00000000E+00
  0.00000000E+00  0.00000000E+00  0.00000000E+00
  0.00000000E+00  0.00000000E+00  0.00000000E+00
  0.00000000E+00  0.00000000E+00  0.00000000E+00
  0.00000000E+00  0.00000000E+00  0.00000000E+00
  0.00000000E+00  0.00000000E+00  0.00000000E+00
  0.00000000E+00  0.00000000E+00  0.00000000E+00
  0.00000000E+00  0.00000000E+00  0.00000000E+00
  0.00000000E+00  0.00000000E+00  0.00000000E+00
  0.00000000E+00  0.00000000E+00  0.00000000E+00
  0.00000000E+00  0.00000000E+00  0.00000000E+00
  0.00000000E+00  0.00000000E+00  0.00000000E+00
  0.00000000E+00  0.00000000E+00  0.00000000E+00
  0.00000000E+00  0.00000000E+00  0.00000000E+00
  0.00000000E+00  0.00000000E+00  0.00000000E+00
  0.00000000E+00  0.00000000E+00  0.00000000E+00
  0.00000000E+00  0.00000000E+00  0.00000000E+00
  0.00000000E+00  0.00000000E+00  0.00000000E+00
  0.00000000E+00  0.00000000E+00  0.00000000E+00
  0.00000000E+00  0.00000000E+00  0.00000000E+00
  0.00000000E+00  0.00000000E+00  0.00000000E+00
  0.00000000E+00  0.00000000E+00  0.00000000E+00
  0.00000000E+00  0.00000000E+00  0.00000000E+00
  0.00000000E+00  0.00000000E+00  0.00000000E+00
  0.00000000E+00  0.00000000E+00  0.00000000E+00
  0.00000000E+00  0.00000000E+00  0.00000000E+00
  0.00000000E+00  0.00000000E+00  0.00000000E+00
  0.00000000E+00  0.00000000E+00  0.00000000E+00
  0.00000000E+00  0.00000000E+00  0.00000000E+00
  0.00000000E+00  0.00000000E+00  0.00000000E+00
  0.00000000E+00  0.00000000E+00  0.00000000E+00
  0.00000000E+00  0.00000000E+00  0.00000000E+00
  0.00000000E+00  0.00000000E+00  0.00000000E+00
  0.00000000E+00  0.00000000E+00  0.00000000E+00
  0.00000000E+00  0.00000000E+00  0.00000000E+00
  0.00000000E+00  0.00000000E+00  0.00000000E+00
  0.00000000E+00  0.00000000E+00  0.00000000E+00
  0.00000000E+00  0.00000000E+00  0.00000000E+00
