C  N  H  Pb I 
 1.0000000000000000
     9.0414064833097978    0.0660644272930697    0.0229800260159591
     0.0642946148244494    8.8147372003529778    0.0502054039542464
     0.0326027265631275    0.0731891910403817   12.8467858161132042
 C   N   H   Pb  I  
   4   8  20   4  12
Direct
  0.5149129473972476  0.0436599544788271  0.2339284064037990
  0.0071849527236854  0.4648558274285443  0.7440190702776540
  0.9836224916178505  0.5504652663397110  0.2268975721451096
  0.4949627670768609  0.9617924997129530  0.7469522697562265
  0.5435242237407686  0.9223181008488069  0.1787075618022833
  0.0667453594738834  0.5619616356766339  0.6914065526494326
  0.1130623264127715  0.5932922534879908  0.2660519717651393
  0.6247137944331711  0.9136720815468850  0.7389387712477595
  0.3931631414068909  0.0945922555879642  0.2672432295811552
  0.8714833922100407  0.4188835259243228  0.7389696194215447
  0.9554171671795451  0.4203822148540551  0.1843510362896468
  0.4295690403375252  0.0680420586868586  0.6885689351928332
  0.6202044803506355  0.1084217903268379  0.2510056173568976
  0.0798065580440245  0.4069665011066543  0.8077861998129386
  0.8897169433669966  0.6308447303285063  0.2331366311522955
  0.4232998925674191  0.9032203083122776  0.8087824084352456
  0.6413544865521472  0.8961372286828192  0.1460197716795796
  0.1837310797629921  0.5876773401868575  0.6967441510416974
  0.1246577246405712  0.6993083741577886  0.2977368143932360
  0.6740071480630685  0.8375535662529204  0.7926650815830698
  0.4502193853147710  0.8520149892768673  0.1544489351109925
  0.0111386967548893  0.6179162905630392  0.6309684244611115
  0.2031903332977748  0.5235033465409884  0.2626379280134322
  0.7045909795462303  0.9619136221717611  0.6885874896357757
  0.2981376851177083  0.0394863804098791  0.2552929297824283
  0.7966371751516417  0.4609527668877675  0.6875704640996708
  0.0357913798101218  0.3330680427354864  0.1762228015330596
  0.4854429219573403  0.1153158342622413  0.6322841354561096
  0.3910402021669149  0.1876648389646337  0.3132966042672237
  0.8301292063284617  0.3378292671451991  0.7904215249615848
  0.8523443529367245  0.3998707874486210  0.1552914891252817
  0.3154728401837775  0.0874484483790394  0.6969554153051536
  0.5060594753079338  0.4917274309093364  0.9818850411761915
  0.9962677673077986  0.0115152604817169  0.4804847087160534
  0.9974989807329654  0.9854060498821811  0.9846495745185599
  0.4991755886477114  0.5144089514962650  0.4814578629956298
  0.7961560332483844  0.7133205579597607  0.5037484331116715
  0.9603419093960446  0.9943866192703877  0.2322711822722219
  0.7086213809085516  0.1929429620204454  0.9639341984627074
  0.2049658338891857  0.2891788140986773  0.0027783419206540
  0.2077150403320617  0.2996591785927695  0.4597825391745247
  0.2900993414292617  0.8024556663180993  0.4615277260869872
  0.7911300950534823  0.6993473636410956  0.9626097714301768
  0.7025303247785567  0.2128804917066136  0.5050695598543742
  0.4587861487206621  0.5080226361163507  0.7285537108418014
  0.0400299837029145  0.0056823979373816  0.7351356033955415
  0.2943342724692762  0.7931520321671036  0.0029648710761961
  0.5387261729629933  0.4946069873342038  0.2302256764373037
Cartesian
  0.0000000000000000  0.0000000000000000  0.0000000000000000
  0.0000000000000000  0.0000000000000000  0.0000000000000000
  0.0000000000000000  0.0000000000000000  0.0000000000000000
  0.0000000000000000  0.0000000000000000  0.0000000000000000
  0.0000000000000000  0.0000000000000000  0.0000000000000000
  0.0000000000000000  0.0000000000000000  0.0000000000000000
  0.0000000000000000  0.0000000000000000  0.0000000000000000
  0.0000000000000000  0.0000000000000000  0.0000000000000000
  0.0000000000000000  0.0000000000000000  0.0000000000000000
  0.0000000000000000  0.0000000000000000  0.0000000000000000
  0.0000000000000000  0.0000000000000000  0.0000000000000000
  0.0000000000000000  0.0000000000000000  0.0000000000000000
  0.0000000000000000  0.0000000000000000  0.0000000000000000
  0.0000000000000000  0.0000000000000000  0.0000000000000000
  0.0000000000000000  0.0000000000000000  0.0000000000000000
  0.0000000000000000  0.0000000000000000  0.0000000000000000
  0.0000000000000000  0.0000000000000000  0.0000000000000000
  0.0000000000000000  0.0000000000000000  0.0000000000000000
  0.0000000000000000  0.0000000000000000  0.0000000000000000
  0.0000000000000000  0.0000000000000000  0.0000000000000000
  0.0000000000000000  0.0000000000000000  0.0000000000000000
  0.0000000000000000  0.0000000000000000  0.0000000000000000
  0.0000000000000000  0.0000000000000000  0.0000000000000000
  0.0000000000000000  0.0000000000000000  0.0000000000000000
  0.0000000000000000  0.0000000000000000  0.0000000000000000
  0.0000000000000000  0.0000000000000000  0.0000000000000000
  0.0000000000000000  0.0000000000000000  0.0000000000000000
  0.0000000000000000  0.0000000000000000  0.0000000000000000
  0.0000000000000000  0.0000000000000000  0.0000000000000000
  0.0000000000000000  0.0000000000000000  0.0000000000000000
  0.0000000000000000  0.0000000000000000  0.0000000000000000
  0.0000000000000000  0.0000000000000000  0.0000000000000000
  0.0000000000000000  0.0000000000000000  0.0000000000000000
  0.0000000000000000  0.0000000000000000  0.0000000000000000
  0.0000000000000000  0.0000000000000000  0.0000000000000000
  0.0000000000000000  0.0000000000000000  0.0000000000000000
  0.0000000000000000  0.0000000000000000  0.0000000000000000
  0.0000000000000000  0.0000000000000000  0.0000000000000000
  0.0000000000000000  0.0000000000000000  0.0000000000000000
  0.0000000000000000  0.0000000000000000  0.0000000000000000
  0.0000000000000000  0.0000000000000000  0.0000000000000000
  0.0000000000000000  0.0000000000000000  0.0000000000000000
  0.0000000000000000  0.0000000000000000  0.0000000000000000
  0.0000000000000000  0.0000000000000000  0.0000000000000000
  0.0000000000000000  0.0000000000000000  0.0000000000000000
  0.0000000000000000  0.0000000000000000  0.0000000000000000
  0.0000000000000000  0.0000000000000000  0.0000000000000000
  0.0000000000000000  0.0000000000000000  0.0000000000000000
