C  N  H  Pb I                           
   1.0000000000000000     
     9.0193899931757802    0.0000000000000000    0.0000000000000000
     0.0000000000000000    8.7777678445653162    0.0000000000000000
     0.0000000000000000    0.0000000000000000   12.7961868062944486
  C               N               H               Pb              I             
     4     8    20     4    12
Direct
     0.5078322658884886    0.0401398604108039    0.2479074159739199
     0.0111425133674814    0.4637871531418583    0.7474249661975421
     0.9920454334685047    0.5406959860585872    0.2475946299923706
     0.4923812446116855    0.9624650758929860    0.7490463719634022
     0.5703075713511154    0.9350179346937111    0.1898319649975733
     0.0625877684552378    0.5641925592695927    0.6806929092738869
     0.1310336582348199    0.5838994807281068    0.2399588818968326
     0.6361449326965740    0.9395492906740373    0.7533675240873094
     0.3693545089692307    0.0847825660378305    0.2395899587870431
     0.8742947376695440    0.4127214331928570    0.7491194832657442
     0.9294053217315223    0.4354362199708675    0.1897252216917167
     0.4239947739024785    0.0384470450757206    0.6750753117380341
     0.5758749406273154    0.0944231354725886    0.3081434706393509
     0.0876909911207591    0.4195709999062629    0.8064501437471066
     0.9236836942065167    0.5964013535599975    0.3070350101048547
     0.4248102844721373    0.9150385393232483    0.8121995649597409
     0.6810245495062972    0.9137364021069274    0.1988802843403192
     0.1728938119021208    0.5909497765520300    0.6824872253109930
     0.1727440398663802    0.6618424652955213    0.2915835922463330
     0.6810916349204703    0.8850803140050587    0.8165210340218394
     0.5137283238012174    0.8808598360645519    0.1311899032928565
     0.9976328121252465    0.6089371870575917    0.6226303547010374
     0.2027680669080070    0.5368550561063330    0.1875867459194609
     0.7073005682677760    0.9811115779840947    0.6984812704226684
     0.2979207760737452    0.0391023161882700    0.1864509987687271
     0.7954987526583963    0.4490661848427138    0.6977913044775903
     0.9862840415021594    0.3799864786952014    0.1317994707683496
     0.4800757469570271    0.0843113016856947    0.6129694666768586
     0.3276448398483041    0.1624667095009613    0.2913982153599122
     0.8416576127972846    0.3397494342004563    0.8070267700755522
     0.8183796010724720    0.4153349919539693    0.1981420818729518
     0.3107389029270493    0.0434450826437143    0.6759255387645808
     0.5023441722619779    0.4879288203356396    0.9810849892003191
     0.0023441785924945    0.0120711836670608    0.4810849868122489
     0.9976558244282359    0.9879288178551917    0.9810849914872719
     0.4976558298475950    0.5120711849063113    0.4810849885500943
     0.7958928941106862    0.7105293335369609    0.5032699314851357
     0.9606598229172718    0.9944623124655507    0.2320592544955247
     0.7060293635732506    0.1956508126848462    0.9614522052702341
     0.2041070863312058    0.2894707010478257    0.0032699320500740
     0.2060293779368507    0.3043491755398549    0.4614522129329686
     0.2939706246777973    0.8043491828284957    0.4614522154174097
     0.7939706408800902    0.6956508110307098    0.9614522100061293
     0.7041071043942750    0.2105293303375291    0.5032699287679776
     0.4606598128207438    0.5055376617516671    0.7320592563212429
     0.0393401777688851    0.0055376740307977    0.7320592521911493
     0.2958929104798855    0.7894706933117490    0.0032699289927791
     0.5393401671427824    0.4944623109760684    0.2320592517272502

  0.00000000E+00  0.00000000E+00  0.00000000E+00
  0.00000000E+00  0.00000000E+00  0.00000000E+00
  0.00000000E+00  0.00000000E+00  0.00000000E+00
  0.00000000E+00  0.00000000E+00  0.00000000E+00
  0.00000000E+00  0.00000000E+00  0.00000000E+00
  0.00000000E+00  0.00000000E+00  0.00000000E+00
  0.00000000E+00  0.00000000E+00  0.00000000E+00
  0.00000000E+00  0.00000000E+00  0.00000000E+00
  0.00000000E+00  0.00000000E+00  0.00000000E+00
  0.00000000E+00  0.00000000E+00  0.00000000E+00
  0.00000000E+00  0.00000000E+00  0.00000000E+00
  0.00000000E+00  0.00000000E+00  0.00000000E+00
  0.00000000E+00  0.00000000E+00  0.00000000E+00
  0.00000000E+00  0.00000000E+00  0.00000000E+00
  0.00000000E+00  0.00000000E+00  0.00000000E+00
  0.00000000E+00  0.00000000E+00  0.00000000E+00
  0.00000000E+00  0.00000000E+00  0.00000000E+00
  0.00000000E+00  0.00000000E+00  0.00000000E+00
  0.00000000E+00  0.00000000E+00  0.00000000E+00
  0.00000000E+00  0.00000000E+00  0.00000000E+00
  0.00000000E+00  0.00000000E+00  0.00000000E+00
  0.00000000E+00  0.00000000E+00  0.00000000E+00
  0.00000000E+00  0.00000000E+00  0.00000000E+00
  0.00000000E+00  0.00000000E+00  0.00000000E+00
  0.00000000E+00  0.00000000E+00  0.00000000E+00
  0.00000000E+00  0.00000000E+00  0.00000000E+00
  0.00000000E+00  0.00000000E+00  0.00000000E+00
  0.00000000E+00  0.00000000E+00  0.00000000E+00
  0.00000000E+00  0.00000000E+00  0.00000000E+00
  0.00000000E+00  0.00000000E+00  0.00000000E+00
  0.00000000E+00  0.00000000E+00  0.00000000E+00
  0.00000000E+00  0.00000000E+00  0.00000000E+00
  0.00000000E+00  0.00000000E+00  0.00000000E+00
  0.00000000E+00  0.00000000E+00  0.00000000E+00
  0.00000000E+00  0.00000000E+00  0.00000000E+00
  0.00000000E+00  0.00000000E+00  0.00000000E+00
  0.00000000E+00  0.00000000E+00  0.00000000E+00
  0.00000000E+00  0.00000000E+00  0.00000000E+00
  0.00000000E+00  0.00000000E+00  0.00000000E+00
  0.00000000E+00  0.00000000E+00  0.00000000E+00
  0.00000000E+00  0.00000000E+00  0.00000000E+00
  0.00000000E+00  0.00000000E+00  0.00000000E+00
  0.00000000E+00  0.00000000E+00  0.00000000E+00
  0.00000000E+00  0.00000000E+00  0.00000000E+00
  0.00000000E+00  0.00000000E+00  0.00000000E+00
  0.00000000E+00  0.00000000E+00  0.00000000E+00
  0.00000000E+00  0.00000000E+00  0.00000000E+00
  0.00000000E+00  0.00000000E+00  0.00000000E+00
