C  N  H  Pb I 
 1.0000000000000000
     9.0193899931757802    0.0000000000000000    0.0000000000000000
     0.0000000000000000    8.7777678445653162    0.0000000000000000
     0.0000000000000000    0.0000000000000000   12.7961868062944486
 C   N   H   Pb  I  
   4   8  20   4  12
Direct
  0.5078322658884917  0.0401398604108020  0.2479074159739164
  0.0111425133674810  0.4637871531418608  0.7474249661975397
  0.9920454334685082  0.5406959860585880  0.2475946299923702
  0.4923812446116832  0.9624650758929874  0.7490463719634022
  0.5703075713511163  0.9350179346937141  0.1898319649975718
  0.0625877684552411  0.5641925592695914  0.6806929092738850
  0.1310336582348178  0.5838994807281044  0.2399588818968306
  0.6361449326965729  0.9395492906740367  0.7533675240873079
  0.3693545089692321  0.0847825660378310  0.2395899587870402
  0.8742947376695414  0.4127214331928550  0.7491194832657475
  0.9294053217315231  0.4354362199708706  0.1897252216917170
  0.4239947739024799  0.0384470450757175  0.6750753117380357
  0.5758749406273174  0.0944231354725904  0.3081434706393515
  0.0876909911207565  0.4195709999062608  0.8064501437471052
  0.9236836942065133  0.5964013535599978  0.3070350101048526
  0.4248102844721342  0.9150385393232512  0.8121995649597442
  0.6810245495062992  0.9137364021069249  0.1988802843403188
  0.1728938119021190  0.5909497765520301  0.6824872253109904
  0.1727440398663828  0.6618424652955209  0.2915835922463332
  0.6810916349204692  0.8850803140050569  0.8165210340218360
  0.5137283238012142  0.8808598360645499  0.1311899032928596
  0.9976328121252444  0.6089371870575910  0.6226303547010404
  0.2027680669080062  0.5368550561063354  0.1875867459194599
  0.7073005682677765  0.9811115779840963  0.6984812704226687
  0.2979207760737473  0.0391023161882721  0.1864509987687296
  0.7954987526583980  0.4490661848427126  0.6977913044775877
  0.9862840415021580  0.3799864786951983  0.1317994707683488
  0.4800757469570250  0.0843113016856965  0.6129694666768588
  0.3276448398483043  0.1624667095009648  0.2913982153599100
  0.8416576127972867  0.3397494342004546  0.8070267700755548
  0.8183796010724744  0.4153349919539673  0.1981420818729491
  0.3107389029270520  0.0434450826437168  0.6759255387645824
  0.5023441722619808  0.4879288203356366  0.9810849892003165
  0.0023441785924915  0.0120711836670638  0.4810849868122521
  0.9976558244282330  0.9879288178551918  0.9810849914872694
  0.4976558298475982  0.5120711849063111  0.4810849885500975
  0.7958928941106866  0.7105293335369601  0.5032699314851331
  0.9606598229172731  0.9944623124655482  0.2320592544955259
  0.7060293635732524  0.1956508126848427  0.9614522052702348
  0.2041070863312036  0.2894707010478275  0.0032699320500760
  0.2060293779368493  0.3043491755398582  0.4614522129329701
  0.2939706246777947  0.8043491828284943  0.4614522154174112
  0.7939706408800884  0.6956508110307111  0.9614522100061302
  0.7041071043942746  0.2105293303375289  0.5032699287679750
  0.4606598128207440  0.5055376617516696  0.7320592563212425
  0.0393401777688836  0.0055376740307987  0.7320592521911489
  0.2958929104798871  0.7894706933117497  0.0032699289927811
  0.5393401671427811  0.4944623109760681  0.2320592517272514
Cartesian
  0.0000000000000000  0.0000000000000000  0.0000000000000000
  0.0000000000000000  0.0000000000000000  0.0000000000000000
  0.0000000000000000  0.0000000000000000  0.0000000000000000
  0.0000000000000000  0.0000000000000000  0.0000000000000000
  0.0000000000000000  0.0000000000000000  0.0000000000000000
  0.0000000000000000  0.0000000000000000  0.0000000000000000
  0.0000000000000000  0.0000000000000000  0.0000000000000000
  0.0000000000000000  0.0000000000000000  0.0000000000000000
  0.0000000000000000  0.0000000000000000  0.0000000000000000
  0.0000000000000000  0.0000000000000000  0.0000000000000000
  0.0000000000000000  0.0000000000000000  0.0000000000000000
  0.0000000000000000  0.0000000000000000  0.0000000000000000
  0.0000000000000000  0.0000000000000000  0.0000000000000000
  0.0000000000000000  0.0000000000000000  0.0000000000000000
  0.0000000000000000  0.0000000000000000  0.0000000000000000
  0.0000000000000000  0.0000000000000000  0.0000000000000000
  0.0000000000000000  0.0000000000000000  0.0000000000000000
  0.0000000000000000  0.0000000000000000  0.0000000000000000
  0.0000000000000000  0.0000000000000000  0.0000000000000000
  0.0000000000000000  0.0000000000000000  0.0000000000000000
  0.0000000000000000  0.0000000000000000  0.0000000000000000
  0.0000000000000000  0.0000000000000000  0.0000000000000000
  0.0000000000000000  0.0000000000000000  0.0000000000000000
  0.0000000000000000  0.0000000000000000  0.0000000000000000
  0.0000000000000000  0.0000000000000000  0.0000000000000000
  0.0000000000000000  0.0000000000000000  0.0000000000000000
  0.0000000000000000  0.0000000000000000  0.0000000000000000
  0.0000000000000000  0.0000000000000000  0.0000000000000000
  0.0000000000000000  0.0000000000000000  0.0000000000000000
  0.0000000000000000  0.0000000000000000  0.0000000000000000
  0.0000000000000000  0.0000000000000000  0.0000000000000000
  0.0000000000000000  0.0000000000000000  0.0000000000000000
  0.0000000000000000  0.0000000000000000  0.0000000000000000
  0.0000000000000000  0.0000000000000000  0.0000000000000000
  0.0000000000000000  0.0000000000000000  0.0000000000000000
  0.0000000000000000  0.0000000000000000  0.0000000000000000
  0.0000000000000000  0.0000000000000000  0.0000000000000000
  0.0000000000000000  0.0000000000000000  0.0000000000000000
  0.0000000000000000  0.0000000000000000  0.0000000000000000
  0.0000000000000000  0.0000000000000000  0.0000000000000000
  0.0000000000000000  0.0000000000000000  0.0000000000000000
  0.0000000000000000  0.0000000000000000  0.0000000000000000
  0.0000000000000000  0.0000000000000000  0.0000000000000000
  0.0000000000000000  0.0000000000000000  0.0000000000000000
  0.0000000000000000  0.0000000000000000  0.0000000000000000
  0.0000000000000000  0.0000000000000000  0.0000000000000000
  0.0000000000000000  0.0000000000000000  0.0000000000000000
  0.0000000000000000  0.0000000000000000  0.0000000000000000
