tetragonal FAPbI3;P4/mbm                
   1.0000000000000000     
     8.9515469237282943    0.0000000000000000    0.0000000000000000
     0.0000000000000000    8.9515469237282943    0.0000000000000000
     0.0000000000000000    0.0000000000000000    6.3289462348825625
  C               N               H               Pb              I             
     2     4    10     2     6
Direct
     0.5000018554397698    0.5000022537173052    0.5710414540411557
     0.0000007410375673    0.9999987646105950    0.5710407156055319
     0.5923606299992159    0.5923610428917911    0.4766111386050116
     0.4076382238595614    0.4076386134882853    0.4766119451395912
     0.0923621889142182    0.9076374200722455    0.4766116192023904
     0.9076382255029756    0.0923613599885896    0.4766118533606121
     0.5000002811686741    0.5000006754111794    0.7434292792011578
     0.6592102415660046    0.6592106420587209    0.5661379303377950
     0.6020706101817830    0.6020709548828898    0.3166447138727602
     0.3979294916607549    0.3979298137557598    0.3166459150452124
     0.3407904138926729    0.3407907834672447    0.5661395624362763
     0.0000003891983269    0.9999991386351894    0.7434288933100662
     0.1592096834458271    0.8407898917044780    0.5661363426615716
     0.1020707144006602    0.8979290598230356    0.3166437760532457
     0.8979291600907693    0.1020705871001008    0.3166445348331788
     0.8407900748513446    0.1592094554665276    0.5661391723660779
     0.9999996702832874    0.4999998411152120    0.9927483894762270
     0.4999997010236399    0.0000000324883942    0.9927483855366370
     0.9999999102034849    0.4999996263576136    0.4921354490862427
     0.4999999142446683    0.0000003677771616    0.4921354374147256
     0.2186731588084625    0.2186734871043809    0.9904698930698315
     0.2813257430878850    0.7186737787616465    0.9904693018204282
     0.7186732069649778    0.2813263126771390    0.9904697108926923
     0.7813257701734969    0.7813260966445427    0.9904692674316022

  0.00000000E+00  0.00000000E+00  0.00000000E+00
  0.00000000E+00  0.00000000E+00  0.00000000E+00
  0.00000000E+00  0.00000000E+00  0.00000000E+00
  0.00000000E+00  0.00000000E+00  0.00000000E+00
  0.00000000E+00  0.00000000E+00  0.00000000E+00
  0.00000000E+00  0.00000000E+00  0.00000000E+00
  0.00000000E+00  0.00000000E+00  0.00000000E+00
  0.00000000E+00  0.00000000E+00  0.00000000E+00
  0.00000000E+00  0.00000000E+00  0.00000000E+00
  0.00000000E+00  0.00000000E+00  0.00000000E+00
  0.00000000E+00  0.00000000E+00  0.00000000E+00
  0.00000000E+00  0.00000000E+00  0.00000000E+00
  0.00000000E+00  0.00000000E+00  0.00000000E+00
  0.00000000E+00  0.00000000E+00  0.00000000E+00
  0.00000000E+00  0.00000000E+00  0.00000000E+00
  0.00000000E+00  0.00000000E+00  0.00000000E+00
  0.00000000E+00  0.00000000E+00  0.00000000E+00
  0.00000000E+00  0.00000000E+00  0.00000000E+00
  0.00000000E+00  0.00000000E+00  0.00000000E+00
  0.00000000E+00  0.00000000E+00  0.00000000E+00
  0.00000000E+00  0.00000000E+00  0.00000000E+00
  0.00000000E+00  0.00000000E+00  0.00000000E+00
  0.00000000E+00  0.00000000E+00  0.00000000E+00
  0.00000000E+00  0.00000000E+00  0.00000000E+00
