tetragonal FAPbI3;P4/mbm                
   1.0000000000000000     
     8.9518422216594509    0.0000000000000000    0.0000000000000000
     0.0000000000000000    8.9518422216594509    0.0000000000000000
     0.0000000000000000    0.0000000000000000    6.3291550172020292
  C               N               H               Pb              I             
     2     4    10     2     6
Direct
     0.5000018554397698    0.5000022537173052    0.5710332026826488
     0.0000007410375673    0.9999987646105950    0.5710324642470250
     0.5923745512765004    0.5923749641690756    0.4765955038448502
     0.4076243025822768    0.4076246922110008    0.4765963103794298
     0.0923761101915027    0.9076234987949610    0.4765959844422290
     0.9076243042256911    0.0923752812658741    0.4765962186004507
     0.5000002811686741    0.5000006754111794    0.7435214600112360
     0.6592324816015932    0.6592328820943095    0.5661635471957893
     0.6020816393362675    0.6020819840373742    0.3166353416818755
     0.3979184625062706    0.3979187846012755    0.3166365428543277
     0.3407681738570845    0.3407685434316563    0.5661651792942706
     0.0000003891983269    0.9999991386351894    0.7435210741201445
     0.1592319234814156    0.8407676516688894    0.5661619595195659
     0.1020817435551445    0.8979180306685511    0.3166344038623610
     0.8979181309362848    0.1020816162545851    0.3166351626422941
     0.8407678348157560    0.1592316955021162    0.5661647892240722
     0.9999996702832874    0.4999998411152120    0.9927333714997032
     0.4999997010236399    0.0000000324883942    0.9927333675601132
     0.9999999102034849    0.4999996263576136    0.4921134921389625
     0.4999999142446683    0.0000003677771616    0.4921134804674455
     0.2187115878256724    0.2187119161215909    0.9904458058990004
     0.2812873140706750    0.7187122077788567    0.9904452146495972
     0.7187116359821880    0.2812878836599290    0.9904456237218613
     0.7812873411562867    0.7812876676273325    0.9904451802607712

  0.00000000E+00  0.00000000E+00  0.00000000E+00
  0.00000000E+00  0.00000000E+00  0.00000000E+00
  0.00000000E+00  0.00000000E+00  0.00000000E+00
  0.00000000E+00  0.00000000E+00  0.00000000E+00
  0.00000000E+00  0.00000000E+00  0.00000000E+00
  0.00000000E+00  0.00000000E+00  0.00000000E+00
  0.00000000E+00  0.00000000E+00  0.00000000E+00
  0.00000000E+00  0.00000000E+00  0.00000000E+00
  0.00000000E+00  0.00000000E+00  0.00000000E+00
  0.00000000E+00  0.00000000E+00  0.00000000E+00
  0.00000000E+00  0.00000000E+00  0.00000000E+00
  0.00000000E+00  0.00000000E+00  0.00000000E+00
  0.00000000E+00  0.00000000E+00  0.00000000E+00
  0.00000000E+00  0.00000000E+00  0.00000000E+00
  0.00000000E+00  0.00000000E+00  0.00000000E+00
  0.00000000E+00  0.00000000E+00  0.00000000E+00
  0.00000000E+00  0.00000000E+00  0.00000000E+00
  0.00000000E+00  0.00000000E+00  0.00000000E+00
  0.00000000E+00  0.00000000E+00  0.00000000E+00
  0.00000000E+00  0.00000000E+00  0.00000000E+00
  0.00000000E+00  0.00000000E+00  0.00000000E+00
  0.00000000E+00  0.00000000E+00  0.00000000E+00
  0.00000000E+00  0.00000000E+00  0.00000000E+00
  0.00000000E+00  0.00000000E+00  0.00000000E+00
