48
Lattice="9.01938999 0.0 0.0 0.0 8.77776784 0.0 0.0 0.0 12.79618681" Properties=species:S:1:pos:R:3:forces:R:3 config_id=O-FAPI3_al_global_rattle_01__global_rattle__sev-0.518__seed-new phase=O-FAPI3 mode=active_learning seed=2715948249 source=O-FAPI3/CONTCAR energy=-209.61605308 stress="-0.02862364768317558 0.007877978224209525 0.007065471941756099 0.007877978224209525 -0.021172546153533287 0.010415394672072848 0.007065471941756099 0.010415394672072848 -0.03188377022034748" pbc="T T T"
C        4.64770871       0.19291243       3.22804043      -2.72915211       4.15962431      -1.22725138
C        0.20856672       3.99424048       9.47713708     -11.45198021      -6.38616649       1.83382328
C        0.00259785       4.69893759       3.21354184       7.65553822      -8.87196571     -14.01535616
C        4.66026208       8.44442912       9.71478850     -14.74515956       5.13617444      -0.41546851
N        5.19783170       8.17953005       2.40345236      -1.76917298      -2.54668376      -2.00686713
N        0.70453432       4.77896906       8.76934122       3.74113994       7.13945748      -6.40045783
N        1.24804068       5.01380113       2.98709949      -7.49720947       7.78878113      10.38587147
N        5.64083338       7.81953404       9.47460651      -1.95253201      11.83622170     -23.90082082
N        3.37363040       0.78758522       2.81356900      15.46028749      11.74443583      12.71359838
N        7.94108791       3.55808619       9.44829038       0.51420501       4.17256986      -5.19239457
N        8.14660292       3.70534483       2.52298410      17.30721907       1.59856017      -1.82442658
N        3.94894013       0.50599293       8.91656109       0.59275972       4.76569461      -3.20673626
H        5.18828323       0.84109081       3.99630250      -0.32259712      -1.26091736      -0.63230392
H        0.49255105       3.64458723      10.28703321       4.85866916      -3.23038986       7.33954411
H        8.41199324       4.90782757       3.74638440     -11.66221506       7.16662887      13.32363395
H        3.78480085       8.00437794      10.27734816       1.53130716      -0.11060329       1.04291869
H        6.19376708       7.96880963       2.45759034       0.33565335      -0.39576866      -0.04789471
H        1.56944006       5.11871906       9.04252138       2.78140055       0.90290062       0.34926138
H        1.55793944       5.94110032       3.68808676      -0.30402443      -3.10625254      -2.24081546
H        5.92081211       7.44355898      10.06112319      11.95452662     -16.24808993      23.12580460
H        4.42680851       7.68786374       1.65288793       2.41475764       1.05114548       1.47203716
H        0.22024178       5.37899138       8.13927605      -0.84446465       0.40543153      -1.27464886
H        1.79087844       4.64269237       2.42357731       6.87119614      -4.54725584      -7.19792682
H        6.30573731       8.24129937       8.83575304       0.54007684      -0.30800296      -0.53240832
H        2.78498659       0.30092391       2.54886682     -13.85205952     -11.60427781      -6.56129520
H        7.32739184       4.06865295       8.75138958       0.71587677      -0.77229500       0.57576556
H        8.93828890       3.34977168       1.75811366      -3.81673421      -0.04803093       1.26372209
H        4.48313451       1.32695685       8.07891144      -1.07843616      -3.18868659       2.62894817
H        3.06352041       1.27131133       3.85791148       0.23929562      -1.19152052      -3.69499689
H        7.36547207       2.99564922       9.97518860      -0.56678627      -1.99949509       2.55483426
H        7.25542875       3.71393098       2.58171655      -8.17043762       0.03559833       0.35200190
H        2.83080969       0.87060201       8.91533842       3.34812303      -1.79117668       1.19251811
Pb       4.32179116       4.37114133       0.02490560       0.73896223      -0.23642856      -0.82972468
Pb       0.20261555       0.30177904       6.32499851      -0.96001963      -1.14871082      -0.19399618
Pb       9.01856021       8.70445390      12.61118159      -0.52373617      -0.01016169      -0.07887631
Pb       4.41627991       4.53047678       6.26530814       0.56466780      -0.14436970      -0.20545430
I        7.17207714       6.09238655       6.27550466      -0.01194926       0.09859836       0.13920029
I        8.62476696       8.77674391       2.81358870       0.12463680      -0.10575867       0.43210177
I        6.48754521       1.90910166      12.29603032      -0.05088232      -0.28610523      -0.03561462
I        1.85458609       2.62069291      12.62245196      -0.35200213      -0.15072318       0.22942614
I        1.69874871       2.65315134       5.95170252       0.71583570       0.93630260      -0.24059348
I        2.74931914       7.03992140       6.01736974      -0.33324341       0.34255454      -0.36370423
I        7.16469666       6.08396657      12.18553422       0.14873272       0.21871786       0.15813917
I        6.39210635       1.87429640       6.37811664      -0.09056875      -0.12130812       0.08173117
I        4.14010935       4.50413083       9.22866956       0.08979327      -0.09589047       0.43913102
I        0.45783046       0.02057263       9.34994900      -0.00672537      -0.04812727       0.01424751
I        2.62354393       6.88823692       0.29044324       0.01261444       0.34744537      -0.01970313
I        4.80492506       4.15242709       2.88622613      -0.16518686       0.10831966       0.69147616
48
Lattice="9.01938999 0.0 0.0 0.0 8.77776784 0.0 0.0 0.0 12.79618681" Properties=species:S:1:pos:R:3:forces:R:3 config_id=O-FAPI3_al_global_rattle_02__global_rattle__sev-0.554__seed-new phase=O-FAPI3 mode=active_learning seed=1435467266 source=O-FAPI3/CONTCAR energy=-210.17508659 stress="-0.04180280930360709 -0.01205111398414933 -0.001160295023573471 -0.01205111398414933 -0.0006955740993421442 0.0034185338113754105 -0.001160295023573471 0.0034185338113754105 -0.0037627619088523405" pbc="T T T"
C        4.49927571       0.43509464       3.08024102      20.50250800      -6.59508970       2.39469545
C        0.24957698       3.91854347       9.50077126     -11.22245236       3.58365585      -6.66640921
C        0.00286934       4.65594145       3.23467116     -17.67585325      -4.75727277       7.43949854
C        4.66704330       8.35548435       9.75751177     -18.14482460       6.14657709      -1.89341864
N        5.12914426       8.13295486       2.28679452       6.95499300       6.92165235      12.30130227
N        0.73775985       4.91492598       8.78694967     -18.19469953      -3.76335259      -3.81562013
N        0.91845116       5.04596980       2.75761396      25.68230970      12.40560556      -3.42964028
N        5.79109966       8.22128150       9.53070819      12.11862055      -6.65077522       0.50339769
N        3.41889042       0.73929126       2.99342362     -20.82481761       3.54348801      -1.47692153
N        7.72464068       3.57118499       9.53720418       7.31719721       5.49501690      -5.50662468
N        8.39941868       3.78414259       2.55790541      -4.96381966      -4.87574434      -1.82299855
N        3.84114985       0.60405851       8.85582463       4.16721744      -2.38942898       1.70602750
H        5.32221775       0.71166034       3.97584357      -2.10101202       0.27289509      -2.08300764
H        0.67246010       3.58139854      10.25701349       4.48827030      -3.56697153       6.72428802
H        8.57327978       5.33817862       3.97095325      -0.84402328      -1.02636316       0.58090620
H        3.68248778       7.91648088      10.33787349       3.33813835       0.13485899      -0.25201720
H        6.19344257       8.15513645       2.29063657      -1.83293230      -0.18687149      -0.21961668
H        1.53076861       5.02679986       8.95476129      17.05459046       3.36081199       2.68515266
H        1.46501979       5.75692537       3.67022853      -0.99742766      -1.50697336      -3.10238796
H        6.05970098       7.17432070      10.24928817       0.72851503       2.72306735      -1.84324646
H        4.61555747       7.89636830       1.65578230      -7.12574012      -4.12579594     -10.35784796
H        0.13092177       5.37268368       8.00197399       1.38151260      -0.57671910       1.34660388
H        1.80892020       4.71940989       2.30109925      -1.66461126      -0.37602806      -0.44707634
H        6.40094157       8.43486162       8.69099605      -0.66378942       0.16639487       1.04415820
H        2.78668855       8.76902852       2.43011386       1.06002712       2.20171391       0.67237756
H        7.06698212       4.00118203       8.82334177       0.95860408      -0.96918702       1.39693216
H        8.98573035       3.34551323       1.72587469      -1.86295364       0.66493266       1.56078686
H        4.50502701       1.18763357       8.23924395      -1.85629713      -0.66660037       1.01177697
H        2.58429091       1.46668609       3.55747455       3.30807064      -1.89821364      -0.96595180
H        7.57280115       2.97831805      10.23732783      -1.64453741      -3.37480239       3.49495333
H        7.29906230       3.72275782       2.70869849       2.53070321      -0.43885909      -0.66659795
H        2.86019405       0.76305004       9.13015389       0.56398852       0.28173924      -0.27304573
Pb       4.49029627       4.39743821      12.57132659       0.02649338      -0.23920363       0.25301077
Pb       0.14098181       0.09674215       5.99913952      -0.49755720       0.15845975       0.53590926
Pb       8.92299138       8.60707554      12.57945703       0.04600224       0.35017077      -0.29564490
Pb       4.46034116       4.66006577       6.15704370       0.36082693      -0.45142869      -0.12022000
I        7.33850021       6.39756259       6.33228901      -0.43744596      -0.78562353       0.30248107
I        8.66225732       8.62928549       2.99577825       0.12733066       0.00543919      -0.28980976
I        6.41848194       1.76630888      12.13740533      -0.05236223      -0.11168123       0.48333210
I        1.90392919       2.59105662       0.12913937      -0.14823954      -0.10887881      -0.02625540
I        1.73402652       2.64434241       5.88339827       0.57986123       0.61253007      -0.33342911
I        2.65949738       7.03118620       5.90919525       0.13437344      -0.15423639      -0.21917773
I        7.24178484       6.04565565      12.21595600      -0.11910500       0.12925083      -0.21174783
I        6.34151118       1.51839865       6.32411942      -0.04734165       0.37876185       0.01011577
I        4.29585166       4.30085511       9.59353696      -0.22784811       0.18175048      -1.02902118
I        0.36863374       0.03711486       9.39412041      -0.02203358      -0.05297624       0.00693705
I        2.69984165       7.02368060      12.65824967      -0.15871735      -0.04534415       0.15994937
I        4.85700726       4.40962350       2.88175463      -0.09971222      -0.02435139       0.73314199
48
Lattice="9.01938999 0.0 0.0 0.0 8.77776784 0.0 0.0 0.0 12.79618681" Properties=species:S:1:pos:R:3:forces:R:3 config_id=O-FAPI3_al_global_rattle_03__global_rattle__sev-0.589__seed-new phase=O-FAPI3 mode=active_learning seed=1952530707 source=O-FAPI3/CONTCAR energy=-212.46726825 stress="-0.022003006280542026 0.01338736986393554 -0.01268405467048493 0.01338736986393554 -0.01121621356640882 0.01745948694222764 -0.01268405467048493 0.01745948694222764 -0.0022363618863761167" pbc="T T T"
C        4.44659381       0.27327965       3.17827261      31.23344706     -14.23132403       5.76865335
C        0.09167894       4.09913059       9.59801997      -2.59656235       2.90453427      -4.20101172
C        0.03795386       4.78996875       3.32968937       7.23519708      -7.59522064     -12.75885509
C        4.43396612       8.53839960       9.73040753       6.99011197       4.51686408     -10.86919977
N        5.08254171       8.02180760       2.40983868      -0.75713607       1.27861377       1.64867788
N        0.61531478       5.05139815       8.88317098       0.41466397       0.11063438       0.50009661
N        1.33842155       5.14964270       3.08320295      -6.10562859       1.30926956       4.52883019
N        5.71721922       8.12830870       9.50798396      -1.31680039      -1.23620202       3.86406747
N        3.55194212       0.76892658       2.93000560     -33.42296704      14.51180964      -3.36512253
N        7.95937373       3.58375747       9.38100855      -8.42226126       1.13994002      -2.03650220
N        8.45647814       3.80595411       2.22329190      -1.79687426       4.92516256       7.06874536
N        4.00886378       0.51035979       8.63393875     -10.76051991     -11.89619618      16.58267080
H        5.10976331       0.84185210       3.97264120      -0.22943523      -1.67114819      -1.04491016
H        0.51248832       3.54987327      10.22839788       4.92602190      -3.80727001       5.94289287
H        8.33910593       5.14360246       3.81893340      -5.35477093       3.47100903       5.02711598
H        3.92893377       7.96399757      10.32142719      -4.03187391      -2.68700109       3.85433430
H        6.09392316       7.93343049       2.46875053      -0.05760485       0.06921485       0.40015208
H        1.57908197       5.28794907       8.75198831       1.01849498      -0.18988779       0.89719451
H        1.54632878       5.81209197       3.83842929       1.63841591       0.27235818      -0.38250891
H        5.91793123       7.39739819      10.31296891       1.20256189       1.55986315      -2.02201635
H        4.69453783       7.64533844       1.53773632      -0.38987411       0.38090354       0.32996621
H        0.14007131       5.17915461       8.04876683      -1.62163731       1.04389098      -2.19463090
H        1.91942053       4.76764460       2.41073774       1.51330879      -0.99359710      -1.64079289
H        6.35231344       8.64800548       8.86059057      -0.33404916      -0.87621449       0.84354574
H        2.65944687       0.26740276       2.64100922       1.07627301       0.49183303      -1.44260606
H        6.96256699       4.11184677       8.85931735       3.86454758      -0.94639482       0.78808130
H        9.01225457       3.29420998       1.54580163       0.03618288      -0.17564813      -0.18102971
H        4.19105952       1.05714854       8.04127683       4.92442715      10.35456055     -11.06719086
H        2.87555921       1.38361198       3.84678456       2.22778787      -0.58125835      -2.00677759
H        7.30224236       3.02517693       9.99040544       2.19236264      -0.13619505       0.40653829
H        7.36045936       3.84646369       2.55779702       2.68601162      -1.13626231      -1.88052678
H        2.75071462       0.56305413       8.90089037       3.24518381       0.19778499      -1.21495911
Pb       4.59917826       4.20548747      12.61963539       0.12136095       0.36096527       0.24166089
Pb       8.77996451       0.02698461       5.95915924       0.31246852       0.09174071       0.70969862
Pb       8.89850572       8.67024203      12.50989542       0.56181373      -0.18716179      -0.09202362
Pb       4.34135259       4.49439067       6.20748230       0.04149118       0.06348008      -0.10024581
I        7.03641550       6.29230601       6.34150995       0.02866777      -0.07600290       0.09642979
I        8.74079979       0.00668883       3.02808926       0.09845691      -0.02210590      -0.60645702
I        6.47501060       1.69402036      12.36822487      -0.47336958       0.37878784      -0.09822540
I        2.07933062       2.68259812      12.74987024      -0.65167378      -0.52235487       0.14238107
I        1.72537774       2.77794057       5.74869473       0.15642110      -0.41135549      -0.11493612
I        2.70827280       7.12202513       5.74189740      -0.13176752       0.09833630       0.15982993
I        7.17230515       6.13522979      12.35251908       0.07446199       0.12568759      -0.09217996
I        6.43254371       2.01108694       6.30436249      -0.06955373      -0.07347095       0.11960153
I        4.14837634       4.50714801       9.58790190       0.26692170      -0.04149310      -0.57986249
I        0.54905068       0.13020019       9.42088210      -0.03892095       0.03274920      -0.14562073
I        2.47300318       6.93663033      12.63202223       0.34668532      -0.21889293       0.22858506
I        4.90530889       4.24348265       3.10009801       0.12953168       0.02266456      -0.01155801
48
Lattice="9.01938999 0.0 0.0 0.0 8.77776784 0.0 0.0 0.0 12.79618681" Properties=species:S:1:pos:R:3:forces:R:3 config_id=O-FAPI3_al_global_rattle_04__global_rattle__sev-0.625__seed-parity phase=O-FAPI3 mode=active_learning seed=2119906931 source=O-FAPI3/CONTCAR energy=-210.27452696 stress="-0.0009730982338398632 -0.0034307833909443604 0.01114495171018289 -0.0034307833909443604 -0.0038745596642774335 0.0008273436166720028 0.01114495171018289 0.0008273436166720028 -0.006593337346743539" pbc="T T T"
C        4.75206368       0.20950645       3.18578333      -7.35632163       8.29092887       2.84496511
C        8.93106419       3.99333962       9.46043141      21.28733012       2.47192422       2.44348560
C        0.00552284       4.79534162       3.35186350       2.45800687      -0.86536440      -8.91079787
C        4.40728181       8.35411423       9.58875912       2.82646650       3.50748543      -0.10713505
N        5.09807932       8.06365438       2.47587174       4.08348596      -3.74061667      -5.09485025
N        0.80557665       4.93121585       8.65362709     -19.46754935      -6.04696639      -5.59958725
N        1.36824281       5.31619426       2.89488045     -10.55040324       4.22728898       7.80783489
N        5.78940663       8.03182514       9.71233624      -4.68671147       6.15332477      -5.99055893
N        3.30387850       0.74575336       2.97390995       3.11080061       0.77143401       3.14037858
N        7.85553981       3.62237158       9.62402899      -4.46785320      12.35333368     -17.96740762
N        8.41097486       3.95640971       2.24958384      -2.40504270       4.71597295       8.30473834
N        3.94704398       0.84025543       8.90072120      -7.34415515      -8.95551211      15.82264676
H        5.32894928       1.05222140       3.87841891      -0.90234647      -2.68834734      -1.29798885
H        0.64765876       3.38000196      10.29877755      -1.21675313       1.82363351      -2.01517064
H        8.45037075       5.52426537       3.91623932      -0.49922313      -0.50471318       0.66890992
H        3.81879159       7.95340404      10.41525561      -0.72816777      -0.03560742      -0.38470282
H        6.29618523       8.05900550       2.54522938      -2.63781113      -0.67805026      -0.77236583
H        1.51800302       5.07125346       9.07996046      11.63324254       3.17759170       6.99938158
H        1.47526329       5.80259970       3.76775416       2.78457163       0.59756516       0.27665713
H        6.19455042       7.21735722      10.00355340       0.89284919      -3.13889897       1.40236993
H        4.42304328       7.84500290       1.44138129       1.73752340      -0.01801022       2.93050796
H        8.95708531       5.44904437       8.27683326       2.82184386       1.10434193      -0.35214814
H        1.67404586       4.67825348       2.36834922       4.91255090      -6.18888983      -5.05961273
H        6.21264863       8.49380231       8.79603151       0.09264660      -1.21986217       2.36317485
H        2.60427716       0.28598143       2.36846835       0.66961150      -0.00955914       0.57786417
H        7.35399913       4.05653858       8.85698256      -2.88144779      -0.47784466       0.03421710
H        8.99584099       3.42520755       1.68690813       1.35822813      -1.68161006      -1.54220065
H        4.28146492       1.05569099       8.16338074       6.11375255       3.80507342     -12.83361485
H        2.92846903       1.41905880       3.79688711       0.95954647      -1.92518790      -2.33977172
H        7.61005745       3.13836326      10.19313044      -7.78105305     -14.23862620      16.18718802
H        7.39268970       3.76956737       2.59326703       1.69851470      -0.35534744      -1.39616265
H        2.82677108       0.90359431       9.01113054       2.67938972      -0.15467752      -0.38018445
Pb       4.47798489       4.34451722      12.69257749       0.55079701      -0.16132877      -0.00809732
Pb       0.15549816       0.08848157       6.07901601      -0.43690865       0.18216749       0.31353546
Pb       0.13668444       8.74139286      12.68642125      -0.63233397       0.14278227      -0.43925841
Pb       4.39722546       4.61075350       6.28080880       0.36114931      -0.40280565      -0.11378353
I        7.26696211       6.23400460       6.48167029      -0.14359281      -0.05242682       0.18704243
I        8.38892877       8.74693321       2.92455915       0.19702025       0.03218559       0.36162732
I        6.43891374       1.82150972      12.16187087      -0.13099285      -0.00953912       0.28950492
I        1.86666801       2.70707712       0.18211648      -0.04732287      -0.20568447      -0.18588209
I        1.85169078       2.70271088       5.95674025      -0.02328652       0.01548343      -0.16985519
I        2.62715809       7.04122305       5.82237901       0.01938576       0.20827510       0.02584094
I        7.27759741       6.11825130      12.38611842       0.02273554       0.05874584      -0.02701978
I        6.32634391       1.81655695       6.40221122       0.16852640       0.03783455       0.05517326
I        4.14738565       4.42544060       9.36773084       0.13203763       0.08551079       0.24940874
I        0.47686615       8.74146791       9.47953662       0.03462818       0.09412904      -0.23842570
I        2.60329711       6.97659709       0.16559443       0.58686673       0.00966386      -0.01015178
I        4.88885175       4.44495402       3.03305700       0.14576884      -0.11119987      -0.04971888
48
Lattice="9.01938999 0.0 0.0 0.0 8.77776784 0.0 0.0 0.0 12.79618681" Properties=species:S:1:pos:R:3:forces:R:3 config_id=O-FAPI3_al_global_rattle_05__global_rattle__sev-0.661__seed-new phase=O-FAPI3 mode=active_learning seed=1121069644 source=O-FAPI3/CONTCAR energy=-212.21806605 stress="-0.040646083249849904 0.003314163096044099 -0.004635897911362158 0.003314163096044099 -0.0013104056398923582 0.011568558677847363 -0.004635897911362158 0.011568558677847363 -0.0012140048136695418" pbc="T T T"
C        4.56153295       0.46164045       3.12347741       9.02413596      -5.34662381      -0.07657923
C        0.14321258       3.90024174       9.63603092      -5.88732805       8.61110536     -10.24830531
C        8.92777959       4.95866410       3.16590355     -23.94640889      -7.44904455       4.07700171
C        4.39173860       8.39478716       9.35631024       7.08161900     -10.04853511      11.07859496
N        5.30724132       8.20609973       2.39770252     -20.59518980       1.29472020      -2.16259864
N        0.69525048       5.05335840       8.77533610       3.34434750      -6.52943524       7.47615105
N        0.97157536       5.09487584       3.02355468      28.53177906      10.23689918      -0.91641496
N        5.81960833       8.22354915       9.72124776      -1.15117515       2.47249331      -6.04123584
N        3.33637491       0.60602166       3.16564597      -4.67156212       3.82897735       1.45717162
N        7.74069727       3.70460135       9.38076887      16.67366103     -10.43048972      12.45572617
N        8.50860823       3.79300076       2.51499634       0.69682438       1.04362990       0.93100600
N        4.03486353       0.62634017       8.87052105      -9.96182766       7.55972487      -3.39863388
H        5.28432016       0.70171837       3.95269220      -1.09188144       1.04893809      -0.43401164
H        0.76189475       3.59978787      10.33970782       2.50865375      -2.39420636       3.65708651
H        8.36749545       5.33177901       4.15728506       0.40159445      -0.36979834      -2.26334477
H        4.08319294       7.71037846      10.31949931      -1.59843017       1.62015422      -2.47758863
H        6.13879498       8.26737373       2.47985084      14.45047426       0.73309224       0.84901814
H        1.73834428       5.29686983       8.75632071      -1.59026624      -0.67868081       0.26269412
H        1.62374175       5.98882943       3.62674389      -2.02809836      -2.54988365      -1.13117377
H        6.03636854       7.33989538      10.06672075       0.26603603      -2.43934146       0.87073194
H        4.61069394       7.74431146       1.53554690       2.81885376       1.02710810       2.25206897
H        0.12199347       5.41904591       8.15635256      -3.66377029       2.27577438      -4.01879008
H        1.58690214       4.85279694       2.26039291       0.04598315      -0.86316488      -0.47067470
H        6.45670178       8.37991393       8.82409713      -1.01613616       0.02251759       2.26919513
H        2.78024969       0.40482670       2.36972635      -1.08185220      -0.65898211      -1.01306983
H        7.18181871       4.12510050       8.93225741      -9.99112512       8.04328289      -8.44181092
H        8.93671916       3.32306102       1.71131391       0.98866145       0.69607880       0.22791286
H        4.45379191       0.86332621       8.03610346       1.94130925       1.96871287      -2.69768586
H        2.91741378       1.44165251       3.76514067       0.80529141      -1.90653919      -0.91707397
H        7.56478426       2.97778225      10.13308178      -1.49420505       0.87063825      -1.31292721
H        7.58945184       3.66014170       2.41972322      -4.88567323      -0.51998940       0.00478932
H        2.81693967       0.96025208       8.81136095       3.63512385      -1.40659326       0.39417970
Pb       4.41336692       4.19680547      12.75966688       0.03587513      -0.14196121      -0.75223438
Pb       8.90388822       0.05184676       6.08438490       0.08691353       0.08747313      -0.28188134
Pb       8.82028380       8.62905130      12.33064989      -0.06890464      -0.02366127       0.33691232
Pb       4.47108154       4.41685770       6.07825323      -0.10343753      -0.02719726       0.27575398
I        7.15968594       6.13196437       6.42082685      -0.02681203       0.09654165      -0.01790890
I        8.68046693       0.05392429       2.95495419       0.14785987      -0.06053208      -0.08163947
I        6.22737288       1.66421062      12.25978422       0.32239520      -0.12740762       0.02658467
I        1.59329490       2.63929142       0.11733041       0.56768306      -0.11589892      -0.30609706
I        1.76860452       2.76899365       5.94694196      -0.00644476      -0.31732757      -0.14323538
I        2.46848122       6.92403090       5.78920797       0.12432686       0.00855548      -0.12189993
I        7.43675420       5.94228014      11.93150227      -0.18228889      -0.02888674       0.44058104
I        6.21327494       1.65015680       6.43873589       0.00967116       0.21005184      -0.15860604
I        4.12493639       4.49867326       9.27814333       0.12770966      -0.00814529      -0.09526953
I        0.18491238       0.01686850       9.26069163       0.63991869       0.23169693       0.02672923
I        2.90753151       6.86659551       0.03105993      -0.29045517       0.50217832       0.01026236
I        4.84968803       4.44587718       2.85159850       0.05657147      -0.04801908       0.60053946
48
Lattice="9.01938999 0.0 0.0 0.0 8.77776784 0.0 0.0 0.0 12.79618681" Properties=species:S:1:pos:R:3:forces:R:3 config_id=O-FAPI3_al_global_rattle_06__global_rattle__sev-0.696__seed-new phase=O-FAPI3 mode=active_learning seed=3529289043 source=O-FAPI3/CONTCAR energy=-210.02384531 stress="-0.034226226240037766 0.006061037936723338 -0.007623618233738242 0.006061037936723338 -0.0019313371321414805 0.005055805711329976 -0.007623618233738242 0.005055805711329976 -0.0017490761527906575" pbc="T T T"
C        4.50289230       0.44018487       3.17102433      13.34163354      -3.99028280       0.75724545
C        8.91682951       3.93053574       9.52626766      21.00561032       5.07980905       0.27933637
C        8.92342305       4.61137286       3.18500442       4.17025117       6.22203006       2.45306220
C        4.29066218       8.42969028       9.80682214      15.87766032       1.08044226      -2.51023036
N        5.05130242       8.33604888       2.36917406       5.47596584      -4.54012299      -1.78999607
N        0.85343010       4.90868683       8.66023620     -21.60815798      -2.28463360      -7.99221926
N        1.38641670       5.24792895       3.05082143      -6.39139475      -8.80890883      -7.71279652
N        5.59128491       8.16698784       9.65862796       5.67741181      -2.71602737       0.56985274
N        3.35635259       0.55748183       3.09054310     -19.09498623       5.74437795       0.80108426
N        7.80654486       3.75868645       9.46778883     -16.87704689      -5.36190539       1.13366774
N        8.24570356       3.75000181       2.53149101       8.01887496      -0.03441071      -1.36488086
N        4.02360408       0.39709208       8.93354086      -9.68395816       7.95392684      -6.40786323
H        5.25490802       0.74297695       3.99447981      -1.58677370       0.48714646      -0.89700333
H        0.64267267       3.50394711      10.35485569      -1.86064143       0.45574298      -1.44696336
H        8.39585331       5.37941394       3.71789817      -0.49175466      -0.13086533       1.38294197
H        3.70881673       7.88964848      10.17346309      -8.96855067      -7.94500889       7.27455585
H        6.23166954       7.92918345       2.72460875      -3.88322547       1.58993662      -1.50159595
H        1.54065378       4.85943662       9.10224016      14.84471995       0.59227890       8.50218597
H        1.76979048       5.79316123       3.73573285       1.43814827       1.81582114       2.78527631
H        6.14865958       7.45310506      10.24106534      -1.37263183       1.10920125      -0.71974897
H        4.54114949       7.64661183       1.58184273       1.15695634       2.42065849       2.54349349
H        0.10930878       5.52662834       8.07526619       3.13934927      -0.92267828       1.48404095
H        1.84646512       4.60225179       2.11917560      -0.54318325       2.69448426       3.78638224
H        6.36226615       8.51458113       8.74070361      -3.29151429      -0.74118263       3.18975638
H        2.51234558       0.18068096       2.35908798       3.35314148       0.73021445       2.19216272
H        7.14096637       4.05135110       8.73414070       0.05098840       0.23384002       0.20925859
H        8.89317797       3.62026790       1.75211225      -0.72098828      -1.92460048      -1.25632170
H        4.38659304       0.63200438       8.05554215       1.93357587       0.57561917      -1.33108078
H        2.84000730       1.35589311       3.78458511       1.39835884      -2.27667437      -1.82907813
H        7.33173423       2.95380560      10.30511474       0.80467900       1.96895471      -2.02044259
H        7.32152275       3.68839689       2.45509828      -5.49878223      -0.13283032      -0.15864204
H        3.00559636       0.52756737       8.88518343      -0.29548219       0.55454828      -0.41944329
Pb       4.53006835       4.21561570      12.58019537       0.61230069      -0.01583805      -0.01473642
Pb       0.01394524       0.39684912       6.26754466      -0.22937404      -0.82129645      -0.34001168
Pb       0.28833484       8.64332333      12.65229100      -0.87778218       0.04313205       0.00213242
Pb       4.39939282       4.41158261       6.25588106       0.23892193       0.57636320      -0.14293178
I        7.00806656       6.12722420       6.50673201       0.26677051       0.15088111       0.09648281
I        8.63795791       8.32882206       3.03234208      -0.02158859       0.27071533      -0.30910469
I        6.48516256       1.50193226      12.26929473       0.01737860       0.71857201      -0.19660206
I        1.89362093       2.61935694      12.77423239      -0.46574467      -0.17398021       0.21307615
I        1.91861727       2.59403220       5.91159428      -0.07801472       0.13557657      -0.26601120
I        2.60253010       7.09477209       5.94685763       0.01073787      -0.01652042       0.04273544
I        7.10605989       5.93933292      12.26202816       0.33169027       0.24689988       0.13579960
I        6.19853428       1.77909308       6.59926571       0.15610280      -0.02234279      -0.15882895
I        4.17592002       4.46218741       9.29528190       0.11998896      -0.09390466       0.63732318
I        0.30224003       0.02527804       9.23426802       0.07704986      -0.01341869       0.61037055
I        2.82404722       7.03895628      12.70641465       0.21125606      -0.45660906       0.12196742
I        4.80924968       4.27120486       3.05461218       0.11205326      -0.02713072      -0.41765760
48
Lattice="9.01938999 0.0 0.0 0.0 8.77776784 0.0 0.0 0.0 12.79618681" Properties=species:S:1:pos:R:3:forces:R:3 config_id=O-FAPI3_al_global_rattle_07__global_rattle__sev-0.732__seed-new phase=O-FAPI3 mode=active_learning seed=1832032695 source=O-FAPI3/CONTCAR energy=-203.76706897 stress="-0.049714331282794864 -0.003704353772829688 0.007575141231270675 -0.003704353772829688 -0.024514506284824204 -0.0161928284517382 0.007575141231270675 -0.0161928284517382 -0.03480305303179219" pbc="T T T"
C        4.71912370       0.41742499       3.19889046     -13.58615809      -9.32862964     -15.95070109
C        8.97836493       4.05684343       9.91450909      26.28311321      12.25136473      -1.11104248
C        0.01712232       4.84637012       3.19792371      -9.87012103     -10.37392416      -6.01034951
C        4.65725709       8.48622253       9.53967845     -23.25134511       4.41545844       7.55305516
N        5.12162227       8.07095722       2.43765631       0.48654398       4.61195325       2.42521526
N        0.53705877       4.98805874       8.86136295       2.07124503       0.53887471       0.97297502
N        1.10444703       5.21819821       3.00635609      -7.58719688      11.10318985      15.06572933
N        5.67276076       8.07614637       9.37675970      19.98759247      -5.73842525      -3.89419599
N        3.15445661       0.70080066       3.06989709      15.63961711       2.60554876      11.44731423
N        8.01987977       3.68645297       9.61916964     -28.67717559      -6.14128042      -8.71496456
N        8.51005412       3.77368994       2.33988001      -9.04805906       7.69053809      13.87678669
N        3.90116721       0.62135835       9.03790477      -4.24608807       1.40959820       0.09507130
H        5.06156279       0.71325903       3.94004842       6.69089318       5.42860971      12.21060451
H        0.75946195       3.48830934      10.28424684       1.15771716      -0.46225807       2.16441339
H        8.35900414       5.29014887       3.74821208      -3.30921213       2.05392791       3.38872975
H        3.83053294       8.05960221      10.41878454       2.73367958      -0.19813990      -1.58414166
H        6.20406010       8.21996088       2.57445881      -1.09482897      -1.69022284      -1.31284778
H        1.78336944       5.16798920       8.90040898      -4.64650954      -0.49418448      -0.17060891
H        1.37562410       5.92236848       3.54367463       2.30873027       4.36362230       2.98076799
H        6.13483791       7.43093962       9.92574951       0.21314631      -2.77850524       2.55053097
H        4.43334099       7.67265398       1.64569532       1.73506809       0.84786655       1.34136913
H        8.84829920       5.43710468       8.00506938       2.31758425      -1.50075749       2.87386555
H        1.58333515       4.93243447       2.48916250      17.81771495     -10.49618867     -18.96272329
H        6.56868671       8.41858571       8.99030552      -0.68640162       1.23095413      -1.50829025
H        2.76369848       0.38554792       2.41165126      -7.78603465      -5.42592769     -12.36280411
H        7.21222289       4.32545867       8.80978779       2.62046240      -1.95153665       2.15132027
H        8.88210694       3.40195050       1.65714752       5.21267094      -4.81052782      -8.92236934
H        4.36912059       1.05054546       8.34317893       1.38866685       2.86070418      -3.74751796
H        3.04944629       1.40580165       3.68979390      -1.96907713       3.01061420       1.94785036
H        7.40842493       3.16197063      10.17270043      -1.26532853      -2.04739073       1.30751430
H        7.22588790       3.59120409       2.64301246       4.13452733       0.56817256      -1.28529624
H        2.71248115       0.80517192       9.03255328       3.75926778      -1.20963384       0.57802577
Pb       4.64339564       4.30056211      12.39410426      -0.39589912      -0.00172101       0.62822135
Pb       0.16908605       0.19270088       6.23839546      -1.02640528       0.80805294      -0.95553877
Pb       8.98770108       0.00748928      12.46496737       1.56739333       0.72492400       0.48167547
Pb       4.45668326       4.61696921       6.30987509      -0.00736850      -0.35691619      -0.58141781
I        6.88111351       6.39293847       6.36549947       0.61702257       0.16640207       0.19568406
I        8.67126706       8.68196123       2.84071982      -0.26399734       0.04382786      -0.06482497
I        6.69097133       1.76758288      12.20455998      -1.26049891       0.83073962       0.00082885
I        1.86669354       2.56783741      12.70368753       0.85103520       0.43446377       0.02410166
I        2.01436134       2.70333814       5.85866644      -0.29316024      -0.02390847       0.09339722
I        2.37196148       7.25856050       5.75507580       1.31296430      -1.20282780      -0.02650581
I        7.45842491       6.49665771      12.17314777      -1.40916504      -1.93595299      -0.24335339
I        6.43715676       1.84673526       6.45188090      -0.45579539       0.54069821       0.10529188
I        4.15385859       4.48482650       9.38813653       0.03070111       0.04683739       0.22448724
I        0.32964662       0.10154043       9.11786712       0.18823175       0.05764606       1.10117831
I        2.49921127       6.93792181       0.16438890       0.78107871      -0.34868439      -0.01946075
I        4.90950642       4.34642112       3.12603358       0.22915835      -0.12704575      -0.35705038
48
Lattice="9.01938999 0.0 0.0 0.0 8.77776784 0.0 0.0 0.0 12.79618681" Properties=species:S:1:pos:R:3:forces:R:3 config_id=O-FAPI3_al_global_rattle_08__global_rattle__sev-0.768__seed-new phase=O-FAPI3 mode=active_learning seed=3260556419 source=O-FAPI3/CONTCAR energy=-214.78653446 stress="-0.015447731260515971 -0.013625654204777673 -0.002613449962782031 -0.013625654204777673 0.008829127947789363 -0.00450180562889412 -0.002613449962782031 -0.00450180562889412 -0.0036334763124262915" pbc="T T T"
C        4.78231886       0.36375772       3.17965011      -8.66221851      -5.02466997      -9.09389132
C        0.07043332       3.76899690       9.64724703       4.23578935       6.78723819      -3.19188601
C        8.99114857       4.78452636       3.17900160     -13.13037390      -5.64165463       0.41620436
C        4.37138716       8.42603347       9.82245050       1.21709692       4.92695190      -7.37662855
N        5.28241175       8.08039868       2.39194718      -2.91795926       4.76727321       5.63181045
N        0.64696391       4.88550079       9.01391295       1.26665117       1.50727003      -3.73391688
N        1.08144200       5.19278332       3.05325309       7.00026978       3.12762365       0.39522844
N        5.63078199       8.15865406       9.59640305       4.32113223      -3.12721804      -1.20092443
N        3.35303832       0.71895940       3.02322927       8.68504922       2.78874857       9.78797485
N        7.85207113       3.62382026       9.45740664       0.44012643       5.48208668      -6.57218121
N        8.29687128       3.69212200       2.42424501      15.22355911       4.46391473       2.03107471
N        3.90569756       0.70313423       8.75678291      -1.48677492      -3.13985253       5.38380994
H        5.02428871       0.78398932       3.97741456       3.95980680       3.51891594       6.85140000
H        0.75447811       3.49363885      10.41517103      -0.15207261      -1.51278662       1.01952449
H        8.20931898       5.20214516       3.93337149       1.67028995      -0.45456363      -0.75819345
H        3.65133228       8.01893016      10.50834480      -0.13627500      -0.20367416       0.67804802
H        6.18630038       8.21228235       2.14778864       3.89881788      -0.24113582      -1.10670579
H        1.75290979       5.22194438       8.93548153      -3.14355911      -1.90284152       0.97750390
H        1.50700405       5.78853859       3.79673100       0.07498471       0.02650552      -0.56803148
H        6.20032391       7.27861296       9.99272463      -1.83705103       2.04787565      -0.08225102
H        4.59604709       7.71722529       1.82910166      -1.85151818      -1.42242924      -2.45322403
H        0.19126266       5.44316362       7.95626831       0.73192114      -2.20154911       3.78199361
H        1.60090050       4.95262676       2.24698558       1.57972308      -0.38717651      -1.07117132
H        6.36424456       8.46433982       8.65799929      -3.01125451      -0.25800883       3.02913827
H        2.87590583       0.54636856       2.31458054      -5.18982427      -2.64312531      -8.65990101
H        7.17348912       4.02548916       8.73878265       1.71417391      -0.14731349       0.90697494
H        8.95392230       3.30730896       1.77892359      -0.57630736      -0.89852062      -1.14672804
H        4.46756073       0.98708677       7.87046297      -1.09349692      -0.52309601       1.85032955
H        2.81572223       1.44120450       3.69222607       1.88077335      -1.69923636      -0.97897761
H        7.48906423       3.02111932       9.95766678      -5.25721610      -8.00483479       6.45943000
H        7.44389810       3.71333067       2.52934201     -11.58555919      -0.24482557       0.69595902
H        2.91656352       0.96512330       9.16299607       1.98934871       0.03809218      -2.19526184
Pb       4.44667580       4.25631224      12.26165503       1.74624495       0.88507077       0.58003347
Pb       8.80260471       0.13764172       5.94823360       0.91136759      -0.25251874       1.00229734
Pb       8.95040879       8.68736842       0.04302308       0.02259921      -0.40923677      -1.35350324
Pb       4.54560894       4.43549448       6.18454271      -0.41302629       0.44228454      -0.70432945
I        7.26025682       6.15251567       6.29482907      -0.02700679      -0.12474228       0.26051211
I        8.63551483       8.66512670       2.94716144       0.05055879       0.04277916       0.12702498
I        6.51050695       1.65419493      12.16608798      -0.31171817       0.16202099       0.23302463
I        2.07923276       2.92929298      12.72904675      -2.03555489      -1.46506242       0.52537314
I        1.89402076       2.50217303       5.87406486       0.05717372       0.28041955      -0.12018040
I        2.83006378       7.23695473       5.98310053      -0.06963731      -0.54375363      -0.13066630
I        7.23739953       5.75413246      12.20104896       0.54044412       0.93538607       0.12903793
I        6.34390286       1.74256563       6.52364498      -0.23559024       0.29791876      -0.07696881
I        4.19562522       4.40950132       9.29857871       0.02767924       0.11715839      -0.40959108
I        0.37059086       8.69715545       9.24221202      -0.17397135       0.06514879       0.03955386
I        2.65580186       7.03172472       0.12532253       0.08502787      -0.05691348      -0.03515332
I        4.82366844       4.61350656       2.91280343      -0.03264334      -0.17994321       0.22700459
48
Lattice="9.01938999 0.0 0.0 0.0 8.77776784 0.0 0.0 0.0 12.79618681" Properties=species:S:1:pos:R:3:forces:R:3 config_id=O-FAPI3_al_global_rattle_09__global_rattle__sev-0.804__seed-new phase=O-FAPI3 mode=active_learning seed=2804098496 source=O-FAPI3/CONTCAR energy=-206.46203113 stress="-0.049242722509960125 -0.003264887879457441 0.00013259662963620246 -0.003264887879457441 -0.016828048537206566 0.011785901320025055 0.00013259662963620246 0.011785901320025055 -0.010098111381703667" pbc="T T T"
C        4.41981741       0.34441126       3.27152366      24.04142241      -9.79292979       1.22731503
C        0.15835974       4.34384528       9.47168911     -24.30728679     -29.33365081      26.74839457
C        8.80903058       4.98401869       2.92105825       4.85189335      -3.46208320       4.17149592
C        4.54402099       8.43553084       9.46325169      -1.35338160      -0.43712403       5.82018609
N        5.12349542       8.24131236       2.45675360       0.59399950      -2.40802226      -2.30557102
N        0.77005035       4.93800580       8.91335130      11.99975320      22.38842813     -24.57997966
N        1.17147806       5.13143691       3.18094880      -4.84971062      -5.78673426      -7.42509694
N        5.83601081       8.10448733       9.77682787      -0.08836059       8.94606930      -7.27966149
N        3.46940577       0.88143904       3.10501162     -21.60666199       7.84875167      -5.50414999
N        7.83452066       3.79251930       9.50019364      11.84409401      -5.84068180      14.67422101
N        8.43564894       3.72359776       2.53353174      21.32130314       3.33305871       0.42673278
N        3.85339692       0.61940213       8.89805320       1.68603513       0.75339913      -5.74712825
H        5.30832816       0.82727477       3.82632333      -1.58151746      -0.63218737       0.74669875
H        0.51466840       3.61708437      10.37907874       0.68452723       2.00313482      -1.24789818
H        8.42487834       5.10709528       3.96154256      -1.54543752       1.53775178      -0.74678585
H        3.95939315       8.19739623      10.42090487       0.00862340      -1.06221679      -1.16318642
H        6.22603999       7.89661890       2.51023334      -3.20235198       1.78596990       0.97609415
H        1.58809946       5.21774220       8.72190947       8.92433254       2.18565644      -0.27663954
H        1.54494737       5.78838401       3.67999062       2.54970813       5.48338279       3.86977048
H        6.02503748       7.20878424       9.93019734       1.04877152      -5.21016189       1.19879960
H        4.79491309       7.71758430       1.50938074      -0.17141088       1.72255996       2.67350560
H        0.25338371       5.37444730       7.94968941       0.43546369      -0.34046844       1.33586674
H        1.77851430       4.64648156       2.47760230      -0.16840441       0.56523180       0.86810006
H        6.59773771       8.66962899       8.88709966      -1.97872268      -2.34847020       3.12225507
H        2.76209078       0.51656453       2.33838733       1.35681380       0.74288768       1.27150790
H        7.36671323       4.01558977       8.88507787     -11.93796528       5.17636409     -14.78167796
H        8.67932219       3.18300523       1.70239113       2.01133346       0.14883049      -0.33790210
H        4.20521879       0.89365840       7.83689281      -0.54624168      -0.13740692       2.95545761
H        2.91315798       1.44836558       3.73488139       0.31048383       0.79224064       0.77789518
H        7.41803211       2.80510530      10.13648313       2.12699076       3.85800628      -1.91919540
H        7.66241303       3.65472336       2.45465617     -24.48334484      -1.82396568      -0.93185928
H        2.79915713       0.68068956       8.86695002       0.91881080      -0.56350142       0.92844951
Pb       4.34556663       4.26240585      12.77325681       0.06153373      -0.21274099      -0.42297111
Pb       8.85053393       0.31904728       6.29623013       0.41071916      -0.49966662      -0.70461963
Pb       8.80449770       8.61251460      12.59624486       0.06365505       0.01006703       0.24404431
Pb       4.47799220       4.43655150       6.10585959       0.26678114       0.67421996       0.20733217
I        7.27237068       6.12595239       6.26669333       0.43640263       0.25467902       0.32391508
I        8.46463518       0.10536894       3.08544779       0.34992260      -0.06358420      -0.31351899
I        6.33679170       1.68200878      12.55468476       0.13078516       0.07251268      -0.25003196
I        1.58557846       2.73067106       0.04951062       0.09752777      -0.39365245      -0.10716195
I        1.95256291       2.88913540       5.76125508      -0.68193598      -0.61175819       0.01445824
I        2.72778516       6.97677107       5.60610298      -0.03287537       0.39159645       0.48280284
I        6.93399852       6.13664968      12.36739644       0.39099209       0.03177406       0.21559243
I        6.33120572       1.88567099       6.44576841      -0.16681833      -0.12295141       0.11906262
I        4.21478584       4.39363919       9.51644761      -0.03108014       0.04212929      -0.38181428
I        0.24637266       0.06717178       9.25543688       0.25373121      -0.00685775       0.58025885
I        2.69497046       6.80770239      12.72503310      -0.37902197       0.51369172       0.03724560
I        5.00410927       4.62259848       2.95022562      -0.06388032      -0.17157732       0.40939181
48
Lattice="9.01938999 0.0 0.0 0.0 8.77776784 0.0 0.0 0.0 12.79618681" Properties=species:S:1:pos:R:3:forces:R:3 config_id=O-FAPI3_al_global_rattle_10__global_rattle__sev-0.839__seed-new phase=O-FAPI3 mode=active_learning seed=930366019 source=O-FAPI3/CONTCAR energy=-206.24158227 stress="0.012531951970422861 0.012758052361164502 0.011702875629677895 0.012758052361164502 -0.020889444026020332 -0.0025947914768124423 0.011702875629677895 -0.0025947914768124423 -0.03194995296738261" pbc="T T T"
C        4.52780647       0.45552103       3.30538301      -8.75521807       4.24148531       1.82036140
C        8.93141639       4.10421722       9.54182322       3.52795572      -2.71030858       3.27701905
C        0.08902003       4.79448026       3.28112324      -2.08164048      -5.35676903      -7.68011893
C        4.25319184       8.34089851       9.66732719      16.08774344      10.54298529     -24.26368911
N        4.99464947       8.30745434       2.69735352       6.01096265      -8.44193750      -9.07004958
N        0.67989875       4.87486425       8.76246826      -4.98508988       0.23830247      -1.74932799
N        1.25678228       5.22203708       3.11424407       1.26784572      -3.02861444      -4.30028649
N        5.70836507       7.89842291       9.25821966      -2.22377676      -0.04926719       3.23403502
N        3.13907476       0.77425258       3.25337023      16.35419284     -19.58609937     -20.61873830
N        7.62369955       3.68212904       9.55193527       8.85879599      -2.98147130      11.93291552
N        8.30006505       4.02893461       2.45007284       1.91516944      -3.68951109      -1.27186468
N        3.95158732       0.53357435       8.65824332      -6.53695623     -21.38056886      21.43209628
H        5.27060627       0.83285796       3.89234769       1.11247238       2.55378402       2.50300052
H        0.71544228       3.58541270      10.29254043      -2.59584567       0.91085802      -0.66781392
H        8.46755332       5.01120554       3.90912797      -5.05041321       3.60361322       7.46506459
H        4.00616094       7.96222043      10.37574022      -6.93608296      -7.68202034      15.34700814
H        6.13914322       8.29119616       2.57635828      -2.96875241      -0.12269701       0.73153706
H        1.69616989       5.23478854       9.08646413      -2.25256234      -0.96643062      -1.07712617
H        1.51808645       5.74458401       3.85345061       2.57034100       2.57003174       3.03525892
H        6.04937846       7.35782810      10.12633844       0.30437043       0.50576856      -1.69252355
H        4.57824876       7.65941096       1.68352622       0.39056803       2.19166351       3.42113468
H        8.82319030       5.13203450       7.93111702       3.65718838       0.87548829       1.36922434
H        1.83741416       4.64557499       2.45602677       0.08348697       1.20616379       0.77851397
H        6.54109802       8.30498541       8.53841637      -3.20614549      -0.81328107       2.19995168
H        2.39872219       0.21866929       2.55110833       2.74691684       1.43099181       2.06937968
H        7.19845109       3.80146762       8.83961084      -7.78539988       2.29561930     -12.11624191
H        8.91556896       3.28946016       1.73714327      -2.11665900       2.50629803       1.93227375
H        4.08665142       1.10327141       8.14806741       6.84379492      17.25167375     -16.63342261
H        2.74769267       1.21575464       3.72244683     -14.35018995      17.66276603      18.73264791
H        7.21774303       2.82186987      10.18143895       1.62860160       2.34502002      -1.19189888
H        7.08913492       3.56358792       2.74266584       3.40231558       1.97278839      -0.43332867
H        3.13534768       0.77141675       9.09594073      -4.17303755       1.67913075       0.46559381
Pb       4.59826522       4.02084238      12.64308248      -0.12714995       1.17717151      -0.05051223
Pb       0.04358855       0.25959081       6.13440213       0.21764960       0.21919253      -0.12037054
Pb       0.26500420       8.64792613      12.41987655      -0.75672534       0.02121453       0.13320250
Pb       4.60916723       4.72946877       6.39222085      -0.42122881      -0.24082740      -0.23021317
I        7.19648018       6.37415281       6.46672422       0.28126125      -0.07905096       0.05539393
I        8.88510579       0.01629303       2.91971388      -0.64262491      -0.03335882      -0.02337070
I        6.38379138       1.83765545      12.31729425       0.58182042      -1.10390047      -0.12662673
I        1.96525058       2.53316171       0.19324046      -0.44258521      -0.14435462      -0.05630123
I        2.09135780       2.61917208       5.83992067      -0.21786428       0.17068970       0.36131639
I        2.45068732       6.98196294       5.63577644       0.24778246       0.22278005       0.61697891
I        7.20712910       5.96330939      12.26984778       0.06382689       0.56251395       0.03306625
I        6.30982589       2.03908793       6.50634531       0.27835851      -0.12523757      -0.07914043
I        4.04247562       4.41536004       9.43612722      -0.14357462       0.07721287      -0.04489140
I        0.58715489       8.73201574       9.31941359      -0.20633383       0.01159856      -0.02053020
I        2.67067141       7.03824476       0.05373144       0.67492203      -0.37487773       0.14971736
I        5.01649551       4.40533512       2.89294323      -0.13248622      -0.13622203       0.42169576
48
Lattice="9.01938999 0.0 0.0 0.0 8.77776784 0.0 0.0 0.0 12.79618681" Properties=species:S:1:pos:R:3:forces:R:3 config_id=O-FAPI3_al_global_rattle_11__global_rattle__sev-0.875__seed-new phase=O-FAPI3 mode=active_learning seed=3254112030 source=O-FAPI3/CONTCAR energy=-211.25163805 stress="-0.005112093076174289 -0.00472879870523698 0.027707832890379924 -0.00472879870523698 0.00954739138707572 -0.007477043307508985 0.027707832890379924 -0.007477043307508985 -0.01351927841712269" pbc="T T T"
C        4.58479585       0.10337147       3.25473993     -15.39275216      16.45654737      14.91685122
C        0.19038787       4.19507783       9.63972019      -1.03700511      -6.00516934       2.84028479
C        0.04638357       4.92698321       3.15546417      -4.02731469      -7.98692164      -3.02377799
C        4.50239777       8.28638998       9.74227753      16.13749881      12.24596670     -22.11377374
N        5.26883910       8.42668495       2.53019488      11.42789275     -14.82432589     -16.52920103
N        0.84746946       5.02064866       9.00016984      -3.91581930       4.02595662      -6.08322589
N        1.29112306       5.03653537       2.97077207      -0.33351725       6.54716992       6.41962824
N        5.86825207       8.24030775       9.47357322      -6.80700895      -5.77851426      13.80141337
N        3.20826872       0.65697405       3.06964450       3.45457454      -4.47980881      -1.96635778
N        7.94713650       3.79507275       9.33810626       0.64932743      -2.63458910       5.04409384
N        8.47726143       3.56515194       2.51298273      -4.22031250       6.84870040       5.33121625
N        3.81753176       0.39788823       8.62395517       1.00982138       0.19062615       1.83959994
H        5.07365905       0.83013404       3.92427852      -0.10119116      -0.56212396       1.21408551
H        0.81272659       3.36421593      10.40838598      -1.76049086       2.66096431      -1.53121525
H        8.30481403       5.28791923       3.90220549       1.38592797       0.51513118      -0.51720842
H        3.90638448       8.06770760      10.25319830     -14.87649574      -6.74669996      14.92915711
H        6.29193557       8.14514665       2.59905730      -0.42875172       0.79106890       0.32192936
H        1.69456651       5.38066758       8.76905075       4.13383835       0.41185058       0.71325255
H        1.64801816       5.83030769       3.72402984      -0.19527751      -1.73667728      -1.86640307
H        6.25688090       7.40613909      10.15347634      -0.12481530       2.27805535      -2.05680783
H        4.72315185       7.71727251       1.86129379       1.47962008       1.38766387       0.09213578
H        0.26756435       5.38364412       8.09887477       0.87844547      -0.51383253       2.16804674
H        2.03030708       4.79396816       2.42859124       2.19626889      -1.83854959      -2.75031590
H        6.19702831       8.36826952       8.67178232       3.49854186       1.57070479      -9.03248301
H        2.84586052       0.23511751       2.13208222      -0.16273886       1.74614009       2.14238703
H        7.07373449       4.07518572       8.90763396       0.32662659       1.15094452      -0.74286237
H        0.00903806       3.25238603       1.77496022       0.77060493      -0.81822756      -2.27222721
H        4.40514809       1.06412397       7.81226885      -1.06155184      -2.36301124       2.67617579
H        2.98863323       1.51907980       3.58870825      -0.23303492      -0.51526379      -0.37437509
H        7.66021284       3.20071956      10.24508590       0.20592565       1.01723466      -2.49643581
H        7.25250123       3.75324081       2.55551713       4.00985067      -1.09795013      -0.84102622
H        2.82920775       0.87920071       8.79100747       2.30054193      -1.68004785       0.06775725
Pb       4.31540146       4.15461030      12.51012511       0.69189103       0.05212230       0.10729176
Pb       8.83598042       0.03625490       6.51149833       0.33808731       0.21122295      -0.96424189
Pb       8.91154686       8.55800115      12.43847120      -0.21649387       0.02111034       0.89709429
Pb       4.47943224       4.47683847       6.20879366      -0.70952508      -0.14003957      -0.12318976
I        6.86740088       6.31875694       6.50348677       0.84028487       0.37067393       0.09411818
I        8.68640620       0.13241368       2.89230509      -0.12839954      -0.33968746       0.02416452
I        6.10238226       1.58975066      12.20885911       0.39260264      -0.10570466       0.11896685
I        1.75360707       2.73551981       0.05382818      -0.35633387      -0.60777954      -0.16379956
I        1.86192887       2.77679788       5.82763709      -0.25934341      -0.27960013       0.18963249
I        2.79286818       7.10904465       5.92880835      -0.46017490      -0.05896196      -0.07070332
I        7.13886783       6.03773336      12.46049779       0.06640477       0.16512262      -0.20870066
I        6.30244406       1.93912680       6.57997585       0.26357426      -0.27165512      -0.07014758
I        4.07876847       4.29355824       9.43817321       0.32473585       0.03935112      -0.14104429
I        0.36445560       0.14555576       9.43922672       0.09942288       0.03761112      -0.04793336
I        2.74211102       6.80294194      12.76847142      -0.28343802       0.59779326       0.18159266
I        4.84031589       4.29271312       3.05966206       0.20947563       0.04540833      -0.14341849
48
Lattice="9.01938999 0.0 0.0 0.0 8.77776784 0.0 0.0 0.0 12.79618681" Properties=species:S:1:pos:R:3:forces:R:3 config_id=O-FAPI3_al_global_rattle_12__global_rattle__sev-0.911__seed-new phase=O-FAPI3 mode=active_learning seed=1688578140 source=O-FAPI3/CONTCAR energy=-202.99953957 stress="-0.07643857893073558 -0.005884782624834567 0.0015837259931636121 -0.005884782624834567 -0.0037875653977337085 -0.00597847756336453 0.0015837259931636121 -0.00597847756336453 -0.01338800743409275" pbc="T T T"
C        4.63265291       0.26995551       3.20547640      -5.71499061       9.15050658       5.59623999
C        0.01846215       4.08716518       9.85487911      41.11583011       2.43427260       7.75924587
C        8.87263892       4.51735673       3.29528119      18.89872387      -4.19242651      -8.78418776
C        4.42917114       8.35078693       9.64298961      -9.94615438       7.92474330      -4.94337180
N        5.05197599       8.30819913       2.39442299       7.27990752     -11.15917430      -7.67932072
N        0.54830477       4.92438113       8.97310424       9.46467062       3.11420529      -0.45983193
N        1.14013207       5.05259228       3.07825940       1.12160968       2.25674319       1.11331151
N        5.50584134       7.95870440       9.63892452      19.70661614      -1.79386868      -4.25230558
N        3.50954223       1.02095745       3.02284999      -4.27113247      -4.06924163      -4.47579796
N        8.08684135       3.99169897       9.53645688     -52.62493224     -12.27186159      -9.91189385
N        8.30524326       3.84770960       2.46990219      10.86954437      -5.22988140      -9.02212816
N        3.76211654       0.59781541       9.00885628      11.51326358      -1.48792560       0.98918311
H        5.10940993       0.92532692       3.89922065       2.13933275      -0.70072252       1.28269938
H        0.44736364       2.98878474      10.12265736       1.23298117       2.55688494       1.09273564
H        8.33692260       4.99530540       3.69584240     -12.61683723      11.98269082      12.17064437
H        3.99710593       8.01848592      10.35623243      -7.24790196      -4.76069335       8.69471568
H        6.16016616       7.98930555       2.53522749      -2.68348730       0.99488489      -0.22013751
H        1.68604228       4.83552905       9.04245151      -3.04373391       1.09603620      -1.00918337
H        1.35624811       6.06767679       3.66272690      -0.67647621      -3.72772921      -1.62886909
H        6.30872417       7.26280288      10.12300312      -3.24900372       1.61483366      -0.31745358
H        4.61150352       7.46532372       1.65045217       0.24518836       3.09605220       2.13368042
H        0.02873938       5.25640371       8.09739617       0.81530817      -0.44431455       1.36674027
H        2.02084141       4.84801674       2.29690913      -3.29694648       0.07960951       2.54210616
H        6.19764795       8.66037371       8.92682491      -1.59028974      -2.46106910       1.62575868
H        2.78320318       0.40631945       2.21454098       2.36874659       2.40826561       2.55018436
H        7.15666850       3.86719081       8.86441215       3.01560808       2.49128717       0.38456266
H        8.98929211       3.26541829       1.48975318      -1.92216614       1.85979116       2.96458321
H        4.49301255       0.93438522       8.36499016      -1.36624081       0.93763348      -0.77797501
H        2.84215112       1.40748435       3.68257724       0.59560182       0.13740519       0.99171126
H        7.66019624       3.09034141       9.97484720      -0.41106345       0.74570460       0.57572919
H        7.47598323       3.65131460       2.51707316     -12.18501689      -3.01468505       0.59612314
H        2.87063643       0.59801677       8.90875964      -7.57185108       0.06412960      -0.88311866
Pb       4.56902851       4.35198455      12.23432135       0.11270758      -0.17008188       0.59162656
Pb       8.96438073       0.40031756       6.11522090      -0.01059183      -1.03713749       0.29202333
Pb       0.07663045       8.66080689      12.71970119      -0.10953736       0.24857590      -0.26060447
Pb       4.34558539       4.47583614       6.20107845       0.43324326       0.44211349      -0.83997461
I        7.24319746       6.28953750       6.43000159      -0.18294991      -0.20102335       0.09526571
I        8.46132173       8.48794613       3.07332557       0.14087955       0.11384995      -0.06974379
I        6.40120656       1.75962224      12.30220832       0.06622741       0.08437639      -0.08807504
I        2.11799043       2.75101915       0.19518305      -1.02069788      -0.58003405       0.00381379
I        1.78670328       2.70056226       5.87724855       0.12773575       0.32165356       0.01639221
I        2.63623529       7.02328551       5.96566521      -0.02490825       0.14885491      -0.04336537
I        7.10028947       6.14801575      12.40984715       0.41567960       0.39545644      -0.15002226
I        6.28845372       1.68821325       6.72737333      -0.11270012       0.41700668       0.09141626
I        4.04970349       4.51039254       9.20320067       0.26097943      -0.08189410       0.36000146
I        0.44117471       0.18424649       9.53922521      -0.44959164       0.15330438       0.00326611
I        2.66854265       6.97172350       0.21530851       0.07096860      -0.07808516      -0.13327148
I        4.64416887       4.37992603       2.86450639       0.31784761       0.19097787       0.06687167
48
Lattice="9.01938999 0.0 0.0 0.0 8.77776784 0.0 0.0 0.0 12.79618681" Properties=species:S:1:pos:R:3:forces:R:3 config_id=O-FAPI3_al_global_rattle_13__global_rattle__sev-0.946__seed-new phase=O-FAPI3 mode=active_learning seed=3194358755 source=O-FAPI3/CONTCAR energy=-208.78902666 stress="-0.019867774430577936 -0.03341866496795158 -0.023683265806895493 -0.03341866496795158 -0.021059166500103258 0.0011914050768303411 -0.023683265806895493 0.0011914050768303411 -0.004963726711995722" pbc="T T T"
C        4.59412036       0.57168461       3.07431344      -3.85878086      -4.45917577      -2.19309382
C        8.97115402       4.02707785       9.64984939      40.02781776      23.04148777       5.31413711
C        8.82948556       4.65809174       3.14623185       8.73463881       7.42335713       5.92349055
C        4.27505069       8.40244128       9.74115236       8.17722315       2.07175053      -5.75015366
N        5.13654963       8.11124638       2.30520721      -2.41033981       6.04742407       4.95418766
N        0.76726192       4.83515714       8.77753372     -14.61622976      -8.81006146      -1.83887357
N        1.18944667       5.09407618       3.08433593      -0.85837822      -2.52756475      -3.93678167
N        5.82141023       8.04291436       9.38674546     -10.49660206      -3.93351093       6.87113912
N        3.17954368       0.81162884       2.93985866       4.27110257       1.03238038       2.46304225
N        8.18536447       3.42517841       9.46819217     -40.08724995     -19.72455155      -9.84274069
N        8.56221659       3.67999402       2.48081209      -7.20052810      -4.77319326      -2.64344338
N        3.95942030       0.58385033       8.78889341      -5.25558691      -2.40735813       4.06215323
H        5.02003391       1.01763243       4.03275167       0.26723720      -0.59514303      -1.46628515
H        0.68491164       3.48177526      10.23704913       1.25265554       0.39545439       1.70862029
H        8.51630943       5.24575663       4.15449191      -1.11117387      -1.74602724      -2.14576276
H        3.75820826       7.91524892      10.60309711      -0.27574543       0.22136808      -0.70101019
H        6.11027071       8.02673430       2.28367173       2.06952556      -0.10597087       0.02176970
H        1.49091716       5.09508949       9.06147599      14.90724296       5.13802672       6.41288759
H        1.46078329       5.71537265       3.79775495       0.75891703       1.22097471       0.83874980
H        6.18954141       7.36171481       9.99372196       1.30367672      -0.67379706       0.77739265
H        4.60840266       7.77027873       1.55675926      -1.29150315      -0.54618000      -1.64010435
H        0.27382814       5.49359207       8.36941777      -3.09841535       4.26350966      -3.40301499
H        2.03299350       4.75907241       2.25155855      -3.19569623       1.19221905       3.19430700
H        6.18474625       8.62638101       8.81743006       3.73869646       4.91132070      -5.07968008
H        2.57855431       0.40565901       2.22772425       0.07695243      -0.15575257      -0.09654667
H        7.15195821       4.02729281       9.04550302       2.04396825      -0.36940448      -1.48941098
H        8.93083347       3.49258692       1.57802755       1.29735581      -0.49950438      -1.17582837
H        4.47456474       1.27946017       8.18292832       0.25364613      -1.14742453       0.48840458
H        2.73642493       1.44948281       3.72237069       0.79655555      -1.23405920      -1.79712998
H        7.39353888       3.08145708       9.89136577      -0.90577861      -3.61213170       3.07769080
H        7.49862866       3.47839907       2.47259323       1.39703164      -0.16014233       0.05984119
H        2.83952440       0.60859442       8.86300726       2.31556671       0.92476881      -0.70757800
Pb       4.38018891       4.29863038      12.09404161       0.25290129       0.14843960       1.64538359
Pb       0.11119510       0.07149422       6.04559083      -0.30876239      -0.28110123       0.27555478
Pb       8.90617329       0.08330830      12.45444481      -0.52643379      -1.13494964      -0.00698742
Pb       4.46562499       4.50703663       6.02588522       0.35203752      -0.13078463      -0.34738916
I        7.18696102       6.26674708       6.23440817      -0.22566522      -0.30220189       0.16743124
I        8.63005242       8.66159180       3.05469292       0.04995266       0.06954074      -0.39614909
I        6.40035314       1.93694403      12.29780233      -0.08520238      -0.19732643      -0.05540750
I        1.50901565       2.42172523      12.64841926       1.10321872       1.06610404       0.12198001
I        1.56384831       2.67874881       5.97028092       0.59265032       0.38891900      -0.14839385
I        2.76943716       7.02440512       6.15683039      -0.10939285       0.18470487      -0.12463963
I        7.06505116       6.15913718      12.23561952      -0.23418884      -0.38070761      -0.00005957
I        6.49139929       1.85731695       6.75970814      -0.18041577       0.14239572      -0.27126518
I        4.15002698       4.42822149       9.31336816       0.28727209      -0.04030017      -1.21093374
I        0.30228386       8.72122646       9.39805319       0.26266115      -0.00622382      -0.08786962
I        2.62657832       6.86829234      12.66874536      -0.20179911       0.11868184       0.13575309
I        4.94134929       4.31727594       2.93874155      -0.05663531      -0.04827916       0.04261681
48
Lattice="9.01938999 0.0 0.0 0.0 8.77776784 0.0 0.0 0.0 12.79618681" Properties=species:S:1:pos:R:3:forces:R:3 config_id=O-FAPI3_al_global_rattle_14__global_rattle__sev-0.982__seed-new phase=O-FAPI3 mode=active_learning seed=1923059526 source=O-FAPI3/CONTCAR energy=-210.4818722 stress="-0.036283439681558484 -0.005215986715514056 -0.0253640927550851 -0.005215986715514056 -0.02530258340042307 -0.014417180397044026 -0.0253640927550851 -0.014417180397044026 -0.0138450893004068" pbc="T T T"
C        4.55641093       0.40464421       3.40061313       3.64152743      -1.88767924      -4.37144342
C        0.13509035       3.68374125       9.45358660       1.46294501       6.54294397       0.16327022
C        8.82936578       4.82696090       3.08416548       9.41262647      15.49188824      11.44135227
C        4.52701637       8.32256096       9.59768407     -20.65233902       4.38823280       3.62382780
N        5.14813324       8.20139520       2.47916318      -0.09969529       3.39864140       4.54566921
N        0.63677254       4.83119766       8.54868134     -22.34659320     -13.31103812      -9.77129938
N        1.06667229       5.08499918       3.14297304       7.36058669      -0.04668503      -3.22619685
N        5.54165779       7.89594486       9.69020972      19.69954898       1.12314791      -7.41387357
N        3.33536555       0.77391051       3.08729748       5.38431816       4.68587442       7.51297469
N        7.86494667       3.63967229       9.44812646      -0.34361522      -3.07946213       2.84227714
N        8.41023112       3.97804234       2.55701518     -11.70164301     -23.23642716     -17.29106430
N        3.86583375       0.32474063       8.88972391       3.49746697       6.32943481      -7.29376331
H        5.35830189       1.03793769       4.08121800      -2.32159729      -1.73720475      -1.08683226
H        0.64047365       3.53065531      10.54296424      -0.30481177      -0.28285395      -2.77190546
H        8.22890819       5.13653398       3.83354524      -1.83416774       2.70807791       2.91132563
H        3.82832924       8.00808769      10.37780002      -0.38602065      -0.96983462       0.63778362
H        6.19210770       8.19141023       2.47216840      -0.71348263      -0.20719967       0.02685737
H        1.24094648       5.14671716       8.91050146      20.56882794      10.78956209      11.30265501
H        1.54834831       5.65123938       3.76406745      -0.00463536       1.93251828       2.02025304
H        5.92446596       7.24191083      10.13196211       3.27931241      -7.23087274       5.68409081
H        4.64067629       7.88368820       1.68842985      -0.78575752      -0.37221151      -0.97295783
H        8.90106894       5.48147261       7.99499789       1.97167542      -2.09662618       1.61888610
H        2.06090770       4.73181261       2.48260932      -4.47266852       0.51473710       1.60815954
H        6.36248100       8.28816045       8.98544297      -1.89427566      -0.95077789       1.56582598
H        2.81691333       0.32892745       2.51953361      -5.02538457      -4.26344755      -5.57634215
H        7.32532739       3.89477082       8.70718413      -1.81820637       1.44916174      -3.00183212
H        0.08205859       3.45510805       1.74218343      -2.24485074       1.06319221       2.28215611
H        4.46579194       1.05486474       8.14739011      -1.09240811      -2.54236858       1.78538231
H        2.92053314       1.38377051       3.80297669      -0.69988337       0.20510902      -0.17750922
H        7.28057769       3.07446945      10.10363916       0.81120253       0.00149145      -0.06233665
H        7.13789049       3.59062406       2.56671277       3.69343609       1.58453655       0.04673582
H        3.01143668       0.78137372       8.80515455      -2.52047325      -0.11770177       1.39649594
Pb       4.49171827       4.29564428      12.79427352      -0.23589313       0.26488795      -1.48958677
Pb       8.77974092       0.00515685       6.15341419       0.44130417       0.63754103      -0.01401134
Pb       8.79207196       8.66617625      12.52219473       0.40306843       0.04768112       0.06132741
Pb       4.56330282       4.64554234       5.80910143      -0.42100073      -0.65679166       1.45491637
I        7.19115648       6.15875929       6.44242605      -0.14756003      -0.07560819       0.04955285
I        8.47189408       8.63737350       3.03583428       0.34218321       0.13279036      -0.12711554
I        6.32056843       1.78206137      12.31587375       0.08830322      -0.10715612      -0.01791429
I        2.08373118       2.45153655       0.07163203      -0.55170878      -0.23409145       0.15533503
I        1.65439406       2.67187099       5.82258017       0.21580301      -0.25373172      -0.11658946
I        2.73178833       6.89829738       5.98449493      -0.41137451       0.66694101      -0.08636951
I        7.11928394       6.16039529      12.34335727       0.05510320      -0.16213814       0.00926574
I        6.18251512       1.79028939       6.56746693       0.31523186      -0.03531381      -0.11680939
I        4.07815317       4.31580637       9.43140006       0.27489825      -0.02830210       0.06305465
I        0.30560002       0.19460145       9.36229054      -0.14020124      -0.13688426       0.04525702
I        2.42349638       6.70139327      12.65146910       0.07429047       0.21479656       0.22116890
I        5.05382235       4.38371074       2.93514736       0.17658775      -0.15077957      -0.09010379
24
Lattice="8.95158397 0.0 0.0 0.0 8.95158397 0.0 0.0 0.0 6.32897243" Properties=species:S:1:pos:R:3:forces:R:3 config_id=t-FAPI3_al_cage_rattle_01__cage_rattle__sev-0.225__seed-new phase=t-FAPI3 mode=active_learning seed=2202949691 source=t-FAPI3/CONTCAR energy=-113.38812603 stress="-0.00158353464721834 -0.0004327840894680967 -0.0002646793022034341 -0.0004327840894680967 -0.0032922155532179895 -1.7403824046612875e-07 -0.0002646793022034341 -1.7403824046612875e-07 0.0008979353345461075" pbc="T T T"
C        4.47580863       4.47581213       3.61395769       0.10144571       0.04641941      -0.01606108
C        0.00000662       8.95157287       3.61395307      -0.01875035       0.07377813       0.01907913
N        5.30254327       5.30254703       3.01626364      -0.08482613      -0.05345414       0.04925357
N        3.64903040       3.64903389       3.01626877      -0.07304762      -0.04463152      -0.04364915
N        0.82676525       8.12481523       3.01626668       0.08035025       0.03928415      -0.06313144
N        8.12482239       0.82675782       3.01626820       0.11339413      -0.01784427       0.11941145
H        4.47579449       4.47579807       4.70497829       0.02564907      -0.01898802       0.00289423
H        5.90092282       5.90092640       3.58290572       0.01756111       0.00879225      -0.00516862
H        5.38933711       5.38934016       2.00382742       0.02136803      -0.00114339      -0.00182158
H        3.56224775       3.56225070       2.00383501       0.01987629      -0.00228910       0.00914715
H        3.05066696       3.05067028       3.58291604       0.00370298      -0.00358542       0.00887463
H        0.00000349       8.95157627       4.70497583      -0.00424782      -0.01664579      -0.00263705
H        1.42512583       7.52645429       3.58289566      -0.00293788      -0.00261541       0.00703216
H        0.91354602       8.03803589       2.00382147      -0.04846702       0.00888812       0.03012095
H        8.03803678       0.91354495       2.00382628      -0.05534414       0.02550306      -0.06007756
H        7.52645591       1.42512386       3.58291357       0.00846505      -0.02392353      -0.02005063
Pb       0.04769592       4.50566199       0.01691424      -0.17766803       0.04721630      -0.07047617
Pb       4.39196353       0.00589829       0.00813925       0.47038771       0.26573038      -0.05840228
I        8.86711700       4.63857475       3.09648584       0.13007541      -0.12524610       0.12307193
I        4.58263666       8.90716925       3.09660773      -0.07957642       0.04688136       0.09362912
I        1.95726598       1.99512295       6.23311033       0.13665354      -0.09852823       0.00391377
I        2.64316830       6.53576155       6.15061806      -0.37758078      -0.45382489       0.05743502
I        6.55829000       2.46918451       0.12323047      -0.01037690       0.13438731      -0.16889325
I        7.08810982       6.97909510       6.27795205      -0.19610617       0.16583932      -0.01349429
24
Lattice="8.95158397 0.0 0.0 0.0 8.95158397 0.0 0.0 0.0 6.32897243" Properties=species:S:1:pos:R:3:forces:R:3 config_id=t-FAPI3_al_cage_rattle_02__cage_rattle__sev-0.275__seed-new phase=t-FAPI3 mode=active_learning seed=1194760987 source=t-FAPI3/CONTCAR energy=-113.34842859 stress="-0.0026233985039060687 0.001056007251656933 -0.00011739594596386213 0.001056007251656933 -0.001446172544224907 -0.00019689542083224486 -0.00011739594596386213 -0.00019689542083224486 0.0019195691286921569" pbc="T T T"
C        4.47580863       4.47581213       3.61395769       0.17580096       0.16352888       0.01237935
C        0.00000662       8.95157287       3.61395307      -0.04478114      -0.02459040       0.00483520
N        5.30254327       5.30254703       3.01626364      -0.13278298      -0.13873619       0.10405894
N        3.64903040       3.64903389       3.01626877      -0.13210761      -0.12730949      -0.03292310
N        0.82676525       8.12481523       3.01626668       0.01942542       0.01305403       0.00017194
N        8.12482239       0.82675782       3.01626820       0.02435798       0.00878955       0.06544895
H        4.47579449       4.47579807       4.70497829       0.02283940       0.00291459       0.00882713
H        5.90092282       5.90092640       3.58290572       0.01030178       0.01416495       0.02963862
H        5.38933711       5.38934016       2.00382742       0.04077594       0.02949215      -0.06593648
H        3.56224775       3.56225070       2.00383501       0.04279841       0.00797034       0.04440284
H        3.05066696       3.05067028       3.58291604       0.02681451       0.03854000      -0.06889525
H        0.00000349       8.95157627       4.70497583      -0.02813973      -0.03697791       0.00478081
H        1.42512583       7.52645429       3.58289566      -0.00914090      -0.01296850      -0.00298125
H        0.91354602       8.03803589       2.00382147      -0.02472826      -0.01710640       0.00063294
H        8.03803678       0.91354495       2.00382628      -0.05028521      -0.01111697      -0.00793236
H        7.52645591       1.42512386       3.58291357       0.01064541      -0.01560876      -0.04393103
Pb       0.10920906       4.40022907       6.23517579      -0.52208616       0.29635741      -0.02811192
Pb       4.33408573       0.10975689       6.13064781       0.77414487      -0.47650300      -0.03263985
I        8.89168615       4.47838535       3.06957568       0.06868386      -0.03976646       0.07142078
I        4.51479968       8.85251974       2.95082492      -0.08008061       0.08024748       0.17203061
I        1.93659302       1.85484661       6.32291649      -0.44138133       0.28336693       0.01395326
I        2.44808876       6.39579521       6.25270122       0.18577926       0.13397157      -0.01872930
I        6.37797762       2.55132031       0.07837211      -0.06345999      -0.06423286      -0.11340989
I        6.91669343       6.96948495       0.00143389       0.12660613      -0.10748095      -0.11709096
24
Lattice="8.95158397 0.0 0.0 0.0 8.95158397 0.0 0.0 0.0 6.32897243" Properties=species:S:1:pos:R:3:forces:R:3 config_id=t-FAPI3_al_cage_rattle_03__cage_rattle__sev-0.325__seed-parity phase=t-FAPI3 mode=active_learning seed=1016570348 source=t-FAPI3/CONTCAR energy=-113.29217197 stress="-0.004689047831848129 0.0005328363670503013 0.00033810535178669364 0.0005328363670503013 -0.0032305402305867923 0.0005153121817417048 0.00033810535178669364 0.0005153121817417048 -0.001991312105407549" pbc="T T T"
C        4.47580863       4.47581213       3.61395769      -0.06294752      -0.04999838      -0.00732225
C        0.00000662       8.95157287       3.61395307       0.03897841      -0.04298479       0.01407482
N        5.30254327       5.30254703       3.01626364       0.03360759      -0.00405076       0.04541708
N        3.64903040       3.64903389       3.01626877       0.05843578       0.06182361      -0.07444220
N        0.82676525       8.12481523       3.01626668      -0.09441775       0.04425776       0.05258446
N        8.12482239       0.82675782       3.01626820      -0.04187921       0.03162531      -0.03221999
H        4.47579449       4.47579807       4.70497829      -0.02091865      -0.01740222       0.00953384
H        5.90092282       5.90092640       3.58290572      -0.03966828      -0.01064212      -0.05485283
H        5.38933711       5.38934016       2.00382742       0.01229126       0.00769996       0.00745452
H        3.56224775       3.56225070       2.00383501       0.01739547       0.00084866      -0.02713519
H        3.05066696       3.05067028       3.58291604      -0.03058225      -0.05617865       0.10061032
H        0.00000349       8.95157627       4.70497583       0.00401352       0.00451259       0.00646412
H        1.42512583       7.52645429       3.58289566       0.01624810       0.02173565      -0.00623519
H        0.91354602       8.03803589       2.00382147       0.02520876      -0.00598996      -0.02029288
H        8.03803678       0.91354495       2.00382628       0.00175183       0.00914412      -0.00236666
H        7.52645591       1.42512386       3.58291357      -0.00294883       0.00888608       0.01397547
Pb       0.00110104       4.66581182       6.28237221      -0.03802676      -0.43027252      -0.19854174
Pb       4.55321388       0.02934714       6.20780634      -0.26975970       0.11896372       0.39337026
I        0.02082711       4.51704124       2.96643128      -0.02814341      -0.07446125       0.28405183
I        4.38720568       8.87433860       3.26788530       0.11155517      -0.02732383      -0.55756342
I        2.14128584       1.92778555       6.09411281      -0.49547017       0.43842442       0.12776547
I        2.43007182       6.48872751       6.31804280       0.17929370       0.05763953      -0.03854488
I        6.39824383       2.49569526       6.24593688       0.25612951       0.18770318       0.01582744
I        6.92969758       7.03301524       0.07168346       0.36985343      -0.27396013      -0.05161240
24
Lattice="8.95158397 0.0 0.0 0.0 8.95158397 0.0 0.0 0.0 6.32897243" Properties=species:S:1:pos:R:3:forces:R:3 config_id=t-FAPI3_al_cage_rattle_04__cage_rattle__sev-0.375__seed-new phase=t-FAPI3 mode=active_learning seed=3889280896 source=t-FAPI3/CONTCAR energy=-113.15956499 stress="-0.002585613818239034 -4.706149061290808e-05 0.0005773111203795691 -4.706149061290808e-05 -0.005883383965054547 0.0001235320110345727 0.0005773111203795691 0.0001235320110345727 -0.0009120315894201321" pbc="T T T"
C        4.47580863       4.47581213       3.61395769      -0.04866533      -0.11590846      -0.00274714
C        0.00000662       8.95157287       3.61395307       0.01656234       0.02793283      -0.00251703
N        5.30254327       5.30254703       3.01626364       0.11371868       0.04316096       0.02524746
N        3.64903040       3.64903389       3.01626877       0.07894467       0.02528011      -0.00151999
N        0.82676525       8.12481523       3.01626668      -0.06108613       0.03471956       0.08882495
N        8.12482239       0.82675782       3.01626820      -0.04528328       0.01883597      -0.03815123
H        4.47579449       4.47579807       4.70497829       0.00033077      -0.02944371       0.00569855
H        5.90092282       5.90092640       3.58290572      -0.03557509      -0.04716304      -0.09914873
H        5.38933711       5.38934016       2.00382742       0.00086984      -0.03131287       0.04790159
H        3.56224775       3.56225070       2.00383501       0.00750273      -0.01675244      -0.03372417
H        3.05066696       3.05067028       3.58291604      -0.02419977      -0.02028650       0.05166604
H        0.00000349       8.95157627       4.70497583      -0.00300208       0.02585925      -0.00560161
H        1.42512583       7.52645429       3.58289566      -0.02492011       0.05080250      -0.09898679
H        0.91354602       8.03803589       2.00382147      -0.01817611       0.01128382       0.03583293
H        8.03803678       0.91354495       2.00382628       0.00351818       0.01586747      -0.04716885
H        7.52645591       1.42512386       3.58291357      -0.00195633       0.02772915       0.06684965
Pb       0.08165787       4.73582655       6.18600987       0.19809435      -1.03176172       0.11137234
Pb       4.40915926       8.87248822       6.23001812       0.42370229       0.90063667       0.13115323
I        0.09760574       4.59396793       3.15480529      -0.04695414      -0.07923420      -0.14133571
I        4.28206816       8.78420886       3.21798274       0.21233017       0.10552389      -0.20707165
I        1.97101660       2.00162815       6.22094535       0.21243096      -0.19844022       0.06173371
I        2.70006583       6.48658692       0.11228445      -0.37572971      -0.70896033       0.01197721
I        6.45644362       2.48558444       6.24140356       0.17357193       0.17540631       0.01374179
I        7.31241449       7.04473939       0.12726500      -0.75602882       0.81622499       0.02597346
24
Lattice="8.95158397 0.0 0.0 0.0 8.95158397 0.0 0.0 0.0 6.32897243" Properties=species:S:1:pos:R:3:forces:R:3 config_id=t-FAPI3_al_cage_rattle_05__cage_rattle__sev-0.425__seed-new phase=t-FAPI3 mode=active_learning seed=1678230480 source=t-FAPI3/CONTCAR energy=-113.42290352 stress="-0.0016655474592230427 -0.00022718643205407084 -0.00012237150851826986 -0.00022718643205407084 -0.002664686679717153 -0.00014945832868315938 -0.00012237150851826986 -0.00014945832868315938 0.0011570974360331897" pbc="T T T"
C        4.47580863       4.47581213       3.61395769       0.00243544      -0.03114689       0.00857214
C        0.00000662       8.95157287       3.61395307       0.08532238       0.02806205       0.01362045
N        5.30254327       5.30254703       3.01626364       0.02774865      -0.01094991       0.00715801
N        3.64903040       3.64903389       3.01626877       0.04132803       0.02830242       0.10233632
N        0.82676525       8.12481523       3.01626668       0.03880110       0.12649711       0.06318086
N        8.12482239       0.82675782       3.01626820       0.04572454       0.05573677       0.04833133
H        4.47579449       4.47579807       4.70497829       0.00257757       0.01206216       0.01506347
H        5.90092282       5.90092640       3.58290572       0.00954068       0.00513240       0.00029170
H        5.38933711       5.38934016       2.00382742      -0.03424224       0.01138004       0.00013918
H        3.56224775       3.56225070       2.00383501      -0.03036019      -0.00910414      -0.03657268
H        3.05066696       3.05067028       3.58291604       0.02676734       0.02396244      -0.02855806
H        0.00000349       8.95157627       4.70497583       0.00353635       0.00339209       0.00868707
H        1.42512583       7.52645429       3.58289566      -0.02269242       0.00349034      -0.05037502
H        0.91354602       8.03803589       2.00382147       0.00223668      -0.01656276       0.00984793
H        8.03803678       0.91354495       2.00382628      -0.02614274       0.00234842      -0.02699603
H        7.52645591       1.42512386       3.58291357      -0.00554997      -0.03270766      -0.01557926
Pb       8.88616741       4.47293938       6.31664941       0.22283532       0.09545064       0.04309525
Pb       4.42773066       0.02187293       6.27032507       0.16338871      -0.08061666       0.03735871
I        0.05513298       4.71377924       3.20679622      -0.00554417      -0.22171168      -0.07256060
I        4.53966816       0.01656956       3.14950256      -0.02294228       0.00913651       0.00002287
I        2.05152303       2.01687977       0.10082870      -0.11573490      -0.01221096      -0.10509033
I        2.69951127       6.44229135       0.06158774      -0.24787554      -0.21177593      -0.02093606
I        6.52996128       2.48183400       0.04373155      -0.02634716       0.05006066      -0.06086606
I        7.07220751       6.97696364       6.24997008      -0.13481118       0.17177253       0.05982881
24
Lattice="8.95158397 0.0 0.0 0.0 8.95158397 0.0 0.0 0.0 6.32897243" Properties=species:S:1:pos:R:3:forces:R:3 config_id=t-FAPI3_al_cage_rattle_06__cage_rattle__sev-0.475__seed-new phase=t-FAPI3 mode=active_learning seed=3798802580 source=t-FAPI3/CONTCAR energy=-112.94593298 stress="-0.005365134766295549 -0.0033477067449166967 -0.0006208246688204328 -0.0033477067449166967 -0.005254848373580761 -0.00042533212702837615 -0.0006208246688204328 -0.00042533212702837615 -0.0002182010868598489" pbc="T T T"
C        4.47580863       4.47581213       3.61395769      -0.20281955      -0.10052988      -0.01483968
C        0.00000662       8.95157287       3.61395307       0.19586299      -0.07484561      -0.03975820
N        5.30254327       5.30254703       3.01626364       0.15948124       0.12440993      -0.12239656
N        3.64903040       3.64903389       3.01626877       0.15284896       0.03778354       0.05602463
N        0.82676525       8.12481523       3.01626668       0.01495560       0.09731396       0.04424659
N        8.12482239       0.82675782       3.01626820      -0.01687307       0.11493438      -0.14552844
H        4.47579449       4.47579807       4.70497829      -0.08731390       0.06959550      -0.04296444
H        5.90092282       5.90092640       3.58290572       0.00929846      -0.00594115      -0.00853774
H        5.38933711       5.38934016       2.00382742      -0.06381299       0.00940429       0.03638657
H        3.56224775       3.56225070       2.00383501      -0.07029973       0.05498357      -0.02571758
H        3.05066696       3.05067028       3.58291604      -0.01154336       0.03222295       0.00147579
H        0.00000349       8.95157627       4.70497583       0.03410883       0.01216979      -0.02058049
H        1.42512583       7.52645429       3.58289566      -0.02300427      -0.05117094       0.03092052
H        0.91354602       8.03803589       2.00382147       0.01551381      -0.03125943      -0.04764617
H        8.03803678       0.91354495       2.00382628       0.08794370      -0.05809867       0.09498372
H        7.52645591       1.42512386       3.58291357       0.00747265      -0.00647535      -0.02816731
Pb       8.78852174       4.26209583       6.27795768       1.22778728       0.41751864       0.27743524
Pb       4.78037357       0.10933160       6.27306957      -0.69662307      -0.73089845       0.21110339
I        0.18219114       4.52789987       3.26157189      -0.19817522      -0.14665484      -0.31150245
I        4.64036077       0.17150644       3.25085631      -0.13995006      -0.20986774      -0.32307042
I        2.01661812       1.84708407       6.31401169       0.06202447      -0.16493090       0.03924731
I        2.40626983       6.15493870       6.32479012       0.39612967       0.34640248       0.06445112
I        6.36053752       2.59713398       5.99387593      -0.37574200      -0.15729727       0.14653760
I        7.25663977       6.92003613       6.18843057      -0.47727044       0.42123118       0.12789701
24
Lattice="8.95158397 0.0 0.0 0.0 8.95158397 0.0 0.0 0.0 6.32897243" Properties=species:S:1:pos:R:3:forces:R:3 config_id=t-FAPI3_al_cage_rattle_07__cage_rattle__sev-0.525__seed-new phase=t-FAPI3 mode=active_learning seed=3092837329 source=t-FAPI3/CONTCAR energy=-113.39204407 stress="-0.0020563918529499492 0.0008854876369944843 0.0004431929106826223 0.0008854876369944843 -0.0006070178389660846 -2.5134432419749364e-05 0.0004431929106826223 -2.5134432419749364e-05 0.0013545015461007034" pbc="T T T"
C        4.47580863       4.47581213       3.61395769      -0.10534601      -0.17106194      -0.01925262
C        0.00000662       8.95157287       3.61395307      -0.06943847       0.10970505      -0.00011115
N        5.30254327       5.30254703       3.01626364       0.16377836       0.14267610      -0.11554093
N        3.64903040       3.64903389       3.01626877       0.14792906       0.10187558       0.09521381
N        0.82676525       8.12481523       3.01626668       0.06408412      -0.11954303      -0.03375610
N        8.12482239       0.82675782       3.01626820       0.02589350      -0.05208721       0.03669753
H        4.47579449       4.47579807       4.70497829       0.01703000      -0.01164265      -0.01356620
H        5.90092282       5.90092640       3.58290572      -0.01576388       0.00793443       0.02075790
H        5.38933711       5.38934016       2.00382742      -0.05241978      -0.03800694       0.02530510
H        3.56224775       3.56225070       2.00383501      -0.00034700      -0.00112865       0.00984818
H        3.05066696       3.05067028       3.58291604       0.02257474       0.01403432      -0.04875968
H        0.00000349       8.95157627       4.70497583       0.02151783       0.02979448      -0.02838240
H        1.42512583       7.52645429       3.58289566      -0.01480865       0.01581693      -0.04477903
H        0.91354602       8.03803589       2.00382147       0.00707958       0.04996367       0.03333889
H        8.03803678       0.91354495       2.00382628       0.00418688       0.02138944      -0.01871063
H        7.52645591       1.42512386       3.58291357       0.00113858      -0.01048334      -0.00492114
Pb       8.91588917       4.69529207       0.08852448      -0.05347869      -0.34934666      -0.18653351
Pb       4.37393164       0.07754524       6.28694527       0.11796101       0.02976910       0.05607707
I        0.23954233       4.36383506       3.10464103      -0.21802338       0.11237873       0.20815992
I        4.45479945       0.18110084       3.15891817       0.02892704      -0.16781466      -0.03441904
I        1.88646791       1.83682529       0.03237985      -0.23365971       0.20300224      -0.03683492
I        2.63265279       6.29595524       6.31512249       0.10839046       0.15010506       0.01598297
I        6.42103232       2.56849562       0.00543057      -0.00957343       0.02784849      -0.02283881
I        7.01890414       7.12505909       6.14345430       0.04236783      -0.09517854       0.10702478
24
Lattice="8.95158397 0.0 0.0 0.0 8.95158397 0.0 0.0 0.0 6.32897243" Properties=species:S:1:pos:R:3:forces:R:3 config_id=t-FAPI3_al_cage_rattle_08__cage_rattle__sev-0.575__seed-new phase=t-FAPI3 mode=active_learning seed=429399174 source=t-FAPI3/CONTCAR energy=-113.34125141 stress="-0.002601004256271819 -0.000812214604248955 0.00043014444915310553 -0.000812214604248955 -0.002505922373274466 0.00046059770216314976 0.00043014444915310553 0.00046059770216314976 0.0008230176329383623" pbc="T T T"
C        4.47580863       4.47581213       3.61395769      -0.13681263      -0.10488796      -0.06474219
C        0.00000662       8.95157287       3.61395307       0.08188252      -0.00276382       0.06327085
N        5.30254327       5.30254703       3.01626364       0.06821902       0.12790459      -0.04871613
N        3.64903040       3.64903389       3.01626877       0.07355193       0.17109044      -0.03565852
N        0.82676525       8.12481523       3.01626668      -0.08464898       0.06529552       0.08496363
N        8.12482239       0.82675782       3.01626820      -0.00602314       0.00977546       0.05888504
H        4.47579449       4.47579807       4.70497829       0.00046420      -0.02652676       0.03220846
H        5.90092282       5.90092640       3.58290572       0.01618930      -0.00731763      -0.00339725
H        5.38933711       5.38934016       2.00382742      -0.01784708      -0.05800758       0.04076785
H        3.56224775       3.56225070       2.00383501       0.04860198      -0.01840870      -0.02035097
H        3.05066696       3.05067028       3.58291604      -0.03829194      -0.06978982       0.10852018
H        0.00000349       8.95157627       4.70497583       0.02735416       0.02008693      -0.03004627
H        1.42512583       7.52645429       3.58289566      -0.01704928       0.03764486      -0.03645911
H        0.91354602       8.03803589       2.00382147       0.04362599      -0.00117590      -0.02069753
H        8.03803678       0.91354495       2.00382628      -0.03873325       0.04328725      -0.02350447
H        7.52645591       1.42512386       3.58291357       0.01874474      -0.01855090      -0.05379973
Pb       0.04782661       4.51246779       0.09371866       0.04549803      -0.31927184      -0.09901585
Pb       4.58244017       8.81021518       6.30093774      -0.00752774       0.70606783      -0.03279020
I        0.02699681       4.56092773       3.18025871       0.00859679      -0.02797122       0.04849522
I        4.39099775       0.11367097       3.08008272       0.12359911      -0.10487949       0.07792879
I        2.09574600       1.95656302       6.07351877      -0.16696108       0.28382819       0.12488256
I        2.52706501       6.65019484       0.08682876      -0.30666028      -0.54889027      -0.10803047
I        6.49154932       2.57621260       0.17305379       0.05127278       0.10106915      -0.14069499
I        7.07014166       7.05662996       6.15107109       0.21295482      -0.25760835       0.07798110
24
Lattice="8.95158397 0.0 0.0 0.0 8.95158397 0.0 0.0 0.0 6.32897243" Properties=species:S:1:pos:R:3:forces:R:3 config_id=t-FAPI3_al_cage_rattle_09__cage_rattle__sev-0.625__seed-parity phase=t-FAPI3 mode=active_learning seed=2824420205 source=t-FAPI3/CONTCAR energy=-113.20836293 stress="-0.0031595449991476997 0.0006327693881176376 6.701764874485928e-05 0.0006327693881176376 -0.003784331172534858 7.647154402916127e-05 6.701764874485928e-05 7.647154402916127e-05 -0.006713694277119738" pbc="T T T"
C        4.47580863       4.47581213       3.61395769      -0.06145275      -0.00898631       0.01086112
C        0.00000662       8.95157287       3.61395307       0.01957136       0.01082497       0.03557401
N        5.30254327       5.30254703       3.01626364      -0.01519167       0.08615570       0.00648065
N        3.64903040       3.64903389       3.01626877      -0.03880056       0.10073930       0.05206012
N        0.82676525       8.12481523       3.01626668       0.00234649      -0.01542476       0.04299107
N        8.12482239       0.82675782       3.01626820       0.02957142      -0.02440374       0.04597436
H        4.47579449       4.47579807       4.70497829       0.00028376      -0.00033717       0.01981210
H        5.90092282       5.90092640       3.58290572       0.00280052      -0.01788946      -0.01308171
H        5.38933711       5.38934016       2.00382742      -0.00219047      -0.01735399       0.00704638
H        3.56224775       3.56225070       2.00383501      -0.01160975      -0.01288202      -0.02045898
H        3.05066696       3.05067028       3.58291604       0.03299014      -0.01950722      -0.01428277
H        0.00000349       8.95157627       4.70497583       0.01624472       0.00709477       0.00486209
H        1.42512583       7.52645429       3.58289566      -0.01166643       0.03453171      -0.00181805
H        0.91354602       8.03803589       2.00382147       0.01027688       0.00734456      -0.03117553
H        8.03803678       0.91354495       2.00382628       0.00079080       0.02701663      -0.03355831
H        7.52645591       1.42512386       3.58291357      -0.00052564      -0.01710459      -0.01052688
Pb       0.03145318       4.55088056       0.09560698       0.34911394      -0.43871807      -0.94206955
Pb       4.55644200       0.05761051       0.00298734      -0.03396026      -0.18796886       0.38666475
I        8.82359028       4.50828516       2.91905974       0.10140918      -0.06658300       1.14948181
I        4.45427166       0.18213600       3.39069856       0.06092252      -0.18657070      -0.52482695
I        2.03009894       1.81539358       0.03477853      -0.15763201       0.20229902       0.03335140
I        2.51793368       6.45539217       0.03423145       0.21350770      -0.00909886      -0.04575115
I        6.51177900       2.47971704       0.04297201      -0.02694387       0.07337122      -0.08286814
I        7.18444166       6.92229184       6.29307494      -0.47985603       0.47345087      -0.07474183
24
Lattice="8.95158397 0.0 0.0 0.0 8.95158397 0.0 0.0 0.0 6.32897243" Properties=species:S:1:pos:R:3:forces:R:3 config_id=t-FAPI3_al_cage_rattle_10__cage_rattle__sev-0.675__seed-new phase=t-FAPI3 mode=active_learning seed=3944072811 source=t-FAPI3/CONTCAR energy=-113.08625854 stress="-0.0045185049925302225 0.0036742308454486223 0.0005927231290678936 0.0036742308454486223 -0.005406879664536921 -0.00013731686453528858 0.0005927231290678936 -0.00013731686453528858 -0.0001610528369033108" pbc="T T T"
C        4.47580863       4.47581213       3.61395769       0.09627050       0.03249152      -0.02910063
C        0.00000662       8.95157287       3.61395307       0.09167813      -0.06280645      -0.02425456
N        5.30254327       5.30254703       3.01626364      -0.03110895      -0.02038500       0.08380662
N        3.64903040       3.64903389       3.01626877      -0.02448939      -0.07454453      -0.16026151
N        0.82676525       8.12481523       3.01626668       0.01414831       0.16100557       0.03942754
N        8.12482239       0.82675782       3.01626820      -0.07853292       0.15189249      -0.00827134
H        4.47579449       4.47579807       4.70497829       0.00859457      -0.01811805      -0.04645509
H        5.90092282       5.90092640       3.58290572      -0.01578523      -0.04589941      -0.03457061
H        5.38933711       5.38934016       2.00382742       0.00185715       0.00278364      -0.03208242
H        3.56224775       3.56225070       2.00383501       0.04625634       0.08736438       0.01771882
H        3.05066696       3.05067028       3.58291604       0.00658470       0.02916225       0.03783501
H        0.00000349       8.95157627       4.70497583      -0.03686652      -0.02730826       0.00142297
H        1.42512583       7.52645429       3.58289566      -0.00400890      -0.02710846      -0.05539039
H        0.91354602       8.03803589       2.00382147      -0.05299555      -0.04151501       0.06379068
H        8.03803678       0.91354495       2.00382628      -0.03711916      -0.03965581       0.01134524
H        7.52645591       1.42512386       3.58291357       0.00370394       0.00185588      -0.02145694
Pb       0.11523508       4.41116737       6.30672850      -0.85840743       1.29487465       0.15073933
Pb       4.42831923       0.02881989       0.11664220       0.21726590      -0.09243193      -0.20169135
I        0.01813994       4.74330936       3.18897510      -0.03560249      -0.16278153      -0.07902823
I        4.38060550       8.89132468       3.12770514       0.00132502       0.12238995       0.21895057
I        1.91356113       2.26767344       6.06234472       0.90398199      -1.39306797       0.00693131
I        2.79199036       6.23938705       6.25827730      -0.06095790       0.41500909       0.13442202
I        6.42583028       2.81637143       0.00037531      -0.29227157      -0.46515307       0.03687086
I        6.91225765       7.13894318       0.12909294       0.13647945       0.17194608      -0.11069787
24
Lattice="8.95158397 0.0 0.0 0.0 8.95158397 0.0 0.0 0.0 6.32897243" Properties=species:S:1:pos:R:3:forces:R:3 config_id=t-FAPI3_al_cage_rattle_11__cage_rattle__sev-0.725__seed-new phase=t-FAPI3 mode=active_learning seed=3587097616 source=t-FAPI3/CONTCAR energy=-112.40813551 stress="-0.009802692010421327 0.0031396663106270186 -0.0004059563855545682 0.0031396663106270186 -0.010972800190544387 0.0005576248638267485 -0.0004059563855545682 0.0005576248638267485 -0.007998290203237" pbc="T T T"
C        4.47580863       4.47581213       3.61395769       0.00435901      -0.10770625      -0.00619596
C        0.00000662       8.95157287       3.61395307       0.00247413      -0.02915283      -0.03346767
N        5.30254327       5.30254703       3.01626364       0.00076025       0.11492641      -0.03620197
N        3.64903040       3.64903389       3.01626877       0.00018353       0.03582244       0.00143816
N        0.82676525       8.12481523       3.01626668      -0.03192746      -0.10999533       0.00109157
N        8.12482239       0.82675782       3.01626820      -0.09264600      -0.06307099      -0.02187066
H        4.47579449       4.47579807       4.70497829       0.02449735      -0.02350452      -0.06956474
H        5.90092282       5.90092640       3.58290572      -0.03605474      -0.07773015      -0.04114716
H        5.38933711       5.38934016       2.00382742      -0.05769713      -0.02991726       0.02473627
H        3.56224775       3.56225070       2.00383501      -0.03630512       0.01492189      -0.05346468
H        3.05066696       3.05067028       3.58291604       0.03323830      -0.00197663       0.01395180
H        0.00000349       8.95157627       4.70497583       0.02810970       0.01708959       0.00561968
H        1.42512583       7.52645429       3.58289566       0.02545358       0.00322800      -0.00947219
H        0.91354602       8.03803589       2.00382147      -0.01229281       0.04202386       0.04182840
H        8.03803678       0.91354495       2.00382628       0.04515909       0.02946030       0.02693337
H        7.52645591       1.42512386       3.58291357       0.01350297       0.05296403      -0.00311845
Pb       8.80411575       4.52862012       0.18154183       2.53850968      -1.09998864      -1.13455937
Pb       4.50748426       8.86868031       0.07036216      -0.22008171      -0.09699750      -0.04676481
I        8.71793975       4.38127131       2.95507337       0.24606223       0.00640744       1.59224070
I        4.28817359       0.02203450       3.20446716       0.24551999      -0.05356592      -0.02166934
I        2.13487168       1.91368081       0.02663491       0.03470815      -0.23706051      -0.07314022
I        2.77509424       6.11577427       6.17260396       0.15939258       0.66130712       0.23935446
I        6.58775145       2.80345725       6.21134177      -1.42029720      -1.45102538      -0.16810289
I        7.26439954       6.75404378       6.29302260      -1.49462837       2.40354083      -0.22845430
24
Lattice="8.95158397 0.0 0.0 0.0 8.95158397 0.0 0.0 0.0 6.32897243" Properties=species:S:1:pos:R:3:forces:R:3 config_id=t-FAPI3_al_cage_rattle_12__cage_rattle__sev-0.775__seed-new phase=t-FAPI3 mode=active_learning seed=1379376747 source=t-FAPI3/CONTCAR energy=-112.9682946 stress="-0.006318299423783479 -0.0003386508908918415 -0.0002123575113897955 -0.0003386508908918415 -0.004003352343761775 0.0011253701224898064 -0.0002123575113897955 0.0011253701224898064 -0.008211175502879989" pbc="T T T"
C        4.47580863       4.47581213       3.61395769       0.07419693       0.01531868       0.01174003
C        0.00000662       8.95157287       3.61395307       0.14305935      -0.10171270       0.02957061
N        5.30254327       5.30254703       3.01626364       0.05803406      -0.07269905       0.02745905
N        3.64903040       3.64903389       3.01626877       0.08829609      -0.12943785       0.00226116
N        0.82676525       8.12481523       3.01626668      -0.08414006       0.18048509       0.06940683
N        8.12482239       0.82675782       3.01626820      -0.08954251       0.12397121      -0.07147753
H        4.47579449       4.47579807       4.70497829      -0.01284671       0.02198914       0.01462639
H        5.90092282       5.90092640       3.58290572       0.02061856       0.02074130       0.00063461
H        5.38933711       5.38934016       2.00382742       0.00655949       0.03982097      -0.00119238
H        3.56224775       3.56225070       2.00383501      -0.02548228       0.03899453       0.03196001
H        3.05066696       3.05067028       3.58291604      -0.02547398       0.03537519      -0.03164059
H        0.00000349       8.95157627       4.70497583      -0.01284120      -0.02873844      -0.01213468
H        1.42512583       7.52645429       3.58289566      -0.02078892      -0.01580858       0.03996638
H        0.91354602       8.03803589       2.00382147      -0.02643226      -0.05129834      -0.06773649
H        8.03803678       0.91354495       2.00382628      -0.00608324      -0.05485220      -0.01075430
H        7.52645591       1.42512386       3.58291357       0.03956230      -0.02955414       0.00948006
Pb       0.06310562       4.46394062       6.32091350      -0.17741048       0.39709321      -0.40497876
Pb       4.41480261       0.26405624       0.02543266       0.46478272      -0.71984178      -1.32832737
I        0.24400648       4.57501054       2.92624078      -0.19973843      -0.14051119       0.56649447
I        4.41420867       8.72474251       2.75955008       0.05747747       0.03760278       1.53297696
I        1.94094259       1.87499439       6.27089753      -0.42022735       0.39636604      -0.06183979
I        2.34601242       6.52352930       6.29312798       0.42543998       0.06237609      -0.24883962
I        6.53357504       2.47137210       6.26798696      -0.06957346       0.18454084      -0.04217820
I        7.18237716       7.13608342       6.29182567      -0.20744607      -0.21022078      -0.05547686
24
Lattice="8.95158397 0.0 0.0 0.0 8.95158397 0.0 0.0 0.0 6.32897243" Properties=species:S:1:pos:R:3:forces:R:3 config_id=t-FAPI3_al_cage_rattle_13__cage_rattle__sev-0.825__seed-new phase=t-FAPI3 mode=active_learning seed=3882306622 source=t-FAPI3/CONTCAR energy=-112.57003807 stress="-0.009202563536745374 0.0019900773663817026 0.00192811568955332 0.0019900773663817026 -0.011408853002032272 -0.0008809284704799008 0.00192811568955332 -0.0008809284704799008 -0.014707967207905973" pbc="T T T"
C        4.47580863       4.47581213       3.61395769      -0.03477774      -0.20600371       0.04204322
C        0.00000662       8.95157287       3.61395307      -0.05915793       0.11354332      -0.04266677
N        5.30254327       5.30254703       3.01626364       0.15190361       0.06066336      -0.05502864
N        3.64903040       3.64903389       3.01626877       0.14761569       0.08470616       0.08404617
N        0.82676525       8.12481523       3.01626668       0.06286984      -0.07821611      -0.03700220
N        8.12482239       0.82675782       3.01626820       0.09673136      -0.08180982      -0.08433187
H        4.47579449       4.47579807       4.70497829       0.02575113      -0.02620626      -0.03031510
H        5.90092282       5.90092640       3.58290572      -0.04830768       0.00301404      -0.02517887
H        5.38933711       5.38934016       2.00382742      -0.03072099       0.01704719       0.00506068
H        3.56224775       3.56225070       2.00383501      -0.03284840      -0.04091243      -0.04301290
H        3.05066696       3.05067028       3.58291604       0.04352996      -0.00115737      -0.02764065
H        0.00000349       8.95157627       4.70497583      -0.00224498       0.03053646       0.02232538
H        1.42512583       7.52645429       3.58289566       0.01423723       0.01249516      -0.02026112
H        0.91354602       8.03803589       2.00382147      -0.02609803       0.04592708       0.03885475
H        8.03803678       0.91354495       2.00382628       0.01025507      -0.00159969      -0.07247223
H        7.52645591       1.42512386       3.58291357      -0.05949759       0.02542942       0.14535401
Pb       8.79848592       4.58886213       6.09093319       0.38923109      -0.64161685       0.99612337
Pb       4.34868209       8.85916030       6.26180906       1.31540108       0.24005744       1.71195539
I        0.21855543       4.49278227       3.28555174      -0.03247056      -0.02067393      -1.04080006
I        4.43762789       0.03221684       3.52260106       0.13680954       0.02421840      -2.06839372
I        2.21685574       1.78881973       0.12070293      -1.16545671       0.94428438       0.09360116
I        2.84602310       6.43500225       6.16931372      -1.04226343      -1.24066301       0.22560700
I        6.58050407       2.31837225       6.10771712       0.30468065       0.40379447       0.13398606
I        7.11340109       6.96162949       0.00678232      -0.16517221       0.33314232       0.04814696
24
Lattice="8.95158397 0.0 0.0 0.0 8.95158397 0.0 0.0 0.0 6.32897243" Properties=species:S:1:pos:R:3:forces:R:3 config_id=t-FAPI3_al_cage_rattle_14__cage_rattle__sev-0.875__seed-parity phase=t-FAPI3 mode=active_learning seed=2384120238 source=t-FAPI3/CONTCAR energy=-113.32201267 stress="-0.0016425383854908391 -0.001491003943627137 0.0001539103472105789 -0.001491003943627137 -0.003256688845824407 -0.00014643220164007527 0.0001539103472105789 -0.00014643220164007527 0.000751492260197135" pbc="T T T"
C        4.47580863       4.47581213       3.61395769      -0.03913167      -0.06760098      -0.02537518
C        0.00000662       8.95157287       3.61395307      -0.08765117      -0.02278782       0.01373440
N        5.30254327       5.30254703       3.01626364       0.05524237       0.04878377      -0.04329400
N        3.64903040       3.64903389       3.01626877       0.00680007       0.08518893       0.00937752
N        0.82676525       8.12481523       3.01626668      -0.01911902      -0.08590839      -0.01552595
N        8.12482239       0.82675782       3.01626820       0.00924801      -0.04438497       0.01124089
H        4.47579449       4.47579807       4.70497829       0.00463981      -0.00762999       0.00199076
H        5.90092282       5.90092640       3.58290572       0.00402492       0.00687807       0.02482216
H        5.38933711       5.38934016       2.00382742      -0.02160455       0.01148603      -0.00850841
H        3.56224775       3.56225070       2.00383501       0.01580462       0.01569488       0.03340667
H        3.05066696       3.05067028       3.58291604       0.00242440      -0.02835767      -0.01108417
H        0.00000349       8.95157627       4.70497583      -0.01839778      -0.00767513      -0.02884713
H        1.42512583       7.52645429       3.58289566      -0.00617780       0.03271758      -0.04129633
H        0.91354602       8.03803589       2.00382147       0.01413168       0.02597022       0.02691988
H        8.03803678       0.91354495       2.00382628      -0.01078646       0.00995360      -0.03434292
H        7.52645591       1.42512386       3.58291357      -0.01030197      -0.02596160       0.01191683
Pb       8.94165604       4.47011328       6.19538099       0.01463042      -0.04194500       0.07995376
Pb       4.41227620       8.91711554       6.30424697      -0.16797258      -0.12485238      -0.15014128
I        0.04157321       4.42337992       3.09409513      -0.05116232       0.04020728      -0.04937264
I        4.32431937       0.16060610       3.02092291       0.08194478      -0.16894849       0.21018313
I        1.85162011       1.81943227       6.16854361      -0.10597805       0.24469766       0.08729898
I        2.62430051       6.36439690       6.31157282      -0.45689312      -0.45098610      -0.01041387
I        6.35340713       2.24003551       6.30396489       0.58659861       0.80830023      -0.08858028
I        6.93587632       7.00061650       6.22848265       0.19968683      -0.25283972      -0.00406283
24
Lattice="8.95158397 0.0 0.0 0.0 8.95158397 0.0 0.0 0.0 6.32897243" Properties=species:S:1:pos:R:3:forces:R:3 config_id=t-FAPI3_al_cage_rattle_15__cage_rattle__sev-0.925__seed-new phase=t-FAPI3 mode=active_learning seed=3780492443 source=t-FAPI3/CONTCAR energy=-112.45477456 stress="-0.010041725444705728 -0.0038688368058353837 -4.8511861296035215e-05 -0.0038688368058353837 -0.014159611141168888 -0.0007169446396156027 -4.8511861296035215e-05 -0.0007169446396156027 -0.003325142528505931" pbc="T T T"
C        4.47580863       4.47581213       3.61395769      -0.13443382       0.18990354      -0.02971934
C        0.00000662       8.95157287       3.61395307       0.18732452      -0.22652827       0.01147223
N        5.30254327       5.30254703       3.01626364      -0.14773383       0.00202452      -0.09968735
N        3.64903040       3.64903389       3.01626877      -0.11290686       0.38040512       0.08931053
N        0.82676525       8.12481523       3.01626668      -0.13584183       0.21232150       0.22167960
N        8.12482239       0.82675782       3.01626820      -0.09291078       0.10643791      -0.20861887
H        4.47579449       4.47579807       4.70497829      -0.03865907       0.08276119      -0.00308794
H        5.90092282       5.90092640       3.58290572       0.08915953       0.01430277       0.13213015
H        5.38933711       5.38934016       2.00382742      -0.01893164       0.04003730      -0.05188490
H        3.56224775       3.56225070       2.00383501      -0.04832171       0.05103382       0.04623516
H        3.05066696       3.05067028       3.58291604       0.02756070       0.06364618      -0.08710534
H        0.00000349       8.95157627       4.70497583      -0.01899455      -0.01502318       0.01101849
H        1.42512583       7.52645429       3.58289566      -0.04024517      -0.01729952      -0.00917624
H        0.91354602       8.03803589       2.00382147       0.05838645      -0.10601607      -0.10613806
H        8.03803678       0.91354495       2.00382628       0.04647669      -0.07853104       0.07755135
H        7.52645591       1.42512386       3.58291357      -0.04011922       0.01202746       0.00686224
Pb       8.87396711       4.20336843       0.00700927      -0.19452016       1.12613392      -0.27179179
Pb       4.49344478       0.23636774       5.98265068      -1.56943791      -2.58225025       0.44924325
I        8.76394812       4.65785574       2.95933314       0.03581875      -0.25768697       0.42044221
I        4.26927330       0.52830100       3.04252375       0.07019128      -0.68425286      -0.49603957
I        1.86393552       2.02911140       0.02267987       0.42434303      -0.66629989      -0.03747725
I        2.28381046       6.34035071       0.17892809       0.03683949      -0.03906398      -0.28087802
I        6.24438516       2.25934793       5.93482814       1.91012049       2.13213863       0.22142175
I        6.87802724       6.81441639       6.10504649      -0.29316438       0.25977819      -0.00576229
24
Lattice="8.95158397 0.0 0.0 0.0 8.95158397 0.0 0.0 0.0 6.32897243" Properties=species:S:1:pos:R:3:forces:R:3 config_id=t-FAPI3_al_cage_rattle_16__cage_rattle__sev-0.975__seed-new phase=t-FAPI3 mode=active_learning seed=4056980144 source=t-FAPI3/CONTCAR energy=-113.05365686 stress="-0.004658220369158441 -0.001686023291646324 0.00011290788896274975 -0.001686023291646324 -0.007539145093734226 -0.0004937118478267586 0.00011290788896274975 -0.0004937118478267586 0.000580092698853592" pbc="T T T"
C        4.47580863       4.47581213       3.61395769       0.00607146      -0.01405162      -0.05671909
C        0.00000662       8.95157287       3.61395307      -0.07379147       0.18491825      -0.00362012
N        5.30254327       5.30254703       3.01626364      -0.05891322      -0.02198245      -0.20310317
N        3.64903040       3.64903389       3.01626877       0.00252998       0.06279627      -0.04265782
N        0.82676525       8.12481523       3.01626668       0.12383607      -0.06467151      -0.10059888
N        8.12482239       0.82675782       3.01626820       0.19699055      -0.05678837      -0.03919568
H        4.47579449       4.47579807       4.70497829       0.02846615      -0.01336480      -0.00396398
H        5.90092282       5.90092640       3.58290572       0.09255972       0.05632878       0.12463988
H        5.38933711       5.38934016       2.00382742      -0.02086655      -0.06888769       0.03100006
H        3.56224775       3.56225070       2.00383501       0.05472285      -0.04246909      -0.00622999
H        3.05066696       3.05067028       3.58291604      -0.00110108      -0.01586031       0.03868483
H        0.00000349       8.95157627       4.70497583       0.00507382       0.02750818      -0.02998005
H        1.42512583       7.52645429       3.58289566      -0.01557991       0.00503478      -0.01027712
H        0.91354602       8.03803589       2.00382147      -0.00555794       0.01645786       0.03667730
H        8.03803678       0.91354495       2.00382628      -0.03614939      -0.00439203      -0.00641630
H        7.52645591       1.42512386       3.58291357      -0.05700083       0.03512075       0.07218789
Pb       0.30674634       4.44319497       0.05413265      -0.57748529       0.21593268       0.14784330
Pb       4.60967438       8.77862406       6.24915029       0.72595779       0.66707770       0.04611469
I        0.02134568       4.46434219       3.32153637       0.07127349      -0.04146638      -0.39145914
I        4.67650735       0.07678400       3.08572063      -0.21000152      -0.09866759      -0.11817373
I        2.08045786       2.08778509       6.17386520       0.39269796      -0.58437912       0.03382066
I        2.63174769       6.63741386       6.21203739      -0.85618509      -0.92309950       0.03716417
I        6.35732515       2.38873743       6.13340876       0.54649142       0.43208351       0.13104032
I        7.12007852       6.81980516       5.89267231      -0.33403897       0.24682170       0.31322196
