48
Lattice="9.01938999 0.0 0.0 0.0 8.77776784 0.0 0.0 0.0 12.79618681" Properties=species:S:1:pos:R:3:forces:R:3 config_id=O-FAPI3_al_global_rattle_01__global_rattle__sev-0.714__seed-new phase=O-FAPI3 mode=active_learning seed=1873978128 source=O-FAPI3/CONTCAR energy=-202.96737518 stress="-0.0461153038253097 -0.00782944750731442 -0.011184712020733541 -0.00782944750731442 -0.016320772223566326 0.010726411100306078 -0.011184712020733541 0.010726411100306078 -0.00414585728175419" pbc="T T T"
C        4.67879178       0.41012883       2.99413970      -4.07994994      -2.43686682      -0.37576726
C        0.25102036       4.17017091       9.90390553     -15.67307948       9.01233739     -15.07376162
C        8.98217418       4.70269096       3.12517585       2.00183001      -1.53692090      -1.89058782
C        4.53181000       8.36029624       9.59117529      -7.41784661       4.60528284      -1.19000933
N        5.23703917       8.01528028       2.36217903     -38.88862520       8.72848399      -2.00604289
N        0.61698057       5.03728534       8.87374352      -6.14343073      -2.10153040       0.66780682
N        1.15673893       5.10191947       3.17740042       9.24295492       1.05964500      -1.18822287
N        5.67380033       7.94003163       9.48336358       1.92128581       5.15103730     -11.54437009
N        3.29651651       0.77040537       2.86069031      13.61347219      11.06958580      11.91453428
N        8.01444000       3.48480605       9.49747061       3.70970855       5.67115237      -0.60408688
N        8.58406552       3.69142821       2.39360147      -6.23018172      -0.73806207      -0.13541186
N        3.94483685       0.61399924       8.64704371     -20.84453693     -34.72405005      30.74823736
H        5.17660953       0.83474843       3.87675720       0.38640840       0.18959520      -0.58956415
H        0.86260751       3.70098228      10.23777864      13.30304394      -9.52700136       8.82711573
H        8.59404737       5.41423780       3.71331099      -4.24202012       1.64374029       2.41497596
H        3.95904771       7.83887365      10.51289589       0.21871314       1.72633486      -2.11128869
H        5.92205931       7.98757905       2.54054623      40.75367378      -2.88557475       9.19037817
H        1.50372000       5.34676310       8.80497028       4.04907397       1.50563067      -0.17479983
H        1.74575876       5.94170994       4.02670726      -2.01888468      -2.13052897      -1.78622059
H        6.04029350       7.55776178      10.17654582       5.04003867      -5.12102594       7.79459443
H        4.72279784       7.84334988       1.64242551      -3.02917019      -2.48036845      -6.10458475
H        8.92556425       5.28428752       7.95183776       2.00332361      -0.54224047       3.02982754
H        2.09810529       4.64487620       2.48983046      -3.31900638       1.19263284       2.38578695
H        6.23504134       8.41312936       8.61584878      -0.68550093      -1.57780780       2.57927078
H        2.84883151       0.23133833       2.41834853      -9.38353813      -9.86023400      -8.36541658
H        7.45789177       4.28388505       8.94997309       0.43226196      -2.74009204       1.73261777
H        0.01301922       3.29140558       1.57286173       0.84306825       0.12785986       0.04814062
H        4.22252772       1.12028272       8.23747974      17.16708857      29.78705120     -24.09774423
H        2.93193797       1.54706324       3.92398971       0.38491638      -2.06210059      -2.92419818
H        7.68389018       2.98246414      10.26504117      -1.89355096      -1.18935373       1.55896007
H        7.44286412       3.58515147       2.31374405       3.38845147       0.27762292       0.35280419
H        2.73303526       0.67896482       9.09798530       4.03060156       0.18096094      -2.15194285
Pb       4.58620341       4.28579465      12.62741931      -0.04192071      -0.54880926       0.11290922
Pb       8.87940175       8.73049324       6.08942238       0.64603466       0.82376365      -0.16258133
Pb       0.06055600       8.58927739      12.50543019      -1.19220448       1.09684290      -0.03342947
Pb       4.61678239       4.46151301       6.32215815      -0.22667235      -0.24365565      -0.12620006
I        7.12980966       6.41308125       6.36590370      -0.13764178      -0.64391354       0.20578927
I        8.74747604       8.50444895       2.93276023      -0.09002843       0.16916269       0.29125604
I        6.17507196       1.44153998      12.35316708      -0.23192295       0.80451672       0.00761753
I        1.89542634       2.38960413       0.09524368       0.06355850       0.32884022      -0.25956277
I        2.06242458       2.73888301       5.93353731      -0.00769879      -0.63339946      -0.34867447
I        2.53761376       6.72165069       5.86655874      -0.16959851       0.61353667      -0.00730901
I        6.95147404       6.31538004      12.40433942       0.02913911      -0.47000395      -0.01406687
I        6.36994301       1.87479358       6.68278323       0.37220659      -0.20292762      -0.19866830
I        4.17799683       4.61142886       9.56956241      -0.04840019      -0.07232004      -0.38032056
I        0.26779741       8.67148777       9.34148816       0.33071877       0.10632761      -0.15464649
I        2.42103463       7.17308444       0.05442743       1.71987862      -1.36404627       0.09509950
I        4.64765180       4.37612350       3.04087649       0.34395878      -0.03910978       0.04175758
48
Lattice="9.01938999 0.0 0.0 0.0 8.77776784 0.0 0.0 0.0 12.79618681" Properties=species:S:1:pos:R:3:forces:R:3 config_id=O-FAPI3_al_global_rattle_02__global_rattle__sev-0.743__seed-new phase=O-FAPI3 mode=active_learning seed=694410902 source=O-FAPI3/CONTCAR energy=-192.05366362 stress="-0.05582557884619459 -0.042536925021393994 0.012759564959693614 -0.042536925021393994 -0.07177173293327836 0.019821581302405186 0.012759564959693614 0.019821581302405186 -0.008393796842001703" pbc="T T T"
C        4.86568689       0.37151964       3.01318785      -6.20066641       5.87073336       6.10268391
C        0.14439322       4.17818194       9.44740527     -25.21623650     -66.17447118      41.62250613
C        8.87808321       4.70340398       3.04142622       8.10841143      14.61133659      14.80035303
C        4.55736473       8.18637802       9.79975723      -2.28236943       8.36084013      -8.16339389
N        5.30893778       8.16544234       2.39527726     -38.87525479      10.16771868       5.25751998
N        0.43569426       4.95029213       9.04401098      34.46630670      66.64511501     -40.55496559
N        1.08478350       4.95939731       2.97397227       8.18888834       4.56550927       1.71659672
N        5.84022801       8.16227804       9.38969319     -11.06398568     -12.80261676      19.54713205
N        3.20951060       0.92146935       3.20911026       5.59907042     -11.56274316      -8.90521625
N        7.90052330       3.96290525       9.56887320      -6.18107289      -7.10936361       2.56086173
N        8.28723055       3.89553817       2.59440871      -0.43606081     -15.59386556     -14.88728607
N        3.75190930       0.62620719       8.90833724       2.16256270      -4.41486609       4.28844554
H        5.27181261       0.90833386       3.98469789       0.37951085      -1.01769937      -2.25498008
H        0.65973816       3.55209457      10.47509647      -0.28631213       1.15582861      -2.61517813
H        8.48274043       5.09893661       4.20494164       0.08593426      -0.25517632      -2.90248692
H        3.67079919       7.88987415      10.33381018       0.67112794      -1.41429107       1.40515212
H        5.96901606       7.95153525       2.25226759      39.92498409     -11.87061036      -6.75469974
H        1.58977328       5.00738230       8.95769111      -1.65280011       0.93886006       0.28119841
H        1.29180060       5.83346294       4.00977087       0.52869058      -2.65649773      -3.70731939
H        5.97783179       7.47829726      10.27109351       3.12722386       1.03809522      -2.46514335
H        4.74405401       7.69185649       1.69226512      -1.27753627      -0.08475855      -0.33373728
H        0.13955549       5.23425538       8.07056206      -0.72607355       1.40593916       0.64320876
H        1.98351250       4.61120459       2.28346892      -3.29591467       1.01208756       2.20611525
H        6.14072134       8.57693409       8.75350210       7.26841521       8.76645849     -13.49986337
H        2.52533053       0.50402171       2.45504057       1.54776093       1.38687209       2.03006680
H        7.26430428       4.22150927       8.80941427      -0.12543751      -0.09357395       0.13146627
H        8.87918826       3.55716926       1.45901674      -1.65910702      -0.06396628       2.80772268
H        4.30700396       0.99829238       8.17531958       0.32849141       0.54329297      -1.06171257
H        3.01417082       1.62087680       3.72177413      -1.23401936       6.96158303       4.79950926
H        7.69321424       2.95898721      10.13118704      -0.09025010       3.18204130      -2.08431801
H        7.42614577       3.79221436       2.58924647     -10.71961397      -1.68182247       0.09666178
H        2.72938593       0.67054018       8.97842618       0.21592933      -0.07562075      -0.23849077
Pb       4.34845329       4.54764126      12.55532457       0.01815322      -0.85592179       0.37841894
Pb       0.07223945       0.27771383       6.00164450       0.12581756      -0.99422360       0.11129936
Pb       8.82279859       8.45886469      12.40295206       1.68767670       2.66043328      -0.11369462
Pb       4.38490217       4.55543890       6.32673892       0.28350015       0.34909009      -0.44789987
I        7.12170655       6.36926325       6.31054036       0.02355561      -0.43950022       0.18405777
I        8.60414945       0.04024492       3.01820523       0.18525093      -0.03058591      -0.42301684
I        6.36257110       1.65353282      12.34845246      -0.02194062       0.25838519      -0.08337289
I        1.71445201       2.50754055       0.10050112       0.07847118       0.57152776      -0.04340812
I        1.95136036       2.55123803       6.00138858       0.26795931       0.85592014       0.19759309
I        2.77259422       7.23404437       5.99159719       0.11180041      -0.73914631      -0.16249830
I        7.10501815       6.43427534      12.60955647      -1.95541905      -2.54706159      -0.09215250
I        6.56398220       1.65982490       6.36204015      -1.06552079       0.79733805       0.21459452
I        4.05818632       4.27902410       9.44218532      -0.27775916       0.17319913      -0.16255725
I        0.35898543       8.74489378       9.29241798      -0.21265356      -0.06615799       0.25145027
I        2.72802688       7.08270494      12.71411872      -0.02511723       0.04415806       0.26667509
I        4.97890901       4.26440604       2.94085715      -0.50437151       0.22217738       0.05610235
48
Lattice="9.01938999 0.0 0.0 0.0 8.77776784 0.0 0.0 0.0 12.79618681" Properties=species:S:1:pos:R:3:forces:R:3 config_id=O-FAPI3_al_global_rattle_03__global_rattle__sev-0.771__seed-new phase=O-FAPI3 mode=active_learning seed=404066086 source=O-FAPI3/CONTCAR energy=-203.3924522 stress="-0.005393211932954951 -0.01794422192707108 -0.01781641674171158 -0.01794422192707108 -0.024049918679227802 -0.008129965348948874 -0.01781641674171158 -0.008129965348948874 -0.019201371409750635" pbc="T T T"
C        4.73100007       0.30946486       3.09810449      -7.53581569      -2.96254534      -2.88306645
C        0.14253730       3.93350798       9.58871715      -1.16112893       3.49058364      -2.67926484
C        8.89679303       4.74523953       3.45692275       3.20534610      -5.05308500      -8.42754176
C        4.30474541       8.54911550       9.86297692      19.03395399       3.37251789      -7.60373673
N        5.08932104       7.99979226       2.33047494      10.43569502       8.65867241      13.24412446
N        0.62638130       4.97786152       8.97229041       4.24699698      -0.87591896       3.52733727
N        1.05068128       5.22312412       3.15688826     -10.75294797     -28.77851797     -15.09393747
N        5.54985560       8.01969620       9.42143695       5.23835669      -3.75322869       3.34667418
N        3.30815504       0.74017395       3.23523086       4.20243165     -16.85807689     -20.89887890
N        7.95877737       3.70846190       9.22022766      -7.33099254      -3.96956727       3.53834789
N        8.48701752       3.63695513       2.52179738      -6.79390631       5.09232967      10.43413894
N        4.04167344       0.37968489       8.87109035      -8.61201026      10.81407340     -10.89159611
H        4.95719780       0.84852285       3.95189423       3.74355574       0.27946959       1.68704661
H        0.55705764       3.51478625      10.42284452       1.60404369      -1.65055840       1.89885698
H        8.25280110       5.46423061       3.72526148      -3.08120485       1.80865539       2.43431167
H        3.71929239       8.06135504      10.21284565     -12.51433145     -10.09637702       9.57113344
H        6.29785734       7.82008844       2.53799672      -3.71349563       0.43440674      -0.99116400
H        1.50820941       5.35324522       8.76117495       2.83193588      -0.34430640       1.38279980
H        1.36770084       5.82044112       3.44547695      14.21373516      28.06010612      13.97136660
H        6.12680569       6.96306212      10.10540004      -1.69408759       3.87889259      -1.92791818
H        4.74125304       7.58749129       1.66176439      -5.49473303      -5.12360581      -9.13278004
H        0.22165458       5.38311833       8.26805431      -4.87526228       2.41878363      -5.09200879
H        1.80007326       4.72840561       2.41968714      -2.50001148       0.99677730       2.18935334
H        6.33987002       8.58324847       8.64520835      -3.04026814      -1.81479783       3.06203153
H        2.70252826       0.40090699       2.40510793       0.34751904       1.36036399       2.36493244
H        7.04440560       4.29555536       8.89345169       3.07141468      -1.01738271       0.38209601
H        8.80898332       3.45917777       1.65316394       1.78858719      -0.34510316      -3.94615506
H        4.53534605       0.78666680       7.88637426      -0.12082138      -1.52684718       3.25541145
H        3.33598293       1.22781924       3.85544156      -1.42319536      14.29345801      16.75835655
H        7.37044933       2.90511506      10.20502475       1.45392680       1.83430969      -2.63182667
H        7.19403186       3.90669901       2.78604517       3.61694735      -1.83792473      -1.92601657
H        2.99535827       0.73062295       8.68679660       1.96279599      -0.77248658       1.08190681
Pb       4.51902122       4.45242118      12.51210686      -0.05794350      -0.21106998      -0.07414205
Pb       0.02948421       0.31622348       6.06804366      -0.14901480      -0.29256599       0.58081110
Pb       8.95606260       8.60823131      12.71490914       0.13162817       0.36669560      -0.65509633
Pb       4.42757327       4.47580550       5.98327136       0.42081015       0.45403221       0.40154154
I        7.37223490       6.18803473       6.37364578      -0.46740207       0.16897367       0.00033247
I        8.74078663       8.72524694       3.01697539      -0.42392782      -0.14035876      -0.09966610
I        6.50867016       1.76033605      12.16542181      -0.13905147       0.31734943      -0.12742208
I        1.89645518       2.65963153      12.68992676       0.07391438       0.01383944       0.23139026
I        1.87023293       2.84704460       5.90098765      -0.16965240      -0.15809148       0.14999140
I        2.24789896       7.06060612       5.98086158       0.87338538      -0.38696950       0.10836326
I        7.42489334       6.00401444      12.37862331      -0.20545457      -0.15460890      -0.04761214
I        6.40440862       1.89290817       6.50842801      -0.70990231       0.18218601      -0.06137590
I        4.33753035       4.36841838       9.51617275       0.03889623       0.05418150      -0.52489004
I        0.45998916       0.10829791       9.45306618      -0.07115567      -0.03213972      -0.11685838
I        2.73177173       7.13388073       0.06941650       0.00785782      -0.27347902       0.03887239
I        4.55888413       4.16602377       2.91864591       0.49398344       0.07895537       0.19142616
48
Lattice="9.01938999 0.0 0.0 0.0 8.77776784 0.0 0.0 0.0 12.79618681" Properties=species:S:1:pos:R:3:forces:R:3 config_id=O-FAPI3_al_global_rattle_04__global_rattle__sev-0.800__seed-parity phase=O-FAPI3 mode=active_learning seed=1195520627 source=O-FAPI3/CONTCAR energy=-210.34018587 stress="-0.024242155687308854 -0.018489798481273658 0.012235176550143305 -0.018489798481273658 -0.022717776440793265 0.001768473589750187 0.012235176550143305 0.001768473589750187 -0.009204043017827065" pbc="T T T"
C        4.73610387       0.31278066       3.26948715      -5.56260271       2.12874231      -2.34263600
C        0.17471118       3.97240394       9.32468267      -5.95308482      -8.84223264       9.53425766
C        8.91064799       4.77101895       3.14903549      -6.22308300       1.62584517       5.59163221
C        4.17160460       8.33253742       9.48019755       5.05441737      -0.68038131       2.22084240
N        5.17387331       8.22705156       2.28643648      -0.72421575       2.19615599       3.72679386
N        0.56783076       5.00349129       8.88558856       4.45051263       6.61426269      -4.20241708
N        0.96427958       5.10224240       2.90958890      19.68149141       9.09254740       0.61779630
N        5.94122633       8.13880533       9.28645407     -24.50498747      -6.67325979      28.43190893
N        3.33749809       0.77872319       3.15463677       5.46326874      -6.65523373      -4.69935077
N        7.87831503       3.76438462       9.35260114      -3.23031288      -2.21793808       0.05158845
N        8.48218538       3.86409910       2.54953964      -2.27408695      -9.07281320      -7.97363372
N        3.82611416       0.61373600       8.90537364       6.19540659       1.64307571      -4.17295578
H        5.15130166       1.03092856       4.04769096       0.97378190      -1.68832060      -0.77009425
H        0.58905329       3.39429515      10.50828427      -0.00275135       1.24539832      -3.59477307
H        8.38122287       5.04721537       3.97344429      -1.67321693       1.77764741       2.37265637
H        3.39512018       8.03133613      10.62870112       2.12014552      -0.25233439      -2.51083705
H        6.12478580       7.88178886       2.55343800      -0.44939955      -0.32842545      -1.15633926
H        1.56762779       5.05620442       9.01365421       0.96646897       1.32523861      -0.86636976
H        1.38024149       5.86893715       3.67238559      -0.84038548      -1.91113971      -2.33876654
H        6.09141297       7.52027193      10.11665301       0.77121335       0.54317916      -1.47433227
H        4.40315985       7.87116557       1.65029824       1.36533761      -0.16437759       0.43533591
H        8.98079900       5.32830135       8.12367532       0.69091115       1.30420620      -0.41485145
H        1.84878229       4.60368117       2.48530189      -2.63781436       0.79494980       0.42035753
H        6.39042848       8.27143898       8.70615083      18.16912281       5.51748010     -25.02903473
H        2.76448605       0.31205641       2.36751542       0.75311748       1.14802100       1.74615679
H        7.03449635       4.22045857       8.84988157       2.21835603      -0.26488362       0.45422940
H        8.71897368       3.39807284       1.69054596       1.58781850       0.22243455      -0.60761567
H        4.40250216       1.21253013       7.98128178      -0.46017578      -1.84211736       2.64353825
H        2.96242577       1.44577333       3.69429586      -1.71011543       3.23447510       2.80972450
H        7.45941091       2.97827688       9.92730898       1.02156129       0.80749508      -0.71192769
H        7.65141830       3.56344695       2.70165124      -7.44509447      -2.46172843       1.93555070
H        2.95736030       0.84312769       8.76971947      -6.95707261       1.66852606      -0.07571795
Pb       4.62291305       4.11204699      12.42243028       0.39080296       0.16611912       0.45160136
Pb       0.22660757       0.05321074       6.35937752      -0.20192655       0.30772057      -0.96192645
Pb       0.22049919       8.74397958      12.36616174      -1.11044601       0.00450423       0.66681801
Pb       4.72134454       4.53607401       6.18233792      -0.53666210      -0.18794796      -0.11764040
I        7.12962909       6.29007821       6.32151603       0.38153177       0.15877505       0.09288859
I        8.60073805       0.02805173       2.94693802       0.07229866      -0.10753158       0.02722891
I        6.44718533       1.68251859      12.30872631      -0.18098930       0.19195218      -0.03284609
I        1.75884923       2.57578383       0.02435217       0.28539862       0.40700541      -0.10734679
I        1.73803356       2.68413045       5.58827546       0.03635144       0.09169580       0.45187322
I        2.58955381       6.95583969       5.86396419      -0.00673054       0.01823257      -0.04402779
I        7.24871011       6.19313093      12.09230517      -0.20684812      -0.26230169       0.19528476
I        6.37040381       2.00854832       6.73359036      -0.16091795      -0.45970665      -0.15767105
I        4.10068505       4.13786048       9.50175810      -0.18001936       0.15658127      -0.42509330
I        0.45817482       8.69275314       9.34361924      -0.00940683       0.03880028       0.02477800
I        2.58725288       7.04204053      12.69180512       0.84929315      -0.40078345       0.03299139
I        5.03186121       4.31719563       3.12257004      -0.25626166       0.04239008      -0.14762857
48
Lattice="9.01938999 0.0 0.0 0.0 8.77776784 0.0 0.0 0.0 12.79618681" Properties=species:S:1:pos:R:3:forces:R:3 config_id=O-FAPI3_al_global_rattle_05__global_rattle__sev-0.829__seed-new phase=O-FAPI3 mode=active_learning seed=1291871169 source=O-FAPI3/CONTCAR energy=-199.62516296 stress="-0.03954172909374162 -0.021558635178906237 0.008411093218468715 -0.021558635178906237 -0.03573031294852858 0.01640166343638111 0.008411093218468715 0.01640166343638111 -0.023502851165808247" pbc="T T T"
C        4.68437983       0.33258769       3.29490972     -12.17792534      -0.18995185      -5.81371575
C        8.86934261       4.09404721       9.51680386       8.81470194       0.02983162       3.41081994
C        9.00199105       4.77442604       3.15283391     -30.51958364      -6.68847855       9.60511920
C        4.37147014       8.52089156       9.38605946      17.82858907     -19.93863810      18.82576733
N        5.09334044       8.31648403       2.44885771       4.91853822      -5.89050737      -2.69183444
N        0.58983374       5.00326710       8.74555541      -1.58058543      -0.68203904      -0.00072628
N        0.93001122       5.10694852       2.87640480      40.68250755      15.24691736      -2.88887712
N        5.90235862       8.31630119       9.42046328      -6.35117985      -3.72565605       5.38638306
N        3.19827885       0.80798247       3.12057844       5.37953867      -0.25111754       2.27776068
N        7.70904679       3.57038779       9.60150041      19.43550256      47.37823076     -44.30424816
N        8.60749132       3.84668120       2.41365783      -9.90577049      -6.78205795      -1.89120899
N        3.79295492       0.40836406       8.75583612      -6.11975668      10.02133897     -11.17748353
H        5.01649470       0.90437070       3.95723971       4.07358147       4.06669159       5.91581349
H        0.72255199       3.52964332      10.55590080      -2.22215067       1.57543768      -2.75026231
H        8.19613011       5.48627651       3.94979949       1.96918354      -2.35399171      -1.80613806
H        3.91626279       7.65136596      10.45364622       0.62856820       2.78086168      -2.91204570
H        5.97131041       7.70829558       2.51401692      -0.13584962       1.82385731       0.98808255
H        1.67834054       5.17588524       8.84960799      -2.66070746      -0.89483253       0.35749311
H        1.63503060       5.62413179       3.76239089      -2.43596944      -0.41888443      -2.50833437
H        6.13919644       7.33652648      10.19440673      -0.49614507       3.72507633      -3.09656029
H        4.71453382       7.74055054       1.68452522      -1.98789440       1.12787522      -0.03625619
H        0.17386389       5.57142515       7.90831933       0.41208470      -1.30886462       1.59405078
H        1.80662909       4.62782442       2.45658354      -2.16160076       0.28450222      -0.43923190
H        6.52046589       8.55576150       8.72187044       1.61584407       0.60595125      -2.26581435
H        2.45199955       0.60428761       2.44383610       0.73054872      -0.26820912       0.01629649
H        7.21561553       4.05825270       8.76478603      -0.81719852      -1.89063101       1.82724525
H        8.94675242       3.20442193       1.63454165       0.40456128       1.45516341       1.30832400
H        4.35222700       0.80461734       8.14882047       2.73981863       4.16556620      -5.53168421
H        3.12300699       1.64896083       3.74493280      -0.66416866      -0.92734613      -0.89596348
H        7.49476989       3.11348461      10.01361606     -20.96435043     -44.37814956      39.95868847
H        7.54326192       3.71457755       2.64353071       1.95074126      -0.58187650      -1.16912468
H        2.95108605       0.57458944       8.94853991      -9.83339781       2.35793364       1.09441589
Pb       4.45405510       4.32254875      12.34614633      -0.22695978      -0.06602708       0.91607222
Pb       0.10676730       0.07343682       6.30284038      -0.39933730       0.31416893      -0.32739723
Pb       8.80032786       8.71650973      12.52957711       1.29902698       1.23325898       0.19356689
Pb       4.49838730       4.53980272       6.18999286      -0.09868869      -0.09652567      -0.50147297
I        7.18478491       6.21547386       6.30297308      -0.26864694      -0.38346619       0.06417484
I        8.64279898       0.06564743       3.25457486      -0.11333758      -0.21726133      -0.66651615
I        6.40886456       1.66900012      12.60569881      -0.71869569       0.71371703      -0.10271943
I        1.95940926       2.43475837       0.17563483       0.32308656       0.44735701      -0.45980974
I        1.71967225       2.56575637       5.60256471       0.32550392       0.81855173       0.51118452
I        2.46142057       7.13791526       6.16814145       1.29848442      -1.26982780      -0.24587151
I        7.48575808       6.30205758      12.40797533      -1.33732756      -1.87240506      -0.17292903
I        6.50845919       1.48354248       6.46073266      -1.12199262       0.97686128       0.13406395
I        4.37750826       4.42639580       9.34733026      -0.36866040       0.03737270      -0.35171622
I        0.38574578       0.14131118       9.38847077       0.09241179       0.04138095       0.52583019
I        2.51186142       7.06991609       0.05761649       0.72214571      -0.50072419      -0.13999539
I        4.76245736       4.14075345       2.90285273       0.04291155       0.34956557       0.23678457
48
Lattice="9.01938999 0.0 0.0 0.0 8.77776784 0.0 0.0 0.0 12.79618681" Properties=species:S:1:pos:R:3:forces:R:3 config_id=O-FAPI3_al_global_rattle_06__global_rattle__sev-0.857__seed-new phase=O-FAPI3 mode=active_learning seed=2564534103 source=O-FAPI3/CONTCAR energy=-191.85070631 stress="-0.05586118642482191 -0.013455772372483743 0.0011058015121424996 -0.013455772372483743 -0.043209381688164 0.023119205092073204 0.0011058015121424996 0.023119205092073204 -0.06814708728896714" pbc="T T T"
C        4.34867453       0.25736582       3.15713970      13.00085060      -3.32737515       0.96268702
C        8.98591813       4.25302584       9.57836260     -26.06350207     -45.76195677      40.36711976
C        8.88093559       4.67340973       3.29367706      12.04778211      -2.60681052      -8.43564902
C        4.42420813       8.30239676       9.69920109      -5.30086281       8.73906583      -6.97410348
N        5.26177088       8.15259388       2.43769035     -26.42702281      17.38581726      26.59866388
N        0.36351280       4.87189920       8.97590226      32.37553448      37.10055070     -32.75533726
N        1.28099582       5.16078783       3.26539787      -6.37073761     -10.66378101      -6.79146948
N        5.52737829       7.90315044       9.53945055       8.36140011       2.69183508     -10.51865482
N        3.21808543       0.54854518       2.82403474       5.85476310      12.04542682      13.49030885
N        7.66470368       3.60416482       9.38161381       5.22479678       8.45288847      -5.88922639
N        8.63202406       3.87523853       2.23287766      -6.98354441       8.20141826      17.87855244
N        3.90917724       0.54845293       8.88962537      -3.41320046     -10.36460544      11.86946611
H        5.11212449       0.72051131       3.92655586      -2.57200004      -0.08253175      -0.54696199
H        0.89399057       3.43167194      10.48869856      -2.61940122       1.67514441      -1.46102521
H        8.24616436       5.21076871       3.74212404      -5.26389698       3.55430507       4.19743695
H        3.93023292       8.00135760      10.45222942      -4.30600509      -2.20761674       5.50475930
H        5.95376166       7.96917532       2.43098617      38.14361575      -8.97737521       1.71009337
H        1.76874513       4.85830569       9.05547176      -1.40620558       0.63755751      -0.65460718
H        1.70021634       5.83189813       3.68217800       3.37267506       6.02380654       4.19204025
H        5.92479598       7.55645766      10.23884968       4.86586279      -4.92289763       7.66811406
H        4.88742885       8.01621107       1.81680286     -16.46919913      -7.18665441     -28.45068059
H        0.14762171       5.44219499       8.31932774      -1.99146973       4.97160616      -6.07327614
H        1.85065355       4.52086977       2.43828435      -1.67709504       2.60083240       3.13893243
H        6.41560998       8.46387328       8.81650912      -3.21311909      -1.91444522       2.15112269
H        2.70772424       0.14979533       2.31956146     -10.94091638      -7.79545633     -10.40426776
H        7.43471871       4.19222198       8.48514047      -1.57051928      -2.48868572       2.05123017
H        8.64017046       3.46238851       1.50483899       1.42089649      -6.97876780     -12.60629064
H        4.35654665       0.90836476       8.28423701       7.82487486       6.34066193     -10.71491131
H        3.00825455       1.37951873       3.79444649      -1.25808226      -1.97055501      -2.90427028
H        7.53869180       3.01676599      10.06097629      -2.61887767      -4.60491624       4.47222749
H        7.24777697       3.75663306       2.64423923       2.62534634      -0.13545548      -1.64561969
H        3.06128559       0.79897393       9.16857214      -4.71713401       1.80330653       0.84682957
Pb       4.50375365       4.39419947      12.72386519       0.33150558      -0.10014759      -0.16401349
Pb       0.03818214       0.14667325       6.31363294       0.23678905      -0.21118296      -0.19346245
Pb       0.01270534       0.01032441      12.66324902      -0.81191954      -0.68249829       0.10836526
Pb       4.64316221       4.33029803       6.22501986      -0.10215936       0.58784216      -0.77342234
I        7.42339730       6.28719094       6.55815310      -0.43638672      -0.34068155      -0.02510528
I        8.46674031       8.30301998       3.03316960       0.53859625       0.33005294       0.19535779
I        6.38308408       1.74393883      12.28112455      -0.17103140       0.17616821       0.12341847
I        1.85656016       2.20855494       0.07712339       0.86085158       1.14326346       0.01575610
I        1.94659731       2.60511343       5.88848335       0.33254710      -0.12168848      -0.41245226
I        2.81472361       6.91097037       6.00088710      -0.11499442       0.29270066       0.04098711
I        7.03191762       6.28105028      12.28021500      -0.28195614      -0.49415016       0.12925676
I        6.37451205       1.80824607       6.53546137       0.26471937      -0.45627066      -0.11663158
I        4.16891394       4.32210688       9.05976501      -1.26371042       0.17276286       1.55335896
I        0.37977747       0.23355244       9.48865391      -0.19294540      -0.16885157      -0.24695059
I        2.57379946       6.90196868      12.78698571       0.12772533      -0.25751645       0.06441736
I        4.73996922       4.13097967       3.03833479       0.74676236      -0.10413911      -0.57211289
48
Lattice="9.01938999 0.0 0.0 0.0 8.77776784 0.0 0.0 0.0 12.79618681" Properties=species:S:1:pos:R:3:forces:R:3 config_id=O-FAPI3_al_global_rattle_07__global_rattle__sev-0.886__seed-new phase=O-FAPI3 mode=active_learning seed=3548498775 source=O-FAPI3/CONTCAR energy=-195.86418007 stress="-0.04989380676400393 -0.005169763653063536 -0.035332246292380805 -0.005169763653063536 -0.026984427708358683 -0.003982192866360918 -0.035332246292380805 -0.003982192866360918 -0.03988263137811479" pbc="T T T"
C        4.61253985       0.29118586       3.15931032      -8.08004987       6.06293645       3.28876702
C        8.99839285       3.97413237       9.39603728       1.27461677       2.86023472       3.52889632
C        9.01459880       4.48220827       3.18184799       6.22707743      13.73968577      11.29858793
C        4.44045404       8.60439376       9.84136941      12.73702497       1.95414314      -5.10528615
N        5.06203414       8.24769047       2.48614861      11.75092913     -12.70122144     -10.58764439
N        0.72169831       4.97922708       8.74339030     -56.29915186      -3.85877289      -4.07241324
N        1.27118011       5.10854370       3.25095200     -10.77144061     -22.47856937     -16.64666263
N        5.76282451       7.96852199       9.53069309      -8.29485695      23.30225311     -15.46824966
N        3.33236408       0.44885274       3.05135247       5.36206657       7.61921339      11.37736357
N        7.64173652       3.83212801       9.55655316      26.90989526      -4.86673080      31.21628637
N        8.45708126       3.84859212       2.41397722      -6.70617906     -10.64966274     -10.45970133
N        3.65596896       0.23353365       8.92686253       1.74458602       9.66645245      -6.12480026
H        5.08287046       1.00967767       3.68423255       2.27844875       1.92706355       2.28017512
H        0.43855575       3.64487856      10.45586226       0.07604896      -0.07105094      -2.61702835
H        8.22115738       5.12768599       3.76882034       1.58272682      -1.07608022       0.55909065
H        3.84258583       8.03813846      10.11422045      -8.65287932     -10.47407961       8.83264671
H        6.18774330       8.09795009       2.38699096      -2.47035642       0.74836536       0.79239638
H        1.40155873       5.01149652       8.78309443      50.97797939       2.31803773       3.24857283
H        1.59455239       5.69460972       3.65034748       9.01946441      17.96254677      12.70623129
H        5.92165236       7.37373412      10.01117698       5.87600694     -17.75659590      14.69402033
H        4.69900712       7.60296684       1.66504661      -0.48268741       1.72628352       2.18324390
H        0.13001216       5.60146083       7.97510865       1.80297304      -1.78885948       1.89879437
H        1.76516759       4.69475340       2.37870940      -0.00832538       1.39790398       2.04130287
H        6.43316920       8.66604871       8.97458387      -1.38138520      -2.61027011       1.73702021
H        2.57906832       0.34178021       2.64586499      -9.08778295      -2.57260369      -6.14388363
H        7.19697552       3.84354947       9.00761709     -26.71866580       2.90293366     -33.79952088
H        0.19163110       3.29156164       1.28975748      -1.35326805       0.76333066       2.32604046
H        4.31685575       1.07421313       8.31544652      -2.25523561      -2.64191976       0.55964190
H        2.98160234       1.32895905       4.01005994       0.77018382      -2.61976635      -2.96786921
H        7.24864553       2.81713743       9.94315847       1.79306637       2.41456010       0.53710140
H        7.30898543       3.64661805       2.89873747       2.15227509       0.10537223      -2.45481579
H        2.78354583       0.80603100       9.09504640       0.40143694      -1.34350440       0.43455669
Pb       4.65785895       4.50440874      12.37906529      -0.31225395      -0.28262868       0.52626259
Pb       8.84372465       0.28384808       6.16542751       0.27863608      -0.38385965      -0.58439441
Pb       8.96732989       8.55460161      12.22537937       0.07028215       0.69542213       2.13791145
Pb       4.47757839       4.62423501       6.27945497       0.05114178      -0.14778646      -0.38809305
I        7.10291447       6.19232837       6.42304277       0.47795983       0.32027069       0.12533594
I        8.75548228       8.57010279       2.80011688      -0.23782704       0.11235291       0.52920696
I        6.16368363       1.62866970      12.09244836      -0.06756617       0.12276350      -0.10187964
I        2.03840992       2.43311272       0.03147798      -0.54720092       0.39867957       0.14764001
I        1.97906864       2.59608971       6.04909238      -0.12865880      -0.35034349      -0.13236076
I        2.66682121       6.90644807       5.91790037      -0.29468756       0.58940182       0.19403735
I        7.27444225       6.14885832      12.17153750      -0.20772890      -0.58676834       0.22737622
I        6.33958600       1.92877105       6.24100831      -0.02319389      -0.19117669       0.38770259
I        4.08693129       4.47943520       9.37915643       0.02346856      -0.13200528      -0.00490679
I        0.24156181       8.66371391       9.47771867       0.25050326       0.21318931      -2.11194447
I        2.64268316       7.05283332       0.04918010       0.25718495      -0.37195922      -0.07049650
I        5.04909114       4.12029564       2.97009720       0.23539842       0.03281897       0.02574170
48
Lattice="9.01938999 0.0 0.0 0.0 8.77776784 0.0 0.0 0.0 12.79618681" Properties=species:S:1:pos:R:3:forces:R:3 config_id=O-FAPI3_al_global_rattle_08__global_rattle__sev-0.914__seed-new phase=O-FAPI3 mode=active_learning seed=2796059221 source=O-FAPI3/CONTCAR energy=-201.01354868 stress="-0.005225821829692748 0.011414128993386946 0.0018132727767238184 0.011414128993386946 -0.035842700202007596 -0.0191627642929091 0.0018132727767238184 -0.0191627642929091 -0.04793896269791331" pbc="T T T"
C        4.75223749       0.37805188       3.02818012      -8.61280710       7.99873045       5.24353982
C        0.27969588       3.93162568       9.51787426      -8.02024272       1.83891896      -1.53437402
C        8.94709850       4.34039351       3.34218408      15.65223616       0.38696911      -1.57942565
C        4.33432297       8.61374647       9.50382225      17.59014062     -20.04588543      15.25680327
N        5.24361015       8.44295876       2.20060055      -0.10146263      -8.14773944      -5.42213943
N        0.42285128       5.16215339       8.85270812       4.74346632      -3.45596470       1.70533443
N        1.35239259       5.00422291       3.22305197     -29.83952390     -23.12701920     -10.07184436
N        5.55769363       8.09874579       9.66274513       3.95388928       3.61746521      -4.87628919
N        3.16626028       0.53501153       3.07075226       2.85839495       1.71530305       0.33377705
N        8.02329036       3.39170834       9.58479703      -2.63476637       4.03045473      -4.35336748
N        8.38572075       3.82618722       2.41573824       5.47925452      -1.20735817      -3.12056600
N        3.89363260       0.54908791       8.87219300     -14.88321114      24.23566502     -23.64076993
H        5.35494650       1.16157132       3.76291131      -1.46595954      -2.23929734      -1.49919765
H        0.59709336       3.50907157      10.41081751       3.38000294      -0.19534418       1.64057486
H        8.41413354       4.90884834       3.71495389      -8.87695921       9.18769544       9.69305745
H        3.88867229       8.23271989      10.21817591      -5.61584268      -3.88845931       7.18792316
H        6.04387519       7.98816040       2.49895606       3.55215912      -0.62908480       0.28715094
H        1.55326559       5.07772662       9.04678353      -2.25167961       1.98578551      -1.65961740
H        1.61156891       5.51941223       3.65366656      12.43381920      27.40015449      23.93037864
H        5.86110736       7.24980784      10.10741595      -0.21178955      -0.39934451       0.26883607
H        4.65761019       7.47585897       1.74483928       0.70237480       3.30835612       0.62550002
H        0.00256250       5.52695093       7.88206373       0.55731850      -1.13746390       1.75889376
H        1.85408696       4.70503910       2.67556263      12.15207810      -7.85815522     -13.92321543
H        6.51654823       8.68455374       8.58865612      -2.53610309      -2.03370195       3.09067705
H        2.40671707       0.52817374       2.30511226       2.04773463      -1.16682514       0.12507096
H        7.13176389       4.11864392       8.88766961       2.89735210      -2.58879204       2.15643236
H        9.00864014       3.75947408       1.71541227       2.28964350      -1.70849449      -4.70610363
H        4.50227168       0.95693276       7.92223979      -1.78782522      -0.86504386       2.62840562
H        2.85110485       1.45752614       3.46700129       1.17953974      -0.83507442       0.48877980
H        7.40458050       2.91454730      10.27148098       1.27525194      -0.34446568       0.30493316
H        7.56723645       3.50903997       2.36511383      -9.15772638      -3.03472106      -0.46999251
H        2.70821778       0.77625786       8.87316730       3.41922758      -0.61032695       0.10876687
Pb       4.59890668       4.28091702      12.47019717      -0.55256984       0.56787546      -0.12986618
Pb       0.06973044       0.32595293       5.98089562      -0.29490086      -1.39118780      -0.33692870
Pb       8.93361180       8.67761781      12.32559322       0.08445107       0.50535584       1.40866602
Pb       4.38495746       4.30273610       6.17122597       0.16573181       0.80168451      -0.19206747
I        7.28299543       6.41334757       6.26912345      -0.18257167      -0.21763847       0.10577186
I        8.88251822       8.55831381       2.80098062      -0.36191335       0.26932551       0.80424855
I        6.18931051       1.84216205      12.35616805       0.36600342      -0.43166905      -0.14148137
I        1.96566872       2.62550471       0.17238140      -0.12094205       0.12714702      -0.11485609
I        1.75943766       2.69016131       6.06405036       0.39311847       0.59517892       0.10637695
I        2.61216326       6.87370699       6.14749416      -0.06461478       0.29994918      -0.08199092
I        7.38524879       6.15872647      12.44820155      -0.37050396      -0.58302660      -0.09256103
I        6.43163311       1.94269953       6.42689877      -0.06027434      -0.24054488       0.07786923
I        4.25806863       4.76414429       9.20410254      -0.01758652      -0.28314940       0.09820209
I        0.36273037       8.66332717       9.55438933       0.46067860       0.17048460      -1.88298653
I        2.49477446       7.17545373       0.21969556       0.52438080      -0.48613658      -0.22593210
I        5.03341742       4.49957403       2.67776627      -0.13647170       0.10941544       0.61960313
48
Lattice="9.01938999 0.0 0.0 0.0 8.77776784 0.0 0.0 0.0 12.79618681" Properties=species:S:1:pos:R:3:forces:R:3 config_id=O-FAPI3_al_global_rattle_09__global_rattle__sev-0.943__seed-new phase=O-FAPI3 mode=active_learning seed=3785989600 source=O-FAPI3/CONTCAR energy=-183.49685314 stress="-0.0652172986694976 -0.025451414039257964 0.014098059194448584 -0.025451414039257964 -0.0420028125715614 0.04097636015136641 0.014098059194448584 0.04097636015136641 -0.054887467872356065" pbc="T T T"
C        4.62662688       0.67067940       3.29062428       0.52740383      -9.74906404     -19.58023383
C        8.84884956       4.44724431       9.30939136     -34.23564795     -41.28758803      40.09935578
C        8.59716817       4.74922937       3.04943036      14.68227324      -7.44555367      -7.86257753
C        4.34777268       8.42141513       9.64193086       8.81993807      -1.80262206      -1.46472162
N        5.18153438       8.28210274       2.30594810     -15.79504975       2.96801818       0.57875179
N        0.43167964       4.99152640       8.88581864      53.69636084      53.30523571     -40.93034424
N        1.25071069       4.80128312       3.46345636      -1.27912976       4.01011621      -3.37065047
N        5.81116907       7.95861628       9.54788042     -38.20092359      11.62794665      -6.37682502
N        3.52387729       0.65287484       2.86116531     -10.52880928       7.34128566       4.57506564
N        8.00614017       3.69691001       9.30178339     -21.13495641     -13.61555603       1.40796092
N        8.33830717       3.72014862       2.35199326      -9.51993768       3.32760494       7.63939392
N        3.67557540       0.39298857       8.92722582       3.35599255       6.41112764      -6.02662321
H        4.99296239       0.71710097       4.05509740       7.74029269       2.20817433      15.26094523
H        0.91114338       3.94685344      10.31590179      -1.62608765      -0.43141629       0.10960704
H        8.19036726       5.20702253       3.66450774      -7.96867337       7.43971607      10.05687859
H        3.76771740       7.99857680      10.25118405      -3.84760594      -4.32144952       5.80881042
H        5.98402604       8.15907056       2.29757761      18.32405792      -2.55294694       0.35913427
H        1.63302198       5.37286608       8.78814867      -2.62863579      -1.40383375       1.18787331
H        1.52393498       5.99344206       4.02940726      -0.95845264      -3.58543887      -1.93588609
H        6.22544688       7.59605768       9.99404980      23.07823687     -21.31975469      26.95452782
H        4.77522836       7.67995024       1.33808459       0.00056441       2.69351879       3.10379535
H        0.09359836       5.54072465       8.02371432      -0.04974906       0.08605944      -0.40630816
H        1.91191270       4.81263839       2.34867125      -2.22542004       0.00717231       3.67115863
H        6.05327529       8.33323447       8.92895855       9.79541695      12.95077666     -22.00527268
H        2.60174920       0.47305515       2.53914185      -0.63857943      -1.11266300      -1.65778772
H        6.90034799       3.83871643       8.84866516       3.64228487       0.29440361       0.44690473
H        8.83668827       3.45402364       1.67472795       5.40359303      -3.51894001      -7.05943336
H        4.29558893       1.26427445       8.17552073      -1.62238285      -2.83779338       1.77751625
H        3.00453495       1.41165879       3.77821824       0.41724823      -1.34620696      -1.90192483
H        7.43405695       2.79453546      10.13572406       2.74776232       2.73687176      -1.42305489
H        7.25663139       3.48590388       2.55572724       1.83393305      -0.13831830      -1.34788949
H        2.68601646       0.59175963       8.90177510      -1.04723353      -0.30768913       0.84225882
Pb       4.57297711       4.27210792      12.51351329      -0.16017867       0.00390782       0.11780352
Pb       0.23550917       0.06269889       6.34334274      -1.26063522       0.61328961       0.37003889
Pb       8.99561271       8.48814179       0.09729632       0.10751636       0.13726089      -0.49302174
Pb       4.37453150       4.60948125       6.10310317       0.65249427      -0.06631350       0.39470975
I        7.16582309       6.04459108       6.30460715       0.39229393       0.59650180       0.08308927
I        8.90733859       0.02622657       3.15403906      -0.05061742       0.08508646      -0.01337547
I        6.41537791       1.74589890      12.51609453       0.31214076      -0.03001643      -0.39383761
I        2.00483361       2.69101530       0.07440138      -0.41077008      -0.30793879       0.04872205
I        2.07063223       2.66744049       5.94115079      -0.49742210      -0.68985909      -0.10974973
I        2.52251954       7.19953528       5.85026075       0.85718175      -0.41321747      -0.00627108
I        7.04254805       6.18317088      12.12091015       0.53209848       0.04536712       0.37160574
I        6.31800350       2.04950039       6.43350122      -0.26333487      -0.27806425       0.32133559
I        4.07543238       4.44155930       9.35338810      -0.42524975       0.06677401       0.14932729
I        0.31881045       0.25696810       9.62552768      -0.04187541      -0.11368813      -0.19822586
I        2.90090406       6.96133554       0.24752355      -0.54392914      -0.15962219      -0.33152467
I        5.00936496       4.28461273       3.19912015       0.04220296      -0.12066117      -0.84103133
48
Lattice="9.01938999 0.0 0.0 0.0 8.77776784 0.0 0.0 0.0 12.79618681" Properties=species:S:1:pos:R:3:forces:R:3 config_id=O-FAPI3_al_global_rattle_10__global_rattle__sev-0.971__seed-new phase=O-FAPI3 mode=active_learning seed=3614358290 source=O-FAPI3/CONTCAR energy=-196.96082987 stress="-0.06862668277177747 -0.0024560541509057576 -0.014137750867123378 -0.0024560541509057576 -0.03375822400466275 0.003063209128310356 -0.014137750867123378 0.003063209128310356 -0.03168294502678091" pbc="T T T"
C        4.71741335       0.19361526       3.27539426     -12.45276251      -1.78958329      -6.55588556
C        9.01730182       4.18099276       9.57439258       2.47440977       3.07710875      -4.33848570
C        0.06531725       4.60278873       2.84584239     -16.88598974      -0.37244158       6.70576203
C        4.69069891       8.59676158       9.74330941      -1.60942543     -10.23728370       9.63402077
N        5.12758716       8.04375378       2.35443286     -32.48345983     -12.08559042      -6.04615415
N        0.64167593       5.13570843       8.72081705      19.81452239     -18.93791574      21.17782991
N        1.15685465       4.98612307       3.02198842       4.20447619       4.74856231       5.27528856
N        5.68918335       7.95884055       9.31854178     -11.09852195     -15.34554177      13.28075853
N        3.12906468       0.70112702       3.10042854       8.78846040     -12.80433410     -12.97652300
N        7.90044997       3.64640546       9.36077547      -5.89200714      -3.30727087       1.62648940
N        8.20219907       3.71807558       2.44166817      14.55916773      -0.45485458      -6.24431484
N        3.99782441       0.40646332       9.05845123     -13.19244009      13.04943675     -11.00316270
H        5.06308319       0.53468895       4.13492218       2.88412485       1.61611684       3.78705878
H        0.30697891       3.48036757      10.22399395       4.05150872      -1.19919743       3.05301561
H        8.19863001       5.24572590       3.97677923       2.11224885      -0.87986299      -2.35115789
H        3.59902478       7.81273715      10.42925361       3.38721058       1.42965363      -0.20460878
H        5.74520892       8.36959268       2.55098113      35.69614656      12.85468217       6.19329248
H        1.68870742       5.03530859       8.73382259      -0.94123121       0.75157249      -0.16888618
H        1.33374563       5.66796138       3.76337927       0.34781348       0.27162301      -0.04748674
H        5.99299077       7.20627485      10.09404061      -0.04137881       1.76747385      -2.10791665
H        4.56569062       7.82285159       1.45689347       0.98016742       0.51162223       1.19368187
H        0.13030475       5.49859101       8.31848677     -20.64857279      15.98485170     -18.07017268
H        1.80616667       4.82862130       2.44183107       7.36973750      -1.68454556      -5.64674429
H        6.27789887       8.34591597       8.97660400      17.84748688      10.99163396     -10.86774322
H        2.59538106       0.03507069       2.55139061      -0.63711597       0.54478835       0.48123394
H        7.13902738       3.96530238       8.82087236      -0.95567783       0.95501853      -1.53986975
H        0.03607422       3.31774230       1.68076097      -3.98427450      -1.29256570       0.60998810
H        4.24462613       0.94798260       8.24928602       1.95754482       0.11786748      -1.23113435
H        3.10580142       1.21354159       3.73302492      -2.59218184      10.95353220      13.58928821
H        7.41896391       2.80378741      10.05475453       1.95397918       2.59701922      -1.52024692
H        7.34927721       3.73857939       2.72526507      -7.35046353      -0.27943359       1.67838179
H        2.85142522       0.77846249       8.85079189       2.51452897      -1.82948623       2.68831599
Pb       4.46124437       4.10578019       0.02438429       0.15653903       0.34010879      -1.04706659
Pb       0.01019931       0.38635845       6.34827747      -2.24876635      -2.16949540      -0.62248370
Pb       8.97566318       8.52005811      12.37482885       0.13371623       0.44569297       0.61513697
Pb       4.31748422       4.48618829       5.89145564       0.69893439      -0.99339655       1.04006311
I        7.34377421       6.55804512       6.55922158      -0.63124517      -0.94191145      -0.36513001
I        8.50641227       0.01394068       2.99709651       0.14701432      -0.14325892      -0.28989340
I        6.56408926       1.80112686      12.42568461      -0.20987066       0.08823426      -0.32480536
I        1.99372109       2.49341844       0.22519267      -0.64301047       0.01070950       0.14602243
I        1.67390372       2.33004153       5.65314292       2.28346102       3.01291193      -0.39842010
I        2.98126863       6.92980579       5.77200925      -0.94331878       1.28327549      -0.01029412
I        7.28167797       6.14403336      12.28666978      -0.35593915      -0.44469474      -0.10915576
I        6.17902823       1.80497258       6.43286039       0.22005584       0.00100995       0.05786656
I        3.91415153       4.32501337       9.43985104       0.29929117      -0.06821639      -0.00722921
I        0.31416493       0.00866568       9.20946504       0.51858668       0.15551039       1.15929415
I        2.65682818       7.06434440       0.08178465       0.31715365      -0.34602219       0.04242032
I        4.90200888       4.44034121       2.95968328       0.07936710       0.04688646       0.05976211
48
Lattice="9.01938999 0.0 0.0 0.0 8.77776784 0.0 0.0 0.0 12.79618681" Properties=species:S:1:pos:R:3:forces:R:3 config_id=O-FAPI3_al_global_rattle_11__global_rattle__sev-1.000__seed-parity phase=O-FAPI3 mode=active_learning seed=3391614287 source=O-FAPI3/CONTCAR energy=-171.90981779 stress="-0.10700516432101967 0.00896106635411466 -0.03856136204830583 0.00896106635411466 -0.05922953344096132 0.010092632335332601 -0.03856136204830583 0.010092632335332601 -0.0637015638694308" pbc="T T T"
C        4.32881104       0.46466062       3.33977980     133.55947363     -16.34329899      36.40948806
C        0.26782095       4.05961264       9.76866301      -7.60183995       3.32536891      -6.68209007
C        9.00612138       4.50083478       3.20922927       7.73521344      18.93050613      12.90050026
C        4.59244925       8.42506010       9.45996985       8.53088369     -25.65175675      10.76151262
N        4.98349365       8.07848126       2.29702724       9.20844322       3.78987324      22.84445109
N        0.51693669       5.31424691       8.83357001       7.00937060      -7.80274734      33.84853198
N        1.29164231       5.21193457       3.08143529     -14.59074858     -22.63243067      -9.11689947
N        5.91998855       8.04617670       9.25926678     -15.49444120     -23.93462665      23.70155207
N        3.54260786       0.53982684       3.09805229    -131.84058021      18.15676187     -35.84475865
N        7.67392447       3.78328509       9.33297844      19.24991418       5.02942720      -2.06283027
N        8.35921628       3.89132238       2.52857821      -9.13027493     -11.93674616     -13.51703996
N        4.26907436       0.62690484       9.16488927     -14.47456058      25.20270412     -13.40720670
H        5.18377218       0.78293862       4.10271623      -1.73361695      -0.46166805      -1.40822313
H        0.94858350       3.32077713      10.45131411      -1.20611171       1.58841296      -0.86127989
H        8.19725095       5.51535892       3.87990237       1.89313529      -2.92592636      -0.63887801
H        3.93166015       7.61895607      10.34607047       1.49729693       1.96075221      -2.33366415
H        6.31465352       7.91355894       2.57128587      -4.62258788       0.67631223      -0.96747537
H        1.44267262       5.18460042       8.95729020       4.83442693       1.28859868      -0.05670418
H        1.53267378       5.87208389       3.40797388       7.41723250      20.71221552      11.07672863
H        6.03576198       7.42817296      10.03484494       2.39384682      -0.64164942      -0.05352059
H        4.90628677       7.87247802       1.52451978      -2.54738529      -3.87200431     -19.26839194
H        0.33370038       5.39426654       8.11010343      -8.98274373       2.53513516     -29.24962137
H        1.69615509       4.52457645       2.62872603       4.79539035      -2.79158273      -3.04588811
H        6.13596280       8.54289628       8.77180551      13.54221524      23.42656597     -23.22120578
H        2.77605423       0.35628968       2.53112823      -1.61075570      -1.00662086      -1.60936480
H        7.08113219       4.27472773       8.95256892      -7.13983027       7.73274656      -5.31519644
H        8.83751065       3.45863188       1.62193255      -0.83172510       0.21204500       1.23972182
H        4.53665612       1.06203424       7.86925206       1.05631471      -0.36412522       2.75929526
H        2.92039297       1.52837642       3.71558769      -0.25511415      -0.47069193       0.61327470
H        7.44767019       3.17100471       9.81569770      -5.64001947     -13.87199542      10.60280355
H        7.25413095       3.72869580       2.42659887       2.03921006       0.54819335       0.95163754
H        3.07388802       0.71818590       8.83668614       2.83234753      -0.09778536       2.15473437
Pb       4.29273032       4.25505000      12.53872254       0.47953304      -0.02771481       0.28657275
Pb       8.55519428       0.18432707       6.32699485       0.80315803      -0.81697800       0.06848656
Pb       8.87983910       8.51587954      12.63363263      -0.13677310      -0.02709096      -0.40097339
Pb       4.16244451       4.35768914       6.34269078       0.33698143       1.36818520      -1.16534825
I        7.23609090       6.19993870       6.49309921      -0.11281521       0.18708196      -0.39443244
I        8.80101865       8.71349562       2.83161008       0.07498011       0.05978862       0.78181287
I        6.43404805       1.87550931      12.46156345       0.27651305      -0.28209816      -0.00399324
I        1.74082489       2.54978233      12.69860539      -0.21897497      -0.11084984       0.13267418
I        1.99459805       2.51288165       5.56650992      -0.59139687      -0.71763864      -0.42817074
I        2.74412244       7.16871311       6.11904158      -0.16434007      -0.00718877       0.07118581
I        7.09744430       6.04687822      12.21050752       0.09488930       0.00581753       0.09151089
I        6.12987679       1.92687339       6.57303481      -0.21892218      -0.25904078      -0.11479786
I        4.43792320       4.36080288       9.19106988      -0.54654410       0.08704485       1.19234887
I        0.46832524       0.08103635       9.46932591       0.18214324       0.24601883      -0.58100460
I        2.94932005       6.90048103       0.16667008      -0.95573437       0.42859536      -0.58913265
I        4.49843293       4.43089642       2.93873106       0.80492324      -0.44389529      -0.15073185
48
Lattice="9.01938999 0.0 0.0 0.0 8.77776784 0.0 0.0 0.0 12.79618681" Properties=species:S:1:pos:R:3:forces:R:3 config_id=O-FAPI3_al_global_rattle_12__global_rattle__sev-1.029__seed-new phase=O-FAPI3 mode=active_learning seed=177457701 source=O-FAPI3/CONTCAR energy=-202.7039511 stress="-0.01787918878487732 -0.017773942117430754 -0.005535086534699234 -0.017773942117430754 -0.019976214971866853 -0.006305538084156771 -0.005535086534699234 -0.006305538084156771 -0.01658921259051242" pbc="T T T"
C        4.83036894       0.36985186       3.13721092     -27.71630868     -15.62825328     -32.21813903
C        8.93373943       3.97827363       9.59270201      27.58641777       4.55165981       1.68934661
C        8.84483097       4.97240078       3.12130769       0.90900857      -0.44188195       4.57628238
C        4.36807506       8.62356625       9.68705456       2.95440635      -4.80230015      -3.48101126
N        5.24381742       8.19584651       2.56915671      -2.24079455      -4.67667058      -6.02511216
N        0.95964190       4.72406079       8.84431984     -11.17243054      -2.98605022      -3.41229230
N        1.10396892       5.37584903       3.29035991      -1.04541185      -4.20417246      -7.46622355
N        5.51602856       7.95400013       9.47525835       3.37878374       1.56521841      -0.56458839
N        3.26330306       0.80467738       3.07633319       7.27172372      -5.75008949     -10.87410051
N        7.85031686       3.79307388       9.55021764     -22.82522901      -3.52596444      -4.07834937
N        8.40446638       3.95663266       2.36126500       5.06221856       2.54561156      -2.21663205
N        3.77680714       0.42226462       8.58290103      -8.60187793      -9.26391723       8.48555393
H        5.07631986       0.70781085       3.69464187      18.49311716      23.82629713      38.39231055
H        0.80621459       3.49962064      10.12938726      -2.49724886      -0.98687867       1.00468739
H        8.14836874       5.24203397       4.15086252       1.31770432      -0.46926652      -2.98192630
H        3.69114080       8.04483651      10.23946172      -1.04604076      -0.39623726       1.92511774
H        6.13337586       7.96958216       2.73930146       5.08193083      -1.77296597       0.19142595
H        1.56276075       5.44129492       8.74340348       2.60569794       3.46790596       0.88505244
H        1.59161387       5.84569257       3.99698339       0.59810733       1.41938725       1.65691890
H        6.05800326       7.18409641       9.98294642      -1.59357662       1.07761567       0.62051328
H        4.65478740       7.79356703       1.79687485       0.73543178      -0.41937875       0.52621027
H        8.90125177       5.22653744       7.98993917       3.21038262      -0.71632878       1.26641535
H        1.90718284       4.81651597       2.21410706      -1.93758179       1.94511085       3.60493364
H        6.31346494       8.43447399       8.88086664      -2.07339776      -0.79828136       0.71707057
H        2.75596959       8.67490750       2.15632613       1.11354747       2.94316875       3.39163494
H        7.10223423       4.26233203       8.75661874       2.07308695      -0.72315122       2.20188444
H        8.99311588       3.43817530       1.62510101      -0.64927246       1.18813759       1.30012723
H        4.19619038       1.12397079       8.39105753       7.13012159      12.20644936      -4.79275525
H        2.85321358       0.99673581       3.86563833      -3.01653478       1.21161162       6.11137191
H        7.36048967       2.90742985       9.88228790       0.66440845       0.97147041       0.35357390
H        7.65812566       3.48829319       2.67426408      -4.06408392      -1.95690754       1.27021870
H        2.97804239       0.71828132       9.26838508      -0.25716880       0.44727202      -2.72031271
Pb       4.37059814       4.48116091      12.63401562       1.12277422      -0.09290865       0.17553286
Pb       0.10394441       0.12204345       6.13777955       0.15420295       0.69738805       0.20960101
Pb       8.97133504       0.39923588      12.69633804      -0.40305252      -0.94304051      -0.24562430
Pb       4.66595079       4.53482291       6.31585602      -2.22289210      -1.37416549      -0.29902829
I        7.05137479       5.85227888       6.34074486       2.16991119       1.26483466       0.32279036
I        8.52451590       0.21562042       3.05653301       0.09900403      -0.01500933      -0.02794504
I        6.21239483       1.55849619      12.20697807      -0.17535334       0.34161562       0.00143930
I        1.92858189       2.61695709      12.55888575      -0.08670247       0.13898819       0.17592255
I        1.63314500       2.88022895       5.74349078      -0.24837517      -0.63258996       0.18280177
I        2.72871551       7.21915552       5.94906357       0.06098619      -0.16525471       0.01696016
I        7.12055676       6.17529784      12.28741132      -0.02595223       0.04087260       0.06996309
I        6.04730933       1.55983743       6.35737645       0.33817128       0.21263758       0.08347266
I        4.25697304       4.45391744       9.48384740       0.18242769      -0.10100025      -0.26929360
I        0.25071568       0.00427188       9.48994005      -0.05605503       0.01466066      -0.10635583
I        2.61141609       6.87390168       0.04331535      -0.29782775       0.63849329       0.31515547
I        4.81367081       4.24198218       2.99247645      -0.06040380       0.12625770       0.05540056
