48
Lattice="9.01938999 0.0 0.0 0.0 8.77776784 0.0 0.0 0.0 12.79618681" Properties=species:S:1:pos:R:3:forces:R:3 config_id=O-FAPI3_all_rattle_01 phase=O-FAPI3 mode=all_rattle seed=1563858520 source=O-FAPI3/CONTCAR energy=-224.3522251 stress="0.005555256227341401 0.001878697174158641 0.0015083386616847082 0.001878697174158641 -0.005227168591324386 -0.0003858909573223502 0.0015083386616847082 -0.0003858909573223502 -0.007469784763195567" pbc="T T T"
C        4.64271097       0.33697157       3.16393461      -6.61918800       3.86678911       1.35666846
C        0.08112869       4.00943164       9.66894156      -2.88075040       4.16706302      -5.84667796
C        8.93615789       4.66313764       3.17759633       5.09133160       4.89927454       2.27434598
C        4.45404229       8.40315974       9.59125143       0.52890199       0.92107429      -1.99447391
N        5.10307778       8.23952056       2.42553628       5.14447740      -4.07284920      -2.19073033
N        0.58135597       4.98772247       8.82208979       4.59391711      -4.37450594       6.44177622
N        1.28642378       5.17238757       3.01002066      -7.71778863       0.70297371       3.84462610
N        5.72946223       8.03702825       9.44654921      -5.28884185       0.85301323       1.68512376
N        3.31943613       0.76184494       3.02779111       1.86523076       1.14518114       2.62879529
N        7.81767542       3.69033634       9.50968355       0.62817606       1.66468466      -1.64084046
N        8.41620439       3.81836079       2.41471326       0.82986280      -0.86563025      -0.75497552
N        3.86064165       0.51748514       8.78866986      -0.30103159      -0.28927418       0.97985392
H        5.16106028       0.85314294       3.93958827       0.92449224       0.20245625       0.53283832
H        0.69294837       3.57086829      10.34913042       1.74579646      -1.45460015       2.22566091
H        8.32911641       5.15131469       4.01379706       0.71258920      -0.57612866      -1.05103506
H        3.83748211       7.90973113      10.33806287      -0.00157372      -0.04186852       0.25577559
H        6.16685449       8.03429766       2.56341442      -1.84409633       0.19395049      -0.46910628
H        1.64515910       5.12683534       8.90024135      -1.77814633       0.03117799      -0.32185489
H        1.54661785       5.91423754       3.69328803       0.33119280      -0.86703184      -0.70842137
H        6.04540362       7.33569838      10.00083229       1.43593926      -2.69593495       2.23947538
H        4.61851105       7.67912820       1.70078943      -0.13029792       0.47790872       0.28567831
H        0.07438931       5.38911416       8.15581832      -2.83901459       2.18562387      -3.71482140
H        1.82201816       4.67575796       2.41909404       2.96322813      -1.74946450      -2.50329939
H        6.28495113       8.38852712       8.78874625       2.92454102       1.93348807      -3.51379382
H        2.68471162       0.31686250       2.38609395      -0.25335350      -0.23492016      -0.29505798
H        7.10968560       4.02341594       8.78415946       1.63932874       0.02044886       0.85845356
H        8.90952363       3.37358242       1.68445727       1.00359369      -0.75228014      -1.42008207
H        4.32637553       1.04976679       8.02684517      -0.00246721      -0.48342399       0.49553153
H        2.88957273       1.42557305       3.80696807       1.04053677      -1.54823332      -1.83185938
H        7.44596507       2.96315665      10.01483964      -1.01877813      -2.30351476       1.97956506
H        7.47871168       3.63518799       2.48653224      -3.31476913      -0.78061859       0.36770258
H        2.84942977       0.71447098       8.96860856       0.76391946      -0.17589523      -0.18286035
Pb       4.51895385       4.27370732      12.54432970      -0.02535143      -0.03891906       0.07084926
Pb       0.05643811       0.11467609       6.18297927       0.04033421       0.03433936      -0.03427372
Pb       9.00408823       8.65468993      12.55845669      -0.05191689       0.03130836       0.00229391
Pb       4.52209972       4.55768707       6.14656580      -0.08925701      -0.07317308      -0.06164936
I        7.18154596       6.18791676       6.42242894       0.15844677       0.17731145      -0.02872663
I        8.70107633       8.67664427       2.92188846      -0.14860010       0.01150202       0.16455753
I        6.33444999       1.70168300      12.26274142      -0.00670970      -0.00873702       0.06537732
I        1.80759038       2.58730773       0.09024984      -0.07230537      -0.11311756      -0.09068408
I        1.93299616       2.70342601       5.85096697      -0.20067958      -0.17520680       0.05487060
I        2.76301283       7.14775759       5.90992221      -0.04953186      -0.05051362      -0.01943032
I        7.08258260       6.08133675      12.32917257       0.17077627       0.12101577       0.04083611
I        6.38712792       1.81146031       6.49835434      -0.00417089       0.07138572      -0.02076219
I        4.11925101       4.45195973       9.36616305      -0.00217265      -0.01186936      -0.00004907
I        0.40934267       8.75353014       9.37216126      -0.06240079       0.05890465      -0.07637267
I        2.68641205       6.99778539       0.01839247       0.04047725      -0.07960317      -0.01839070
I        4.85821730       4.28715828       2.99105761       0.12610362       0.04643876      -0.06042681
48
Lattice="9.01938999 0.0 0.0 0.0 8.77776784 0.0 0.0 0.0 12.79618681" Properties=species:S:1:pos:R:3:forces:R:3 config_id=O-FAPI3_all_rattle_02 phase=O-FAPI3 mode=all_rattle seed=4291043517 source=O-FAPI3/CONTCAR energy=-221.77669296 stress="-0.011073897259305208 0.012719180335951137 -0.0031915017755325867 0.012719180335951137 0.005202713403618279 -0.0002363615128842105 -0.0031915017755325867 -0.0002363615128842105 0.008659188656162421" pbc="T T T"
C        4.53965155       0.33731996       3.12485735       5.30937616       0.99446431       1.90830995
C        0.20730942       3.96647061       9.64648387      -5.63497375       5.24715859      -6.27878649
C        8.89507339       4.66408845       3.18727344       1.87453271      -0.52293475      -2.20341452
C        4.44604895       8.41279387       9.46884400      -1.39714569      -5.30728267       7.17292128
N        5.20888613       8.24118272       2.40898006      -5.77292058      -0.56028924      -2.19385262
N        0.76660215       4.98305120       8.75677460      -7.47751867      -4.73519548       1.55208208
N        1.14962426       5.12654479       3.11442744      -1.24534831      -1.62650009      -1.12153800
N        5.66413804       8.12394167       9.42379183       4.88311202      -3.74819664       2.64495434
N        3.32704796       0.68941440       3.11635071      -2.53749738      -1.32870673      -2.61219809
N        7.74239598       3.78710904       9.52503500       5.70470254      -1.92732944       2.50222824
N        8.33622360       3.65873638       2.34576805      11.43275093       4.68272292       2.78631752
N        3.87705694       0.44126761       8.80463912      -3.80763847       9.01768535      -8.32396315
H        5.20389940       0.94331625       3.82571922      -0.68855989      -0.83086118      -0.46579712
H        0.75409307       3.51879541      10.42437276       0.83440367      -0.75659471       1.07957633
H        8.36253884       5.27383732       3.92978997      -0.81101679      -0.83833198      -0.10302908
H        3.77678577       7.92381690      10.33985561       1.48594133       0.56599263      -1.62329566
H        6.13743062       8.03113056       2.53826556       2.94597502      -0.42495034       0.51402846
H        1.61870992       5.23012632       9.01189179       5.26259207       1.77055133       1.01432929
H        1.51414714       5.89749211       3.67741372      -0.43774562       0.07037914       0.45941458
H        5.97030592       7.42375993      10.21366359      -0.11567093       1.36361912      -1.76976544
H        4.61716689       7.69488833       1.68963000       1.31997150       0.60378885       1.02531944
H        0.13509865       5.55513792       8.09320350       0.98441828      -1.06642860       1.12952894
H        1.85118704       4.76976672       2.44488897      -0.52483327      -0.05544107       0.19179805
H        6.42050553       8.49240770       8.85570012      -0.27683852       0.23558930      -0.25190098
H        2.74306185       0.24610175       2.36041469      -0.15910728       0.79253544       1.17666879
H        7.15111030       4.09551582       8.73029327       0.64220518      -0.19624812       0.49673670
H        8.86191604       3.45060505       1.52834533       0.27330727      -0.65860602      -1.09848334
H        4.54686778       1.01029861       7.96493030      -2.26799245      -1.51942632       2.37653694
H        3.01267568       1.37016567       3.77658941      -0.77309600       0.70071473       0.45688568
H        7.50083850       2.96063251      10.19350780      -0.42933831       1.62569672      -1.59254626
H        7.48043069       3.62615409       2.51429152     -10.19319947      -1.13703747       1.03290087
H        2.85131744       0.73609957       8.92158462       1.63301149      -0.66620703      -0.22023275
Pb       4.56733241       4.28374505      12.56506592      -0.01688842       0.26521519       0.23808753
Pb       8.95740739       0.20819803       6.31849127       0.36373291      -0.30733526      -0.23162525
Pb       8.88364763       0.03041102      12.60155143       0.18639537      -0.24898206       0.27644127
Pb       4.48604877       4.49996060       6.29202812      -0.15225521       0.22288092      -0.25928390
I        7.17609203       6.23395703       6.57012380       0.02576151      -0.01561308      -0.03758294
I        8.54008878       8.59388071       3.00362359       0.29319312       0.06698464       0.19684685
I        6.30121553       1.69730000      12.27597050      -0.04515711       0.00528978      -0.06148185
I        1.82568733       2.61042828       0.03653657       0.01460147      -0.11963317       0.03540528
I        1.83619068       2.66345328       5.89699882       0.07135036      -0.00478681      -0.01912546
I        2.64805231       7.04892721       5.80436045       0.03033495      -0.05460207       0.12481218
I        7.12575373       6.16351799      12.18937679      -0.03178469       0.04705360       0.06018222
I        6.38764509       1.84601733       6.40548244      -0.33349546       0.09259327       0.14798031
I        4.12774935       4.26820146       9.41712860       0.06083538      -0.00061937      -0.08739292
I        0.44684953       8.71425937       9.50026043      -0.04245766       0.10315181      -0.29111621
I        2.54519474       6.85317474       0.04087819       0.10863582       0.09759233       0.08255176
I        5.14268029       4.34258532       2.97066842      -0.56866116       0.08647970       0.16356713
48
Lattice="9.01938999 0.0 0.0 0.0 8.77776784 0.0 0.0 0.0 12.79618681" Properties=species:S:1:pos:R:3:forces:R:3 config_id=O-FAPI3_all_rattle_03 phase=O-FAPI3 mode=all_rattle seed=801975523 source=O-FAPI3/CONTCAR energy=-224.58514995 stress="-0.0007283705771572821 -0.0027969574526449112 0.0018236666932145513 -0.0027969574526449112 -0.0017357082882731329 0.0007354357345519444 0.0018236666932145513 0.0007354357345519444 -0.005404834696486916" pbc="T T T"
C        4.59064041       0.40246715       3.20220966      -3.14666388      -3.45552781      -3.21256719
C        0.05397032       4.08355023       9.58722575       2.79146309      -0.95227553       0.56009337
C        8.93196549       4.74731362       3.20446346       0.35552624      -4.65712483      -5.11180784
C        4.42685569       8.36520906       9.59931597       4.50030169       1.49266199      -2.65519388
N        5.10079019       8.17272333       2.47910636       3.51884753       1.55466026       1.54995255
N        0.65963372       4.93946871       8.81240602      -1.66670055       1.25812378      -1.48040076
N        1.14796379       5.08356937       3.07353710       1.05345999       0.85519798       0.51169755
N        5.74517861       7.95481814       9.53066200      -5.70939260       9.71373492      -8.12929061
N        3.27426153       0.64648752       3.10071453       4.67721606       4.71513546       5.61855625
N        7.87575524       3.67911098       9.46588361      -5.31433097      -1.26936774      -0.41231228
N        8.35124693       3.77172152       2.39250433       1.15293046       3.37735612       3.29073764
N        3.89135980       0.56299778       8.88205758      -0.08999151      -1.02279509       0.68009929
H        5.19679862       0.79627828       3.93707650       1.16125410       1.44536656       1.63031307
H        0.72053949       3.51537568      10.31119651      -0.78043227       0.78682808      -0.40777374
H        8.37007896       5.17210703       3.90334153      -2.50134197       1.89507137       3.10763995
H        3.88482192       7.97752192      10.34202073      -2.41637005      -1.82839598       2.87448343
H        6.20831897       8.11785964       2.56031902      -2.43089260      -0.20736280      -0.39546842
H        1.63854094       5.07277386       8.95332377       1.00105863       0.33896055      -0.02319944
H        1.57455847       5.73995628       3.72588388      -0.03106373       0.22644888       0.19109164
H        6.06437789       7.32484028      10.05186361       3.60255481      -6.87307114       5.70630316
H        4.63200117       7.72902077       1.70134402      -0.38263431      -0.19033840      -0.38415695
H        0.13346794       5.45592571       8.03112984       0.90858492      -0.77311218       1.22292944
H        1.78564674       4.70153879       2.39656763       0.20724799      -0.41453878      -0.54853555
H        6.31665005       8.47960094       8.76978781      -0.68932649      -1.50328008       1.76949754
H        2.70901031       0.25463620       2.48985644      -3.39424247      -2.48319048      -3.87479588
H        7.11211650       4.02467265       8.76705748       1.95759433      -0.36172991       1.26860693
H        8.97951446       3.38499212       1.70357401      -0.31239849      -0.73257301      -0.74747887
H        4.38771875       1.00604780       8.12567767       0.47845290       0.32166986      -0.52749702
H        2.92447515       1.44572013       3.71696916       0.12432162      -1.26422044      -0.93909946
H        7.44011798       2.96365162      10.13365146       0.98643245       0.99881306      -0.71882173
H        7.35096826       3.65552924       2.59985003       0.15585830      -0.51627403      -0.74253269
H        2.88188523       0.76978917       8.96513708       0.28192271      -0.20887904       0.16421117
Pb       4.57779797       4.30227360      12.52021414      -0.10048457       0.00921419       0.10565000
Pb       9.01224645       0.09247896       6.16457758       0.03482129       0.16276355       0.09159976
Pb       8.97481625       8.68128446      12.58574827       0.19868244       0.00922892      -0.08515759
Pb       4.46438212       4.57260155       6.12924949       0.03118101      -0.14507155      -0.00745946
I        7.16887255       6.33086393       6.43337057       0.03476968      -0.12050852       0.03076298
I        8.66481549       8.73573199       2.98023575      -0.10722455      -0.03281384       0.01762430
I        6.45561639       1.70411910      12.28183308      -0.21508971       0.15820068      -0.02882735
I        1.83790482       2.59364150       0.07146952       0.07338938      -0.02614499      -0.00253296
I        1.93696261       2.68784810       5.91541753      -0.04562976      -0.03297184      -0.02271157
I        2.67598284       7.09279543       5.84959765      -0.04142738      -0.00710578       0.04079049
I        7.16498501       6.15144531      12.27779729       0.04066480      -0.12370241       0.09466797
I        6.33447462       1.84381894       6.52368120       0.06066582       0.02801285      -0.04605321
I        4.11234207       4.37412516       9.42082017       0.09179345       0.00988477      -0.21396669
I        0.41065301       0.12350995       9.37636161      -0.03857740      -0.02715052      -0.03325771
I        2.69305366       6.96168831       0.04448031       0.04593479      -0.10812584       0.01577255
I        4.92488205       4.35395156       2.93883893      -0.11271524      -0.01968128       0.20781782
48
Lattice="9.01938999 0.0 0.0 0.0 8.77776784 0.0 0.0 0.0 12.79618681" Properties=species:S:1:pos:R:3:forces:R:3 config_id=O-FAPI3_all_rattle_04 phase=O-FAPI3 mode=all_rattle seed=1399279438 source=O-FAPI3/CONTCAR energy=-220.41089514 stress="-0.00430551061003224 -0.0022306918560673085 0.0016400592705490564 -0.0022306918560673085 -0.008779610810308985 -0.0026456482356380174 0.0016400592705490564 -0.0026456482356380174 -0.013823254460510975" pbc="T T T"
C        4.63250553       0.28653382       3.14597797      -4.00712444       2.22218768      -0.14599086
C        0.01685318       3.99051309       9.58197970       8.29519696       1.98578810       1.41533090
C        8.98238740       4.79307204       3.18043222      -5.58615875      -4.08238089      -1.52432607
C        4.40921556       8.40516827       9.52200103       5.66745275      -2.43361420       1.73477259
N        5.12667034       8.19961173       2.33444931      12.51505054       8.23256994      12.49997100
N        0.68158980       4.95049788       8.92779243      -2.55847559       1.81060887      -3.49226415
N        1.17852653       5.14660717       3.12487616      -0.65765493      -1.10329403      -1.19802108
N        5.78816277       8.05981692       9.52609939      -6.48957012       2.90643229      -0.82122726
N        3.34658819       0.70881318       3.01815507       0.10679122       0.69700683       1.41448422
N        7.83313213       3.70589686       9.54151931      -3.60439497      -1.07475792      -0.48801341
N        8.35322335       3.67912941       2.32403884      -8.34812782      13.09196256      14.86773978
N        3.96131590       0.43156808       8.65956388      -8.00500804       0.38786795       3.03235467
H        5.15357951       0.84525226       3.90120661       0.97480128      -0.14962985       0.36251641
H        0.77977082       3.56420464      10.32229016      -1.57873634      -0.33592067      -0.47448268
H        8.25850469       5.25824871       3.98483059       1.29575179      -0.69003510      -1.59831624
H        3.84279922       7.95061973      10.38783274       0.08893106       0.54509810      -1.04427816
H        6.11773020       7.88075458       2.51597806      -1.02898314       0.54069938      -0.29214986
H        1.70919650       5.20954842       8.87167719      -1.18756275      -1.10982552       0.76683799
H        1.56415506       5.78521471       3.71527354       0.99780466       2.78506351       2.64516438
H        6.03567846       7.37247249      10.10900191       1.35776685      -3.36190922       2.99017288
H        4.70841155       7.75882015       1.80071856      -9.98415840      -9.94656555     -12.49396324
H        0.09117413       5.45050359       8.10128596       1.53713691      -1.08530601       2.09770094
H        1.88014452       4.71892536       2.60323308       1.35193540      -1.34005900      -1.73752709
H        6.41201891       8.32461917       8.84024898       1.47037142       0.90580712      -1.97275878
H        2.67266984       0.23265500       2.40832067       0.29290878       0.09570714      -0.01900687
H        7.21180701       4.11865358       8.86574769      -0.58303962       0.17732590      -0.31163231
H        8.87790733       3.30632778       1.81867545      10.35840768      -8.27913871     -10.96080374
H        4.33641060       1.01397474       8.02926237       2.90836005       2.32775078      -3.22795759
H        2.87780116       1.43884301       3.69707826       1.36080432      -1.59991984      -1.19491620
H        7.48573373       2.96816770      10.13448667      -0.50189434      -0.44220697       0.39166661
H        7.34491011       3.60055329       2.53444449       0.63903791      -0.40499587      -0.58474161
H        2.89046014       0.79825328       8.88057873       2.69151586      -1.31775480      -0.68236348
Pb       4.50078050       4.25161359      12.62096670       0.08627077       0.06005615      -0.02235768
Pb       0.16964444       8.75831060       6.24398829      -0.21504152       0.34708016      -0.19820404
Pb       9.00083665       8.61725310      12.55026125      -0.11313054       0.00210796       0.18419229
Pb       4.50819291       4.53135569       6.22046250       0.14210826      -0.39729921       0.01425980
I        7.23452802       6.32888709       6.30530275      -0.14719794      -0.27336823       0.13425003
I        8.74084372       0.01300751       2.98921726      -0.10392908      -0.10065739      -0.02385423
I        6.22856876       1.70452121      12.28002779       0.16990118      -0.07687909      -0.00051405
I        1.89583780       2.57564585       0.00765327      -0.16504289      -0.12408403      -0.00010213
I        1.88578055       2.60170405       5.86504137       0.15064890       0.20126802       0.00182209
I        2.72998048       7.03917643       5.86355151      -0.08650665       0.16648867      -0.01486229
I        7.15670223       6.03591794      12.21607539       0.16749905       0.17705083       0.17092752
I        6.29997617       1.89242241       6.49381464       0.25608716      -0.02265804      -0.10419354
I        4.12644253       4.45584117       9.35984634       0.07788096      -0.00076642       0.07463622
I        0.30917567       0.02787845       9.39590996       0.25296524       0.10329822      -0.05161852
I        2.70876778       7.03648218      12.79501058      -0.11788146      -0.07321132      -0.01533485
I        4.94240203       4.33821715       3.03654793      -0.14376764       0.05701172      -0.10301831
48
Lattice="9.01938999 0.0 0.0 0.0 8.77776784 0.0 0.0 0.0 12.79618681" Properties=species:S:1:pos:R:3:forces:R:3 config_id=O-FAPI3_all_rattle_05 phase=O-FAPI3 mode=all_rattle seed=4221752773 source=O-FAPI3/CONTCAR energy=-226.01579052 stress="-0.006444479395064707 0.00017644478538130472 0.003394321387166755 0.00017644478538130472 0.0008655042908487808 0.0008698517828228692 0.003394321387166755 0.0008698517828228692 -0.0012486550821101585" pbc="T T T"
C        4.57574651       0.39301736       3.17088050       0.02295887      -0.91336537      -0.28579532
C        0.05762524       4.01483901       9.54152916       3.25980258       1.89947352      -0.39312996
C        8.91784456       4.80125511       3.18758234      -0.43392996      -4.15952375      -3.24874273
C        4.42770234       8.42168215       9.60783721       3.05956659       1.20201547      -3.01259833
N        5.15463026       8.19374476       2.45928532      -3.56787396       0.61706336      -0.82908175
N        0.65802177       4.98605232       8.84019319      -0.40324002      -1.08961567       0.81913689
N        1.12582236       5.10574315       3.05258910       2.86960457       3.55486356       2.71906837
N        5.69727699       8.03189115       9.43186955      -0.91943105      -0.74510586       1.56803204
N        3.30643748       0.78246251       3.07003785       2.06173791      -2.74885582      -2.41265552
N        7.86088326       3.65743928       9.38734982      -0.28712161      -2.58233850       2.60322284
N        8.45262153       3.76973924       2.40071039      -4.09095024       3.95958837       5.69584893
N        3.86892253       0.56859203       8.85833332      -0.29323842       0.04673264      -0.09957564
H        5.19153066       0.84326901       3.96708113      -0.16576368       0.10883293      -0.27831246
H        0.70869884       3.55179604      10.31374218      -0.58414000      -0.06599086      -0.29632524
H        8.30186396       5.21703621       3.93899567      -0.80829372       0.61532087       0.78519518
H        3.87839542       7.94058419      10.32288378      -1.58490041      -1.18135001       2.05524407
H        6.13167896       8.07918708       2.48865360       1.71920564      -0.22563503       0.22052150
H        1.65644876       5.16612507       8.91412035       0.14121662      -0.19032615       0.27582385
H        1.57978918       5.81781912       3.74398575      -0.89795662      -1.21993337      -1.22758767
H        6.11127719       7.35667216      10.12822255      -0.38625198       0.70926947      -0.77398022
H        4.59865116       7.69998180       1.68315219       0.88127917       0.74877538       1.14361898
H        0.17846342       5.43945695       8.08673439      -0.51861064       0.44413176      -0.65686682
H        1.79370034       4.69920242       2.43174639       0.29426435      -0.61657986      -0.77733608
H        6.31251628       8.42183234       8.73388247       0.16446182       0.23611303      -0.27918831
H        2.65507734       0.35807780       2.39552858       0.25248348       0.20884177       0.28365069
H        7.19086191       4.06627023       8.82621861      -1.62662118       1.29859046      -1.79885747
H        8.88959285       3.37067953       1.67096664       2.27900736      -1.66920215      -3.30658074
H        4.31643265       1.04288098       8.06220065       0.31728391      -0.25927823       0.28774552
H        2.96858060       1.40939369       3.70942172      -1.24351051       2.16445614       2.11151296
H        7.50219619       2.98901060      10.09781165      -0.02348936       0.24074568      -0.49000670
H        7.42074569       3.67420315       2.52622256       0.75555757      -0.40763209      -0.52324784
H        2.86301360       0.70801888       8.91810188      -0.29589994      -0.00218518       0.24320400
Pb       4.59759635       4.28360662      12.52594721      -0.09377560      -0.00757430       0.06929259
Pb       0.05842157       0.13643662       6.14827703      -0.08108252      -0.05538799       0.03102422
Pb       0.02384736       8.68732374      12.56400243      -0.03042214       0.02935373      -0.03068325
Pb       4.51683826       4.48492236       6.17548249       0.01428205       0.03784877      -0.06825313
I        7.18384013       6.19911543       6.44997785      -0.02609889       0.04386596      -0.03599972
I        8.67747078       8.71273775       3.01299859      -0.00936784      -0.01576402      -0.22516842
I        6.35392935       1.73716502      12.28373369       0.07005635      -0.07348260      -0.03558658
I        1.77844684       2.50954759       0.01083632       0.21134496       0.10395815      -0.06335034
I        1.81683850       2.68526876       5.91755040       0.05435004       0.07197764       0.00871619
I        2.65036570       7.07497287       5.89139333       0.00472186      -0.04687549      -0.05153642
I        7.16136390       6.11948668      12.27490381      -0.06189135      -0.06499114      -0.01078015
I        6.33328307       1.86778725       6.45267592       0.01114932      -0.07711666      -0.01731465
I        4.14987193       4.38965075       9.34620996       0.03754139       0.01639746       0.06762079
I        0.38891601       8.74259805       9.31063259      -0.06847683       0.03675954       0.22100719
I        2.64651631       6.91887063       0.03503762       0.04333288      -0.00635046       0.05814520
I        4.87406608       4.30522828       2.96330716      -0.02287082       0.02948490      -0.03909052
48
Lattice="9.01938999 0.0 0.0 0.0 8.77776784 0.0 0.0 0.0 12.79618681" Properties=species:S:1:pos:R:3:forces:R:3 config_id=O-FAPI3_all_rattle_06 phase=O-FAPI3 mode=all_rattle seed=1810035654 source=O-FAPI3/CONTCAR energy=-224.79428381 stress="-0.0012688037221420425 -0.003519832562020618 0.0039251464216597315 -0.003519832562020618 -0.002616618758240715 -0.0001559992742093569 0.0039251464216597315 -0.0001559992742093569 -0.003434082340592846" pbc="T T T"
C        4.56265694       0.41871331       3.10018938       3.12257144      -1.24853660       1.67658560
C        0.10835724       4.00455058       9.60754315       1.26394181       1.61717998      -1.17351637
C        8.92680667       4.76262951       3.19402369       3.25226779      -1.05635158      -1.53929700
C        4.46399302       8.49575264       9.58744098       2.11250885      -1.26312591      -1.88140257
N        5.11904643       8.21865686       2.39432036       0.94665502       0.93564059       0.88999481
N        0.56031959       4.89633704       8.77843688       5.94133204       1.67404007       1.17766608
N        1.19042103       5.08782281       3.09148912      -0.12259863       1.23515566       0.83551564
N        5.77940611       8.03916555       9.39501180      -6.89133024      -0.82714432       3.92232841
N        3.30938303       0.68453695       3.07502440      -1.20834690       2.41882070       1.46234255
N        7.93524227       3.65615009       9.48437192      -7.12831174      -3.14016919       0.59173231
N        8.48509008       3.76093935       2.48781186      -6.54511687       0.17010928       1.62975573
N        3.81430589       0.52549556       8.76881491       7.74874993      -0.83739847      -1.10722833
H        5.27040496       0.84464027       3.94157551      -1.51663546      -0.24773888      -1.59452441
H        0.72488864       3.58322765      10.37466406       0.57889033      -0.22111761       0.53374411
H        8.34260067       5.23877321       3.91013464      -1.28375911       0.87337034       1.31681892
H        3.84650466       7.98137747      10.30098528       0.02556441      -0.31689643       0.80011882
H        6.12383831       8.00693165       2.52682449      -0.59167177       0.20366812      -0.11882399
H        1.61282333       5.18058100       9.02119334      -2.43846695      -0.61563665      -0.90858810
H        1.61128065       5.81857427       3.71583222      -0.41399712      -0.67030288      -0.55213245
H        6.06183523       7.30492476      10.04797485       0.28595442       0.21395272      -0.05254296
H        4.59584505       7.71160927       1.70770116      -0.45258629      -0.52171673      -0.72399346
H        0.16997636       5.45338261       8.03048056      -0.96756918      -0.21604225      -0.18858399
H        1.80477597       4.64652764       2.40802214      -0.00362619      -0.01909676       0.06486382
H        6.39691649       8.44148892       8.82278462       3.05417850       2.01998464      -2.97070442
H        2.63844441       0.36049599       2.43952379      -0.87119676      -1.17683994      -1.54690468
H        7.21476970       3.98823596       8.78042617       1.50969671      -0.00739613       0.65713316
H        8.87580482       3.38741039       1.68361336       1.66289061      -0.88073510      -1.92368843
H        4.44387095       1.00633220       8.05886647      -1.12456175      -0.33490128       0.45008462
H        2.87912557       1.44418306       3.63872675       0.75614749      -0.32757259       0.08783437
H        7.43566159       2.97252375      10.14077497       1.21210956       0.87411980      -0.66225913
H        7.33931647       3.62308424       2.48221136       3.18703234       0.41070398       0.22982389
H        2.93291333       0.78906313       8.86819650      -5.18371167       1.37133206       0.82329914
Pb       4.52558951       4.25762504      12.49571737      -0.06255690       0.10720979       0.31548511
Pb       0.04368524       0.11993433       6.10876471       0.02485877      -0.13551149       0.18457600
Pb       9.00124415       8.62938968      12.55300347       0.09944876       0.03149114      -0.10042256
Pb       4.47542672       4.43940103       6.23889131       0.08184260       0.20409494      -0.21767644
I        7.14719147       6.23443550       6.41981557       0.04970215       0.07220992      -0.03074959
I        8.73503325       8.69478554       3.02065532      -0.12188210      -0.01573851      -0.25873769
I        6.36608000       1.76629325      12.36463298       0.16712605      -0.16284647      -0.06686969
I        1.88194127       2.51498085       0.08158068      -0.02555147      -0.02117322      -0.06866071
I        1.92941871       2.64779515       5.89623336      -0.18924248      -0.09208954       0.01772161
I        2.67442303       7.02148080       5.90423814      -0.13661209       0.12541620       0.01521707
I        7.17514156       6.11015293      12.31446246       0.01074464      -0.04336196       0.02074016
I        6.32774597       1.88128482       6.46475680       0.11028160      -0.15178828       0.03343284
I        4.07756042       4.45721331       9.43307495       0.03709592      -0.00663306      -0.10844668
I        0.33159102       8.76762214       9.32732086       0.02163511       0.01872481       0.19441409
I        2.76481779       6.96353296       0.02155121      -0.24476607       0.02707901      -0.06026643
I        4.74787120       4.34677144       3.01933654       0.26087087      -0.04644194      -0.07520880
48
Lattice="9.01938999 0.0 0.0 0.0 8.77776784 0.0 0.0 0.0 12.79618681" Properties=species:S:1:pos:R:3:forces:R:3 config_id=O-FAPI3_all_rattle_07 phase=O-FAPI3 mode=all_rattle seed=505649648 source=O-FAPI3/CONTCAR energy=-226.15234756 stress="-0.0005279653372907338 0.00013402926195039383 0.0011003112185719894 0.00013402926195039383 -0.0012546731452093352 0.0021485540890499055 0.0011003112185719894 0.0021485540890499055 -0.0005382924945998563" pbc="T T T"
C        4.55520729       0.35686849       3.15268330       5.12344939      -1.21582034       0.71784208
C        0.10617482       3.99665955       9.58523262      -5.18278687       1.42900576      -3.84445685
C        8.94789256       4.73865681       3.16869735       2.23529232       1.52769832       0.58115670
C        4.44942536       8.40708095       9.56546072      -2.48150539       0.60982097       0.05472947
N        5.18905295       8.19435596       2.42460203      -3.39049304       1.03712336      -0.12632729
N        0.57745192       4.88422082       8.76812750       5.16357415       0.97726058       1.54741494
N        1.19733557       5.14674139       3.04701150      -0.81578256       0.24412678       1.15726797
N        5.67335892       8.02975210       9.46551597       1.90966882      -1.33026638       0.97836403
N        3.35099940       0.71787500       3.13391206      -4.94999909       0.49090831      -1.77777928
N        7.84123298       3.62265554       9.44146963       0.77104994       0.82556789      -0.39025275
N        8.40626900       3.82931518       2.45411976      -0.24679227      -0.99531755      -0.91405071
N        3.85745988       0.55536446       8.81577922      -1.26120830      -0.63461401       1.10176586
H        5.25363016       0.82425118       3.89317560      -0.70434713      -0.06260284      -0.30271724
H        0.65830489       3.62217671      10.33032028       2.26857913      -1.68903988       2.78836082
H        8.35263537       5.24034030       3.91715860      -0.30076535       0.16590588       0.35096827
H        3.79245182       7.90013168      10.32622857       0.64289004       0.42386968      -0.51751314
H        6.16024084       8.04611702       2.52361214       1.42486942      -0.09884588       0.21077206
H        1.64633072       5.14099739       8.98631605      -2.53279776      -0.45586512      -0.85094818
H        1.59153233       5.74995863       3.81446382      -0.28139523      -0.48384187      -0.82923094
H        6.06893313       7.35296680      10.16880489      -0.46022046       0.56527346      -0.62879608
H        4.66076428       7.74473499       1.66414090       0.35112112      -0.11372894       0.12588769
H        0.10900727       5.43270886       8.06910918      -0.72510480       0.10820185      -0.54665736
H        1.84255459       4.68965923       2.41328316       0.17659373      -0.05460461      -0.12747852
H        6.36256605       8.41865865       8.83324653       0.00523994       0.26891132      -0.29731540
H        2.64733690       0.33054475       2.40089082       1.36872503       0.63285853       1.42900181
H        7.13939799       4.07970276       8.82015590       0.95931563      -0.29050647       0.38064879
H        8.89049623       3.33730751       1.71675447       0.46953472      -0.24006399      -0.41821266
H        4.34815050       1.02402677       8.06638410       0.17167144       0.28354082      -0.34716777
H        2.93516051       1.46802611       3.74085402       0.69941920      -0.65928168      -0.26124547
H        7.46981063       2.94520760      10.05927017      -0.53902075      -0.93668363       0.97330623
H        7.42754640       3.65975512       2.52809515      -1.20811472      -0.17896261       0.19368362
H        2.81004732       0.70957720       8.96011522       1.49399189      -0.18974262      -0.31332306
Pb       4.55003079       4.27970429      12.57620411      -0.07291202       0.00383658      -0.03096188
Pb       8.97559760       0.15893632       6.12828120       0.15334966      -0.05113982       0.08185396
Pb       8.99972195       8.64880918      12.57415288       0.00801528       0.07863046      -0.08115569
Pb       4.52120617       4.52373729       6.15364183      -0.08445529       0.01434393       0.00735230
I        7.18987627       6.21239742       6.47782568       0.00422655       0.11525915      -0.07065578
I        8.66712770       8.75993932       2.97312529       0.03479366       0.01577701      -0.03354029
I        6.33579758       1.75758404      12.31265615       0.10200786      -0.15863208       0.02044095
I        1.83422617       2.55008332       0.02245462      -0.01505367      -0.04834247       0.04937504
I        1.87657167       2.69276181       5.92974798      -0.02938865      -0.09630723      -0.06718711
I        2.61878286       7.00465663       5.89816878      -0.03184958       0.05443170       0.01308389
I        7.16664566       6.09345086      12.25161207       0.03953936       0.04630142       0.01446077
I        6.36896855       1.86720151       6.46163620      -0.03844558      -0.02927349      -0.03209844
I        4.18898316       4.42100247       9.41510936      -0.13106461       0.04717277      -0.18449402
I        0.37473753       0.02936611       9.34948245      -0.04551471      -0.01219877       0.05712246
I        2.63026346       6.91622589       0.07089459      -0.01029074       0.07514206      -0.02740095
I        4.90944590       4.35431365       2.93975783      -0.03760971      -0.01528629       0.18610715
48
Lattice="9.01938999 0.0 0.0 0.0 8.77776784 0.0 0.0 0.0 12.79618681" Properties=species:S:1:pos:R:3:forces:R:3 config_id=O-FAPI3_all_rattle_08 phase=O-FAPI3 mode=all_rattle seed=1785881256 source=O-FAPI3/CONTCAR energy=-219.71361268 stress="-0.010293024855003554 0.004298282405694682 -0.002220184737325559 0.004298282405694682 -0.0036770546414903725 -0.0030499042094123663 -0.002220184737325559 -0.0030499042094123663 -0.010227644042026956" pbc="T T T"
C        4.63325901       0.44363673       3.22809098      -6.24307652      -5.59132734      -7.44074873
C        0.16062956       4.04384040       9.52698463      -8.43878049       0.14582629      -1.73882265
C        8.92735343       4.69408664       3.24024172       4.32636874       0.05173205      -3.01382456
C        4.43781758       8.40352709       9.73520751      -9.64534292       7.53259360      -4.99326923
N        5.22982934       8.13532749       2.46087218     -15.21051566       6.22591063       1.17377967
N        0.60109797       4.99307892       8.78515692       4.97372927      -1.39395616       2.63571961
N        1.20575084       5.18184394       3.07250368      -5.50069108      -5.72589286      -3.51067064
N        5.52903155       8.05541065       9.47877064      15.29134840      -4.49694456      -1.17221932
N        3.22311293       0.84390171       3.10755985       8.43015704      -3.57034973      -1.11116443
N        7.72046633       3.70564731       9.46816760       9.33439309       0.45393818       1.91615625
N        8.40163186       3.79751236       2.38491606      -4.58340489       6.22531780       7.86783740
N        3.80896551       0.55995988       8.83684366       6.68027518      -1.23256311       0.26960312
H        5.23234972       0.80370699       3.88557786       3.64365101       2.96734644       4.58294080
H        0.69277907       3.62613776      10.28939129       1.72215696      -1.44072445       1.95713057
H        8.36499879       5.13957864       4.01668683      -1.00714245       0.42825696       0.77438232
H        3.75752270       7.96365164      10.34062531      -1.72577568      -1.50851350       2.65704723
H        6.06991120       8.02004432       2.57479932      12.02498993      -1.83827084       1.29434180
H        1.66340461       5.14759283       8.89525493      -1.46050099       0.11368088      -0.50037941
H        1.59358506       5.79182604       3.64110620       2.31764900       3.74927788       3.79475412
H        6.09132350       7.40480452      10.14940088      -1.47355937       0.76455084      -0.80258391
H        4.65610955       7.83155651       1.67635460       0.38973250      -0.52449959      -0.21850425
H        0.09493999       5.45652637       8.12513600      -1.98333410       1.75024401      -2.62390307
H        1.76595769       4.69840381       2.36931649       0.18381980       0.33211452       0.08267234
H        6.40606819       8.39259114       8.78059969      -3.41011456      -0.27178953       1.56262466
H        2.72896950       0.24975673       2.47083708      -1.31074671       0.21568245      -0.11362866
H        7.19485001       4.12122134       8.82103078      -2.84149278       1.98771168      -3.21109670
H        8.81884854       3.29110266       1.77137141       3.66076570      -4.05752994      -5.38866894
H        4.34828255       1.14534992       8.07726573      -0.72919411      -1.61974051       1.81672939
H        3.07844065       1.50412705       3.79564114      -1.90323082       1.93187243       1.67778088
H        7.40741557       3.07281274      10.12866351      -1.05123236      -1.65767142       1.58620293
H        7.37039323       3.85722857       2.50593203       0.35866020      -0.99021756      -0.54754912
H        2.90120873       0.76276494       8.88375743      -4.67181470       0.82185797       0.73290409
Pb       4.49356995       4.24596088      12.58916946       0.10442700      -0.18417950      -0.22271185
Pb       8.96568674       0.15307321       6.20255923      -0.12413999      -0.11834375      -0.28250701
Pb       0.07880548       8.57414908      12.47707691      -0.28149607       0.14872038       0.40420627
Pb       4.35847798       4.49923064       6.08259830       0.30547293      -0.07170165       0.23162576
I        7.13948557       6.15440772       6.43571240       0.12401961       0.28777948       0.03443509
I        8.58679750       8.77577889       2.98783681       0.21631540       0.01756089       0.23921275
I        6.46251478       1.76162164      12.33376960      -0.08165758      -0.07056680       0.05016748
I        1.78725174       2.52930617       0.11881720       0.20916856       0.07336456      -0.12687892
I        1.83071898       2.68800926       5.90064049      -0.23249471      -0.13320107       0.07329999
I        2.72548747       6.99842784       5.98595510      -0.44713672       0.57064719      -0.02443293
I        7.24452908       6.04755261      12.39855260      -0.15088155       0.05478745      -0.11779459
I        6.24816844       1.95564533       6.48071646       0.38758559      -0.40839980      -0.04765992
I        4.19383957       4.46542430       9.33411231      -0.23817195       0.05584570       0.12543979
I        0.34409794       0.11698061       9.44988863      -0.21745246      -0.08370886      -0.35471015
I        2.68425786       6.88110393       0.05152461       0.09000198       0.08277706       0.09747073
I        4.78230137       4.32634364       2.95516866       0.18869333       0.00069520      -0.07473608
48
Lattice="9.01938999 0.0 0.0 0.0 8.77776784 0.0 0.0 0.0 12.79618681" Properties=species:S:1:pos:R:3:forces:R:3 config_id=O-FAPI3_all_rattle_09 phase=O-FAPI3 mode=all_rattle seed=3502927691 source=O-FAPI3/CONTCAR energy=-225.61865225 stress="0.003281952115475533 0.004259147188524498 0.004365653149093811 0.004259147188524498 0.0039364112845754 -0.0010700292762629232 0.004365653149093811 -0.0010700292762629232 0.0007739600827409602" pbc="T T T"
C        4.60494796       0.37259342       3.20552797      -1.39319989      -2.64776185      -3.24278948
C        0.05743611       3.98575888       9.55595801       0.62507748       0.72084149       0.14252401
C        8.95361122       4.73837654       3.24279239       0.65039257      -3.00094724      -4.69338267
C        4.47669314       8.41776744       9.57702233       1.30891982      -0.06808927      -0.54386655
N        5.19263851       8.21284993       2.45574846      -3.63093777      -0.38880136      -1.65214694
N        0.65486517       4.93446669       8.79697689      -1.25111530      -1.49762564       1.07822089
N        1.17973206       5.13091832       3.07047804      -1.52241584       0.95814367       1.88645546
N        5.75789171       7.97927756       9.48715292      -2.86466364       0.75051513       0.35469494
N        3.33772448       0.70646399       3.09084445      -1.28096745       0.36377402      -0.04304635
N        7.80073890       3.58350818       9.41307182       3.37150146      -1.89741093       3.69726276
N        8.38881341       3.77390973       2.39551565      -3.21661255       4.74189756       6.13500913
N        3.92563042       0.57985373       8.80829883      -1.44044552      -1.56667684       2.35212531
H        5.16474966       0.85398105       3.90125870       1.78617357       1.52679438       2.25486991
H        0.71066164       3.54996781      10.42530637      -1.25383030       0.50771439      -1.54209665
H        8.36720521       5.26433819       3.91789105      -1.40136940       0.76188034       1.41216134
H        3.83164125       7.96356430      10.34069760       0.10250492       0.03448299      -0.13159674
H        6.15431789       7.97560670       2.53556915       1.17531421      -0.07860786       0.25467531
H        1.63782426       5.15311966       8.90281952       0.38156091      -0.16188400       0.32347330
H        1.58480838       5.87439420       3.64107268      -0.14716180      -0.03932798       0.25677301
H        6.13537907       7.29906375      10.16048967      -0.03395024       0.24658650      -0.15762275
H        4.58951001       7.68525122       1.66411543       1.56291954       1.35122571       2.02601474
H        0.18252278       5.40902030       8.03450304      -0.42412228       0.04170343      -0.27111665
H        1.78673863       4.70759379       2.44549231       1.45253789      -1.17270580      -1.70447268
H        6.32384454       8.47047934       8.82887151       1.03952279       0.07963374      -0.49931816
H        2.61295399       0.31705429       2.43140806       1.23914948       0.19006704       0.64682342
H        7.16262130       4.01366156       8.85635759      -2.19292242       1.71966123      -2.37161621
H        8.87491073       3.27868949       1.76683362       2.50894081      -2.25768484      -3.08771315
H        4.34164365       1.08858366       8.07941779       1.26227187       0.71644634      -1.34666156
H        2.94650754       1.41458205       3.74079067       0.35168271      -0.34610637      -0.28088928
H        7.38849929       2.97244809      10.18158713       0.62011962       0.62268881      -0.93217225
H        7.32606464       3.65817258       2.48926500       1.65430538       0.02131001      -0.14211572
H        2.91130368       0.76428323       8.96126713       0.60220637      -0.19107189      -0.03509607
Pb       4.44011157       4.34292370      12.51627048       0.21849414      -0.25593053       0.26775608
Pb       0.08986415       0.12204161       6.12615575      -0.11035241      -0.07783239       0.10066092
Pb       9.00835792       8.63682050      12.53743716      -0.19124685       0.19918481      -0.02308072
Pb       4.52353471       4.43564520       6.22046608       0.08770554       0.16017519      -0.19639620
I        7.22470997       6.24877486       6.35259669      -0.07484468       0.00848081       0.10600044
I        8.64136526       8.70439299       3.01314613       0.16196660       0.02576427      -0.05665824
I        6.38993286       1.64237127      12.30247230      -0.10285876       0.25221748      -0.02661689
I        1.84633371       2.58117128       0.12456218       0.01991766      -0.11138481      -0.09402246
I        1.87195599       2.71352395       5.96574442       0.01220325      -0.02110067      -0.06091702
I        2.61369358       7.05622408       6.02618977       0.08377680      -0.05079173      -0.07208956
I        7.12988722       6.13292606      12.38906781       0.02931497      -0.05658241      -0.06374845
I        6.36606088       1.89355763       6.44583508       0.00953341      -0.06246561      -0.00372157
I        4.10894528       4.46975042       9.45283853       0.07853618      -0.03574045      -0.25447930
I        0.40118193       0.09168458       9.41133052       0.02120211      -0.02906940      -0.04169316
I        2.61016429       6.90534338      12.78330079       0.22589230      -0.01043789       0.14685502
I        4.91578112       4.32273089       2.97554607      -0.11062726       0.02484842       0.12878744
48
Lattice="9.01938999 0.0 0.0 0.0 8.77776784 0.0 0.0 0.0 12.79618681" Properties=species:S:1:pos:R:3:forces:R:3 config_id=O-FAPI3_all_rattle_10 phase=O-FAPI3 mode=all_rattle seed=1185326591 source=O-FAPI3/CONTCAR energy=-226.20729434 stress="-0.006758894868028273 -0.0009695658954406333 -0.00437423807651157 -0.0009695658954406333 -0.000850553972832007 0.000825288805762107 -0.00437423807651157 0.000825288805762107 0.000774541516765091" pbc="T T T"
C        4.54099607       0.37228216       3.16926051       3.54513326      -1.13888980       0.09520380
C        0.05994810       4.03627449       9.56181495       1.53762619       1.07824781      -0.92330500
C        8.97055270       4.70524565       3.18388284      -0.68865299       2.57927337       1.58657646
C        4.48384443       8.40234982       9.51550952      -3.54262375      -0.14727665       2.44633729
N        5.09923651       8.22173101       2.43289332       4.36090019      -0.10945096       1.54173808
N        0.63659522       4.96288823       8.80612936       0.06752831      -0.55678583       0.70114160
N        1.17367978       5.17107959       3.08065216       1.46871584      -2.13427593      -2.07257303
N        5.70007454       8.04062143       9.46084472       1.07617741       0.56902620      -1.40646628
N        3.33700663       0.70795463       3.00853592      -2.87734246       4.11916360       3.51933387
N        7.84915986       3.68472612       9.42313666      -0.87606807      -2.65394362       2.67354773
N        8.38407074       3.84824636       2.42471169      -0.08416361      -1.42675187      -1.09072486
N        3.87808966       0.55813849       8.83468316      -0.61912751       0.72433608      -0.85185077
H        5.22832788       0.83611680       3.92504937      -0.87853873      -0.06331716      -0.41857053
H        0.68225462       3.53298581      10.30662763      -0.06078136       0.01161818       0.07216310
H        8.32050001       5.26114177       3.92916603       0.58306895      -0.77750521      -0.52858906
H        3.86369490       7.93338274      10.33976732       0.49676604       0.26354520      -0.85637072
H        6.16787007       7.99555839       2.53882066      -2.26169959       0.70776086      -0.02210279
H        1.64058429       5.10537177       8.89626621       0.13247065       0.09496379       0.00993643
H        1.55346122       5.82340652       3.75950753       0.14415205       0.15398498       0.23566090
H        6.10919515       7.40148389      10.07728528       0.58882059      -1.43723354       1.43404005
H        4.66164231       7.71543761       1.72629607      -1.38452888      -0.99938165      -1.61205464
H        0.13391828       5.43933590       8.06399672      -0.16335083       0.13594796      -0.21760025
H        1.84942763       4.66508121       2.38707823      -1.18861177       1.34322306       1.56081850
H        6.30772500       8.44518568       8.78965747       0.95314468       0.47709629      -0.86280039
H        2.69229170       0.27683096       2.40689965      -1.05806752      -0.80102093      -1.16005068
H        7.21054041       4.09218650       8.78980706      -0.91279836       0.59262245      -0.93228270
H        8.90037445       3.34433815       1.67295542      -0.35193871       0.24733900       0.37069316
H        4.38791718       1.05740731       8.09108113      -0.21280797      -0.03344528       0.09620143
H        2.93663392       1.43163971       3.75295626       0.60922353      -1.63196796      -1.80970304
H        7.48862029       2.95728248      10.13842726       0.25414012       1.26002989      -1.32185744
H        7.37927300       3.67856272       2.55272193       0.12412383      -0.03244488      -0.05225620
H        2.84465580       0.75017982       8.93182093       1.16406910      -0.44727434       0.05648328
Pb       4.55084127       4.32119241      12.54934888      -0.04046568      -0.03442120       0.03609565
Pb       8.98544831       0.11404453       6.17385840       0.14596464      -0.02436124      -0.01430946
Pb       9.00275715       8.68810636      12.57835579      -0.02072221      -0.02176654      -0.02542350
Pb       4.50742680       4.49519998       6.18295496      -0.10287525       0.07291396      -0.09768297
I        7.15674228       6.23106054       6.42936178       0.06837790       0.06629180       0.00504857
I        8.67654837       8.73649153       2.96158620      -0.07891386      -0.00909602       0.06134642
I        6.38458012       1.74650044      12.28226188      -0.02646387       0.01921012      -0.04574356
I        1.79286668       2.52103488       0.06084779       0.10080378       0.08039420      -0.02968892
I        1.91183965       2.64693343       5.96493775      -0.05885413      -0.10692232      -0.11426636
I        2.64449940       7.05253672       5.89629593      -0.02786476       0.01818627       0.01732366
I        7.15782731       6.08130067      12.27305553      -0.01097956       0.02609302       0.01902639
I        6.34200969       1.85306702       6.44075845       0.02825738      -0.03190488      -0.00678857
I        4.15831760       4.43262608       9.33718276       0.00736292       0.00032078       0.09879076
I        0.32626624       0.02264366       9.37022942       0.05260174       0.03601087      -0.03137248
I        2.61368230       6.91658665       0.09854471       0.04862343      -0.03789448      -0.10395519
I        4.88980014       4.34197570       2.96203330      -0.02981113      -0.02026745      -0.02911777
48
Lattice="9.01938999 0.0 0.0 0.0 8.77776784 0.0 0.0 0.0 12.79618681" Properties=species:S:1:pos:R:3:forces:R:3 config_id=O-FAPI3_all_rattle_11 phase=O-FAPI3 mode=all_rattle seed=642498790 source=O-FAPI3/CONTCAR energy=-223.49969312 stress="-0.008870347591830247 0.0034554107381966864 -0.009528254845197653 0.0034554107381966864 -0.004496093580745876 -0.00020465763620759484 -0.009528254845197653 -0.00020465763620759484 0.0007276114286438102" pbc="T T T"
C        4.58528795       0.32410819       3.23904912       1.25614550      -3.27061283      -3.65994123
C        0.01937996       4.07982424       9.57656857       4.93300275      -0.56126331       0.51680645
C        8.84289117       4.73765474       3.10855143       4.76903780       3.76461862       3.22165399
C        4.52948778       8.42832736       9.56633866      -9.08287821      -0.32489061       4.05998503
N        5.18393246       8.14036935       2.36429552      -4.25115521       3.99978616       3.45765917
N        0.62277715       4.91013402       8.75939756       0.95063352       1.98924334      -1.12025877
N        1.20178889       5.12562927       3.08747406      -6.32331771      -4.92430676      -3.87764061
N        5.65304897       8.00229954       9.53448524       6.72346582       3.82935973      -7.76410825
N        3.34608915       0.67864153       3.18704618      -2.09843896      -1.74977410      -3.28304784
N        7.86518713       3.65935688       9.41276126      -2.47776324      -2.87029948       2.18703137
N        8.31540216       3.84121660       2.40353554       3.68275046      -1.80631563      -3.07093377
N        3.96437429       0.58776039       8.89035271      -2.59538951       1.54589386      -1.41182813
H        5.20574811       0.79169497       3.91552670       1.54646829       0.98013919       1.71542357
H        0.68366345       3.48750776      10.34614213      -1.11026703       1.34635205      -1.15509196
H        8.31892775       5.27151121       3.93283661      -0.22947062      -0.37058031      -0.63084511
H        3.77776563       7.87005641      10.44332878       1.85804290       1.52211358      -2.22777823
H        6.15360771       8.06213091       2.52566541       1.57554205      -0.76691495      -0.43220282
H        1.63891336       5.18770337       8.84237469      -1.19356906      -0.65210751       0.38274652
H        1.51034033       5.73142069       3.71484717       1.80711754       3.50750287       3.54436114
H        6.03267555       7.44368002      10.12488889       2.96321639      -5.09807212       5.24296577
H        4.48581120       7.75265140       1.72561749       0.84286746      -0.66584006      -0.59046635
H        0.12872437       5.43832777       7.95916050       0.33698403      -1.02595083       1.32604877
H        1.78982849       4.68406112       2.40808880       0.70960987      -0.06433073      -0.27891157
H        6.40527160       8.44477725       8.82791500      -1.76214187      -1.13266529       1.67630767
H        2.73677957       0.22780985       2.36145105       1.21754183       1.26012524       2.28013048
H        7.16605417       4.06653620       8.87953597      -1.52015769       1.17148468      -1.66530442
H        8.98826840       3.38289098       1.67655537      -1.55204743       0.40068958       0.93716009
H        4.38634437       1.05360074       8.06814102       0.10505938      -0.22723679       0.41776179
H        2.91332682       1.40237955       3.75074956       0.00725084       0.24347169       0.43854268
H        7.51292088       2.92524564      10.06215123       0.16677498       0.52639938      -0.31331987
H        7.37053952       3.63141610       2.44259590      -2.67081547      -0.59362115       0.05355456
H        2.90083677       0.67588619       8.96326769       1.61050553      -0.10536810      -0.02995048
Pb       4.48264449       4.18361108      12.54598156       0.21943129       0.26091575      -0.08340454
Pb       0.07572914       0.15708623       6.11576231      -0.10971540      -0.22154874       0.08212728
Pb       0.01165161       8.69543089      12.53339152      -0.13564587      -0.27398129      -0.04348972
Pb       4.51072284       4.45752650       6.17779349       0.09483790       0.16414701       0.01791214
I        7.28270176       6.22238609       6.57206844      -0.27441949       0.04814640      -0.27660474
I        8.70593300       8.61383837       2.97179679      -0.02918426       0.09996448      -0.08654648
I        6.35302615       1.71983543      12.23619471       0.09000751      -0.06332497       0.01580547
I        1.79705916       2.55913583      12.77546223      -0.09805627       0.03382344       0.17465217
I        1.90135298       2.64717877       5.92527571       0.07304987       0.16560981      -0.04239288
I        2.66625462       7.09093735       5.94638136       0.06643301      -0.10668677       0.04982557
I        7.13116401       6.14424973      12.21916042       0.07509761      -0.05452692       0.11876971
I        6.36094869       1.86107217       6.51634284       0.02318629       0.01037705      -0.11386884
I        4.14611292       4.49599560       9.37695663       0.01820138      -0.01494094      -0.23777421
I        0.31226247       8.76988224       9.32459157       0.11222791       0.08182913       0.10876311
I        2.74274996       6.98922470       0.02041069      -0.17045282       0.03762079      -0.00115332
I        4.92843524       4.35856709       2.83671691      -0.14960361      -0.04445363       0.37086965
48
Lattice="9.01938999 0.0 0.0 0.0 8.77776784 0.0 0.0 0.0 12.79618681" Properties=species:S:1:pos:R:3:forces:R:3 config_id=O-FAPI3_all_rattle_12 phase=O-FAPI3 mode=all_rattle seed=1398200938 source=O-FAPI3/CONTCAR energy=-227.00796687 stress="-0.000704438658851762 0.000328091792862092 0.00047764757022723375 0.000328091792862092 0.001527105082071611 -0.000630419291410996 0.00047764757022723375 -0.000630419291410996 0.0008150312287967198" pbc="T T T"
C        4.58692686       0.34662721       3.15987169      -1.80057146       1.07353102       0.39967537
C        0.07591828       4.05249888       9.58770970      -0.05353720       0.93319836      -1.20748639
C        8.94979899       4.73935351       3.15614710      -0.05571496      -0.39740582      -0.19818140
C        4.44875062       8.41772961       9.52433096      -1.64285287       0.00381791       1.13901960
N        5.14180343       8.20523644       2.42611031      -0.10744921      -0.23741474      -0.32367937
N        0.64061056       4.98725268       8.82515153      -0.40749243      -0.63034642       0.40575773
N        1.19154972       5.10500643       3.07075265      -0.23202482       1.10956322       1.07067602
N        5.68488733       8.03642557       9.47451886       1.60046220      -0.08238741      -0.57497398
N        3.29441716       0.72697991       3.06037097       2.20250246       0.49328504       1.36953031
N        7.84882848       3.66779503       9.47960956       0.34482910      -0.22989976       0.36385510
N        8.35592547       3.80043220       2.43631668       2.25741463       0.62142207      -0.23310493
N        3.86919898       0.57079138       8.78429804       0.05527197      -0.80971019       0.79696301
H        5.19512282       0.86270773       3.91941904      -0.10876751      -0.18153906      -0.14605911
H        0.67751132       3.55875312      10.33159209       0.39443657      -0.12352074       0.45994175
H        8.34340782       5.23651364       3.91140377      -0.08763043       0.09945432       0.13346272
H        3.82946875       7.93189921      10.33015214       0.31362317       0.42851866      -0.76055117
H        6.13825301       8.02949271       2.52851397       0.26360059      -0.06530096      -0.01561040
H        1.64265297       5.14667274       8.94094627       0.03829562       0.05531884      -0.06616962
H        1.57693788       5.83894887       3.71404191      -0.55180674      -0.65285122      -0.42743457
H        6.09148179       7.35725079      10.15384129      -0.41520090       0.43808301      -0.41047082
H        4.61534948       7.73084373       1.68262870       0.09276366      -0.02982826       0.04381363
H        0.13857427       5.45303492       8.05088907       0.11277938      -0.19013472       0.33293162
H        1.85839065       4.75522731       2.41543881       0.40472191      -0.58264681      -0.71848889
H        6.32802395       8.45217208       8.77827001      -0.20698349      -0.32031481       0.44022651
H        2.69449938       0.32945657       2.37741852      -0.80902820      -0.43177793      -0.74277513
H        7.19063669       4.01063937       8.81612676      -0.45458355       0.63871433      -0.85545691
H        8.87538199       3.32544962       1.68015507      -0.24873944       0.04275979       0.22499814
H        4.37177589       1.07205898       8.07067774       0.31997120       0.33959849      -0.54097613
H        2.91163100       1.43285833       3.73087606       0.31350616      -0.60733370      -0.57074840
H        7.44678575       3.01469882      10.13448270       0.02309166      -0.49235477       0.54371180
H        7.38569985       3.64314135       2.54970779      -1.43431817      -0.23485506       0.15733039
H        2.87211416       0.74450042       8.92507823      -0.00800095       0.00879585      -0.06817313
Pb       4.54867671       4.32682914      12.53814671      -0.07017666      -0.14132976       0.06977311
Pb       0.00873663       0.08055472       6.17042391       0.02106548       0.03857513      -0.09358602
Pb       9.00626479       8.65915149      12.52880537      -0.00927716       0.13117332       0.07661940
Pb       4.46840324       4.49160882       6.16485411      -0.00330007      -0.02076954      -0.07036157
I        7.13918549       6.26934767       6.44784012       0.04164044      -0.02809912      -0.00676560
I        8.67029694       8.74218426       2.94785551      -0.03680677      -0.03933509       0.02255000
I        6.36759030       1.73853567      12.31470098       0.03157086      -0.03875477      -0.01666611
I        1.83693154       2.52001859       0.07451488       0.02406727       0.03871801      -0.05853118
I        1.86006266       2.65746026       5.87447843      -0.00576668       0.00318736       0.03110561
I        2.67328343       7.05676067       5.88709957      -0.05778515       0.02256023      -0.00645057
I        7.16015973       6.10344110      12.27932822       0.01152811       0.01186421      -0.00973938
I        6.36683105       1.87236863       6.42005473       0.04155432      -0.02848425       0.02240644
I        4.16658486       4.41096483       9.36459053      -0.02017624       0.00509861      -0.02252493
I        0.37499043       0.04080565       9.34956742      -0.02059638       0.01496050       0.02199329
I        2.67544411       6.93281218       0.05204273      -0.01022229       0.01024753      -0.02357077
I        4.87424395       4.32013144       2.95204728      -0.04988704       0.03394909       0.04219489
48
Lattice="9.01938999 0.0 0.0 0.0 8.77776784 0.0 0.0 0.0 12.79618681" Properties=species:S:1:pos:R:3:forces:R:3 config_id=O-FAPI3_all_rattle_13 phase=O-FAPI3 mode=all_rattle seed=1058797482 source=O-FAPI3/CONTCAR energy=-222.54935298 stress="-0.01300140636779413 -0.002922187478720199 0.007548728712544199 -0.002922187478720199 -0.0030528729083299827 0.002178225730355134 0.007548728712544199 0.002178225730355134 -0.007119621159060668" pbc="T T T"
C        4.53094711       0.22279520       3.18216073      -5.79181323       5.88391945       2.34143836
C        0.00979578       4.00473571       9.52259643       6.35547362      -1.49714718       5.21461829
C        8.92255196       4.85967327       3.12302264      -4.46515161      -7.95194979      -5.00446803
C        4.33158098       8.31814030       9.55426444       4.05513232       2.18874462      -1.89738533
N        5.04811659       8.16775897       2.43964330       5.76643438      -4.39188058      -2.33000302
N        0.63207912       4.89151199       8.90773915      -0.01627939       4.85699846      -5.48961490
N        1.07847399       5.16544602       3.14829421       7.26524540      -2.20564503      -6.19917009
N        5.68416839       7.97742194       9.38693459      -5.24829828       0.36652467       0.89970584
N        3.23257363       0.74675534       3.02141541       3.51624663       0.46379512       2.44678117
N        7.83634276       3.73533539       9.49053495      -5.25391800      -3.61652464       1.61618939
N        8.34161801       3.71053925       2.40124195       0.95314039       7.33064907       7.28912386
N        3.87237516       0.60332864       8.89923390      -2.37647053      -1.57486890       0.96627566
H        5.03859076       0.82336665       3.98154863       0.28922103      -1.04513467      -0.52289287
H        0.66811204       3.56955162      10.38086215      -1.20023790       0.03931654      -1.21589065
H        8.40896318       5.25499926       3.84922326      -3.90730149       2.11607573       3.76330044
H        3.67602060       7.95335427      10.31924608       0.03255874      -1.03155349       0.60252958
H        6.15135584       7.97533784       2.67888939      -2.64468524       0.32665216      -0.91329467
H        1.60028547       5.17949721       8.90352357       0.59366772      -0.63858254       0.70642452
H        1.44131376       5.73636872       3.81426702       1.56111106       2.60984036       2.59763712
H        6.04020809       7.40812822      10.08867952       0.90429655      -1.71059598       1.62644646
H        4.67574927       7.69693407       1.57435108      -0.08585000       0.58309893       0.96393325
H        0.10114434       5.41212008       8.11511825       0.79336166      -0.78012959       1.29108175
H        1.83260340       4.76647514       2.33872080      -2.18760193       1.17139320       2.67335527
H        6.37113970       8.39395055       8.81514888       0.46947204       1.06697915      -1.16737058
H        2.57363116       0.31294454       2.41868788      -0.85635654      -0.22815537      -0.60276701
H        7.21371289       4.02816620       8.80019219      -1.45067093       0.86417447      -1.50204803
H        8.79352525       3.31477498       1.72546956       3.70600081      -2.95389654      -5.27008323
H        4.36968069       0.93499642       8.10975192       0.88537061       0.77622087      -1.13300047
H        2.99253249       1.51768967       3.73781735      -0.07807636      -1.57018498      -1.43675883
H        7.47633444       2.98417782      10.13454784       0.19296961       0.79995857      -0.63894125
H        7.38497596       3.61144001       2.46156036      -2.70345569      -0.11164121       0.19103393
H        2.81779805       0.73328770       8.86477800       1.22967961      -0.07827742       0.21024723
Pb       4.58179131       4.17347995      12.58479291      -0.33436039       0.50159879      -0.16810841
Pb       9.00291463       0.19416326       6.10557948       0.10931771      -0.14468469       0.00750752
Pb       8.97792876       8.74393306      12.54105490       0.06245235      -0.16695151      -0.07611923
Pb       4.53041605       4.47247039       6.10494582       0.00405772       0.20402302       0.18709156
I        7.12365429       6.20295053       6.43882149       0.36826887       0.18419789      -0.03618999
I        8.56139574       8.75683295       2.87382035      -0.11832422      -0.10482884       0.14991784
I        6.36535908       1.83805511      12.30843622       0.18592361      -0.46562396      -0.09031614
I        1.87794802       2.52283792       0.12922524      -0.12607636       0.03509248      -0.10151931
I        1.99853961       2.68587828       5.94250360      -0.38451533      -0.17427211      -0.04846889
I        2.75133759       7.17530829       5.95480112      -0.12257260      -0.17452038      -0.03139446
I        7.09086835       6.06788438      12.30256661       0.16388996       0.28227851       0.04886111
I        6.26672412       1.75604003       6.52110686       0.12266707       0.07727235      -0.13883328
I        4.19673091       4.38167685       9.38475437      -0.06267339       0.02131142      -0.06413486
I        0.31630667       0.10682175       9.26457911      -0.01616026      -0.01019164       0.05566752
I        2.57010783       7.05444764      12.73341921       0.09411663      -0.20646240       0.12909151
I        4.93886499       4.28829184       2.95576086      -0.24922640       0.08358761       0.10051436
48
Lattice="9.01938999 0.0 0.0 0.0 8.77776784 0.0 0.0 0.0 12.79618681" Properties=species:S:1:pos:R:3:forces:R:3 config_id=O-FAPI3_all_rattle_14 phase=O-FAPI3 mode=all_rattle seed=200719959 source=O-FAPI3/CONTCAR energy=-223.51352391 stress="-0.010815830299250864 -0.00067073359831166 -0.005673499857625685 -0.00067073359831166 -0.000466789335389608 -0.0043351893978654165 -0.005673499857625685 -0.0043351893978654165 -0.0017739969633190646" pbc="T T T"
C        4.61329802       0.33226774       3.23527680      -0.76985028      -0.88978212      -4.07390319
C        0.03397712       4.10690164       9.58146145       2.94361027      -2.11557081      -0.57304179
C        8.94439466       4.66688101       3.15481233       0.82137749       4.37144477       2.77622728
C        4.45969050       8.56005743       9.59529669       1.51209432      -4.80247944       2.11810879
N        5.24555248       8.22596294       2.32220157     -14.41394387       6.67002675       1.26116276
N        0.75133873       4.94992557       8.74517063      -9.84291057      -2.04645562       0.11339375
N        1.12481255       5.13312777       3.03201667       1.30158297      -0.98419112      -0.93266521
N        5.65821041       7.99326599       9.45470281       2.84675737       2.42404028      -2.34562354
N        3.33463380       0.77119221       3.01950187       3.12099635      -1.82623023       0.15638147
N        7.84215964       3.55628885       9.44216818       0.98671471       3.68187020      -2.67920957
N        8.39194665       3.86670180       2.38987151      -5.10456208      -2.38154111      -0.52884470
N        3.88108275       0.56256082       8.78228930       0.13606951       1.63751966      -1.14172286
H        5.24144243       0.86933073       3.95941365      -0.20094438      -0.34760200       0.11975648
H        0.64977129       3.41763479      10.26032360      -0.39643407       1.54446453      -0.28767268
H        8.38863167       5.25752515       3.88033757      -0.65534958      -0.44750205       0.32518583
H        3.96226339       7.92580559      10.35926884      -0.85634270       1.17055946      -0.02925281
H        6.03920468       8.02617735       2.52163781      13.02017741      -3.67296613       2.79868272
H        1.65689189       5.15465674       8.87984435       4.28470178       1.04451065       0.73457401
H        1.47135627       5.76349325       3.72079817       0.62922050       0.63252682       0.59586164
H        6.10637325       7.34793591      10.14508102      -0.70752135       0.67873457      -0.28512748
H        4.64336344       7.76906837       1.68579614      -0.49495075      -0.92337626      -1.17085364
H        0.03876092       5.44081127       8.08603892       2.05293317      -0.33862934       0.65491438
H        1.75143439       4.69045054       2.36022838       0.36405485       0.34171421       0.11847412
H        6.38893829       8.49001541       8.73975119      -1.92035940      -1.59929213       1.95663729
H        2.67668338       0.34171613       2.36225453       0.23699275      -0.01079020       0.03891823
H        7.16720504       3.98796684       8.79246802       0.15873982      -0.21826234       0.13303871
H        8.90540601       3.35172455       1.74954354       1.10978143      -1.47595804      -2.00934955
H        4.43996122       1.01997610       8.05854618      -0.09359431       0.16004993      -0.32609337
H        2.98575216       1.41805436       3.68979582      -0.68202480       0.83884842       0.81783905
H        7.42328212       2.99797594      10.12265455      -0.49482608      -1.42586618       1.85694715
H        7.34453238       3.71161286       2.50847476       1.37637613      -0.04827612      -0.31003804
H        2.91245158       0.78442961       8.88369306      -0.96806781       0.28862535       0.16325891
Pb       4.44312775       4.23205339      12.56035488      -0.06451805       0.18698463       0.03444601
Pb       0.08918102       0.02326416       6.18816326      -0.10048050       0.17518648      -0.14621187
Pb       8.89575093       8.70927957      12.51243994       0.24547213      -0.01054123       0.26589445
Pb       4.50948241       4.47805990       6.18908343      -0.11138069      -0.18574849      -0.04579532
I        7.09168497       6.18538850       6.40807110       0.29541165       0.11282907       0.10188487
I        8.65384394       8.70228667       2.92344166       0.14503348       0.06945359       0.37248911
I        6.29917273       1.70010748      12.35820737      -0.13369651       0.16765719      -0.07870296
I        1.81699769       2.46628925       0.03792291       0.24880893       0.29020901       0.01989019
I        1.84770502       2.64332955       5.81503938      -0.08874784      -0.09089864       0.08578301
I        2.66737095       7.04899788       5.94632288       0.09429203      -0.05498809      -0.03210103
I        7.25600391       6.18991028      12.41348920      -0.42331071      -0.50782902      -0.15241423
I        6.39953346       1.77765169       6.48205072      -0.05576321       0.09323493      -0.02553894
I        4.07937656       4.39759305       9.32746546       0.22541446      -0.04218155       0.25394001
I        0.34505390       0.10108293       9.46010869       0.05495168      -0.02983945      -0.45294885
I        2.57258969       6.94089598       0.09366246       0.17393803      -0.10950090      -0.04474367
I        4.75685911       4.29856596       3.01332438       0.19407632       0.00580811      -0.20183493
48
Lattice="9.01938999 0.0 0.0 0.0 8.77776784 0.0 0.0 0.0 12.79618681" Properties=species:S:1:pos:R:3:forces:R:3 config_id=O-FAPI3_all_rattle_15 phase=O-FAPI3 mode=all_rattle seed=600379232 source=O-FAPI3/CONTCAR energy=-224.84378629 stress="-0.007235958844669218 -0.007354707525388952 -0.0001234038915767457 -0.007354707525388952 -0.0015359294525039671 -0.000264794326975115 -0.0001234038915767457 -0.000264794326975115 -0.003838058769656465" pbc="T T T"
C        4.61620777       0.34489000       3.16926383      -4.13906464      -1.16995973      -2.96924320
C        0.08073076       4.06380894       9.60726355       2.32321460       0.61741163      -0.57344197
C        8.97886064       4.75279016       3.15717297      -6.25041254      -0.72544510       0.78864003
C        4.45650982       8.42595104       9.53276224      -2.38982693       0.03645205       1.63538223
N        5.16594175       8.16773115       2.38278742      -3.69812902       3.19765249       2.29586112
N        0.66460340       5.02877486       8.84040420      -1.41483800      -3.03425492       3.01030567
N        1.12049099       5.11191550       3.07609249       5.92704203       2.09466470       0.19079194
N        5.70074874       7.98197541       9.47403695      -1.54507165       2.99694746      -2.83962233
N        3.28899614       0.79241124       3.07285301       4.11751184      -3.69971277      -2.28668283
N        7.86845973       3.66858582       9.53114416       1.28314506       7.07331041      -7.65900614
N        8.38801754       3.91462481       2.37792141      -1.62465380      -3.44084776      -1.80921907
N        3.84225112       0.60815711       8.79858473       4.45703024      -2.09941930       0.61011549
H        5.18937413       0.77829632       3.90384890       1.54897124       1.10771603       1.73758582
H        0.74386156       3.49675979      10.31256212      -0.46743706       0.64942666      -0.30809037
H        8.32970556       5.24657726       3.86541376      -0.21374552       0.20644814       0.56067770
H        3.78578766       8.00102035      10.37359327       0.99946272       0.32653361      -1.24596563
H        6.10495252       8.03866460       2.51836890       3.21946918      -0.83428858       0.10558374
H        1.66065459       5.09121437       8.90540397       0.87836050       0.34683083      -0.16318093
H        1.52108774       5.78131826       3.71384318       0.21643941       0.45237760       0.45038406
H        6.06243638       7.36266921      10.14427793       0.80744336      -1.17530247       1.28073683
H        4.60935393       7.73592202       1.68541558      -0.49185550      -0.80527495      -1.14869854
H        0.10257428       5.42250163       8.14325553      -0.76014221       1.20874616      -1.70015660
H        1.74430646       4.71322297       2.42371666       1.10009950      -0.57017442      -1.03327220
H        6.28548391       8.48409243       8.77402168       0.22209404      -0.84208927       0.67119554
H        2.67437640       0.26904420       2.40556168       0.30003150       0.85916430       0.82496682
H        7.18010746       4.05812104       8.77636249       1.54983843      -0.61550208       1.56571912
H        8.95755846       3.28847889       1.68759221      -1.10350948       1.30085220       1.18916118
H        4.45304592       1.06114383       8.10714124      -0.63716650       0.32337389      -0.28551624
H        2.95341269       1.40873404       3.75215957      -0.88765422       1.29416555       1.37838651
H        7.49089219       3.07667127      10.06847946      -3.41993364      -6.21562626       5.74516640
H        7.34688897       3.63966044       2.56916029       2.02924880       0.67830378      -0.38747810
H        2.88232664       0.75460478       8.90941877      -1.97558303       0.42620366       0.15148379
Pb       4.51443432       4.27480840      12.51694356       0.05635729      -0.03667242       0.33303351
Pb       0.04497952       0.10616280       6.17994005      -0.11723007      -0.06304971       0.02965171
Pb       8.96851630       8.65998275      12.58817238       0.02311100       0.08364631      -0.02014076
Pb       4.43078733       4.50834636       6.24970831       0.16565838      -0.03164206      -0.31282616
I        7.26623957       6.20551056       6.35594174      -0.18564700      -0.06327075       0.10309311
I        8.62803135       8.73071514       2.93535888       0.04674730       0.03736903       0.23207237
I        6.35429833       1.70086983      12.24616422      -0.11973988       0.07081650       0.04967895
I        1.82241456       2.57557167       0.08575224       0.05914583      -0.04019229      -0.07029956
I        1.79270992       2.69782825       5.90798243       0.09916908       0.09671073       0.03338624
I        2.64631608       7.05432712       5.82183863       0.04638167       0.03552898       0.04397840
I        7.17682305       6.12260051      12.30652690      -0.10826814      -0.08527867      -0.01522220
I        6.34895525       1.84174124       6.43280703      -0.00984158      -0.00358867       0.09037050
I        4.13550296       4.44476082       9.39319551       0.03276664      -0.01549231      -0.02268997
I        0.29058238       0.04595056       9.42966144       0.10528493       0.03788129      -0.24583968
I        2.61235465       6.92526980       0.08856945       0.10790346      -0.03698880      -0.00531602
I        4.95963881       4.25692098       3.01114212      -0.16217762       0.04553930      -0.00550030
48
Lattice="9.01938999 0.0 0.0 0.0 8.77776784 0.0 0.0 0.0 12.79618681" Properties=species:S:1:pos:R:3:forces:R:3 config_id=O-FAPI3_all_rattle_16 phase=O-FAPI3 mode=all_rattle seed=2685357719 source=O-FAPI3/CONTCAR energy=-221.70671309 stress="-0.012349959338515397 -0.003475005213357811 0.00624990089107659 -0.003475005213357811 -0.005367891884295308 0.005943773636669958 0.00624990089107659 0.005943773636669958 -0.004530821705771329" pbc="T T T"
C        4.57504057       0.39060768       3.24108563       2.11361835      -1.12527971      -0.50299066
C        0.10717002       4.08551601       9.60204642      -3.91453611      -2.38417909       0.59862403
C        8.91529045       4.70744553       3.10368913      -0.77324600       4.79120362       5.09576697
C        4.38510881       8.46558302       9.54618441       2.20627931      -1.67453574       0.57840363
N        5.13001265       8.30774725       2.45349940       3.54213127      -3.44240393      -2.16237977
N        0.58510298       4.98335939       8.75538467       3.82142366      -2.60618972       4.66303544
N        1.13043713       5.07195366       3.11864173       3.27944325      -1.30977024      -3.21292333
N        5.61883770       7.96531204       9.51719465       1.47245985       3.01379102      -3.63274196
N        3.34963531       0.65205894       3.09896286      -4.99078523       4.26645597       2.32665656
N        7.73217710       3.59020211       9.57574296       8.92716577      14.02725893     -11.66739345
N        8.32448441       3.84717012       2.41820381       8.77856138      -1.47480983      -4.29265596
N        3.80866525       0.54749966       8.74812092       5.68187779      -5.23741382       3.33813196
H        5.23895777       0.81231447       4.00312504      -0.43563941       0.42080559       0.11875429
H        0.74954793       3.54852395      10.43326176      -0.83987011       1.33011400      -1.62100232
H        8.24145389       5.32525696       3.90404814       1.31041428      -1.51882744      -1.63777731
H        3.93691512       7.96573311      10.34177351      -2.20035924      -0.26067843       1.41000726
H        6.19332288       8.08040113       2.56411322      -2.15290245       0.66342892      -0.02301171
H        1.63768464       5.16447292       8.94787413      -1.59127191      -0.07982304      -0.65465311
H        1.54424945       5.74723138       3.73791665      -0.17156984       0.54942475       0.60757321
H        6.07559143       7.35459288      10.19578232      -0.52333688      -0.09826781       0.36585809
H        4.68254015       7.68295399       1.67214133       0.25978488       1.63671919       1.63184738
H        0.14783727       5.46667259       8.05614306      -1.94372158       1.49013330      -2.42740791
H        1.84166518       4.71408240       2.34689590      -1.67337018       0.67632222       1.88100554
H        6.30381789       8.42382103       8.78770554      -1.22493819      -1.29288855       1.64339731
H        2.66873612       0.28163810       2.42342938       0.65469139      -0.14047269       0.04637774
H        7.22136377       4.02833930       8.75586287       0.01792888      -1.27022569       1.62705697
H        8.87104691       3.31828319       1.70783795      -0.71292438      -0.05214547       0.18936876
H        4.34891183       0.90992975       8.11249849       3.34302540       3.16021292      -5.07003653
H        2.92597381       1.48371935       3.72458392       0.95805858      -2.23420217      -1.42866084
H        7.52184105       2.99557075      10.12294899      -4.18052788     -10.51688184       9.39935198
H        7.47468507       3.75787687       2.60056597      -9.96654254      -1.67562500       1.37964740
H        2.97019841       0.75845470       8.92573839      -8.70843210       2.46306446       1.37506941
Pb       4.57176743       4.24111415      12.55934884      -0.26782844       0.12590907      -0.03642302
Pb       0.02191342       8.77406801       6.11610627       0.06330691       0.22639412       0.14731036
Pb       8.87942971       8.66456044      12.58558499       0.32322708      -0.08631556      -0.22037649
Pb       4.51136133       4.45611381       6.11549973      -0.14104768      -0.06141919       0.09813081
I        7.15372962       6.23678162       6.51879792      -0.01253618      -0.00494283      -0.11414111
I        8.70395811       0.02697522       2.88305165      -0.06396635      -0.05738909       0.30467327
I        6.40971247       1.71835804      12.26199848      -0.12962813      -0.13621348       0.11915505
I        1.83218815       2.46054552       0.13666097       0.00566912       0.07926341      -0.08531850
I        1.86085971       2.66850076       6.02077327      -0.02973650      -0.08078711      -0.11123753
I        2.67313966       7.09503630       5.89422436       0.00682703      -0.10047423      -0.00461718
I        7.14431185       6.03750435      12.35273560       0.04652204       0.08091625      -0.01027922
I        6.32795919       1.83040537       6.34611529       0.09646303      -0.03565808       0.12635498
I        4.12921149       4.46102190       9.34529042      -0.12741998      -0.01033238       0.10768859
I        0.32996672       0.02323264       9.36464517      -0.05485518      -0.02873358      -0.09197966
I        2.73454430       6.89066046       0.11638836      -0.07170688      -0.03912059      -0.07223336
I        4.82848398       4.27310007       2.99062420      -0.00617989       0.03458859      -0.09900606
48
Lattice="9.01938999 0.0 0.0 0.0 8.77776784 0.0 0.0 0.0 12.79618681" Properties=species:S:1:pos:R:3:forces:R:3 config_id=O-FAPI3_all_rattle_17 phase=O-FAPI3 mode=all_rattle seed=2992568113 source=O-FAPI3/CONTCAR energy=-224.03279403 stress="-0.0028908987872306373 0.006556413078075543 0.001538650232437595 0.006556413078075543 -0.007660635744311068 -0.003495435414107873 0.001538650232437595 -0.003495435414107873 -0.005217470846520044" pbc="T T T"
C        4.54230938       0.27929505       3.14442720      -1.32965604       9.46538250       7.31590992
C        0.01951832       4.12523383       9.58489838      -2.23106226      -5.58778872       3.50433537
C        8.93136877       4.70925761       3.23263017       1.13989367       0.79524856      -0.64728326
C        4.49534208       8.40781117       9.53939476      -7.54541965       2.37204639       0.27614507
N        5.07961014       8.21243482       2.49217613       5.29687400      -5.88768600      -3.95069085
N        0.61606691       4.93359146       8.86294571       2.78486792       5.15320092      -4.52260385
N        1.19503977       5.15356865       3.09532939      -4.68217748      -6.16360312      -5.01140390
N        5.68434409       8.11792319       9.51929758       4.43655592       2.36383516      -4.99285931
N        3.36184314       0.85959882       3.01945990      -2.09215442      -2.94998272      -2.92186559
N        7.79187158       3.58334097       9.45662249       2.04061017       3.36897924      -1.98038292
N        8.32803580       3.83165480       2.40976907       5.42297849       1.67019668       0.83798827
N        3.90175293       0.50433043       8.67897992      -0.77074558      -1.34288912       2.30117584
H        5.24106479       0.91017403       3.90221572      -1.40012189      -1.61831759      -1.10915622
H        0.64024699       3.61669324      10.35814892      -0.32618795       0.28896722      -0.20665640
H        8.37989504       5.22389691       4.05476252      -0.06654615      -0.57357413      -0.56045903
H        3.79757402       7.96469093      10.37470654       1.19840026       0.64624347      -1.49356453
H        6.11838410       7.99971010       2.54495528      -1.19388786       0.38551262       0.21342707
H        1.70401089       5.13251183       8.88621621      -2.23976693      -0.68172889       0.48499401
H        1.55833927       5.75233363       3.67582507       2.57613108       4.29502601       4.33035050
H        6.04042555       7.49779900      10.10753022       2.31726747      -3.63719280       3.42960820
H        4.61749745       7.85047040       1.70398656      -0.93201179      -1.23987912      -1.66112792
H        0.11456195       5.49750415       8.08421060       0.69219842      -1.10191370       1.20497654
H        1.77584402       4.73169192       2.35113566      -0.11919762       0.42922065       0.49270094
H        6.29597382       8.46788894       8.71667109      -0.59478389      -0.49985331       1.33402053
H        2.61336221       0.36776512       2.40914423       1.50896643       0.85172660       0.81676226
H        7.18673879       4.09127704       8.79491875      -0.17098588      -0.69239374       0.34741690
H        8.90119016       3.30343121       1.72837519      -0.33220314       0.26004590       0.03415485
H        4.40994821       1.14677692       8.07648746       0.20443648      -0.03775000      -0.20770163
H        2.87561612       1.44377717       3.65861919       0.28076717       0.93553455       1.38926899
H        7.40965806       2.92520254      10.08784674      -0.37641007      -0.76096413       1.08091637
H        7.39965673       3.68078797       2.48766202      -3.99415181      -0.77444994       0.44809920
H        2.91430101       0.69782429       8.95865812       0.69799893       0.11633496      -0.68122097
Pb       4.54782194       4.33015960      12.64128065      -0.16565196      -0.03197227      -0.20114355
Pb       0.07498784       8.76722241       6.11133547      -0.19245442       0.34650519       0.26961470
Pb       8.93262761       8.71547149      12.61673820       0.14505085      -0.07547478      -0.27434815
Pb       4.44246131       4.53336168       6.12803449       0.10133369      -0.41965571       0.17169163
I        7.14509184       6.23641296       6.39396791       0.01124390      -0.01476280       0.08071329
I        8.67905467       8.74188810       2.94566941      -0.14995490      -0.03996736      -0.04611730
I        6.38042074       1.73049120      12.27460950      -0.12269575      -0.04294584       0.12441628
I        1.81116927       2.55101034       0.03315083      -0.10597553      -0.06841245       0.02062721
I        1.81489744       2.62882139       5.89946798       0.05691793       0.07858102       0.00299282
I        2.66431563       7.01581449       5.99320913       0.02249172       0.08704783      -0.07897444
I        7.11140063       6.01820169      12.19525088       0.20238862       0.26173322       0.12620664
I        6.43332416       1.85336810       6.42588711      -0.00929146       0.00597979      -0.07964680
I        4.18605231       4.36377099       9.37153399      -0.17433745       0.08681988      -0.07032195
I        0.36144673       0.10455164       9.31133523      -0.01522494      -0.08244879       0.12460862
I        2.62660402       6.93313310       0.13393295       0.03375084       0.00196395      -0.11441634
I        4.73658415       4.29327603       2.96942489       0.16193290       0.05947474       0.04882291
48
Lattice="9.01938999 0.0 0.0 0.0 8.77776784 0.0 0.0 0.0 12.79618681" Properties=species:S:1:pos:R:3:forces:R:3 config_id=O-FAPI3_cage_rattle_01 phase=O-FAPI3 mode=cage_rattle seed=503860372 source=O-FAPI3/CONTCAR energy=-227.20474353 stress="-0.0006021228168454373 7.014038186619382e-05 5.232710233790474e-05 7.014038186619382e-05 -0.0010160599080438163 -5.959492777539349e-06 5.232710233790474e-05 -5.959492777539349e-06 8.001257685060337e-05" pbc="T T T"
C        4.58144027       0.35721995       3.16826701       0.05306472      -0.02837642      -0.00365942
C        0.07174528       4.03166406       9.56636042      -0.05130427      -0.02719689       0.01974563
C        8.94764462       4.74610387       3.16826714      -0.03741045      -0.00865641       0.00665674
C        4.43794981       8.42054789       9.56636054       0.00391910       0.01079201       0.00804413
N        5.14641595       8.21104206       2.42775923      -0.03839244       0.04665623       0.01512629
N        0.63672086       4.95560970       8.82585276      -0.00695144       0.04721667      -0.04613140
N        1.18184368       5.12533408       3.07055866       0.01244171       0.02625087       0.01106814
N        5.69153868       8.04131768       9.46865219       0.01974628      -0.02303401       0.03339235
N        3.32785131       0.73645025       3.07055866      -0.05615807       0.02066807       0.05067205
N        7.83754631       3.65243376       9.46865219       0.05074496       0.06083284      -0.01327920
N        8.38266904       3.82215805       2.42775936      -0.04223070       0.02156335       0.03404661
N        3.87297414       0.56672578       8.82585276       0.00248523      -0.00302052      -0.00319562
H        5.19802156       0.84618876       3.92887722       0.00390941      -0.00142311       0.00768534
H        0.68832647       3.54269525      10.32697075      -0.00064026      -0.00260489       0.00248284
H        8.33106343       5.23507259       3.92887735      -0.00376117       0.00297346       0.00877465
H        3.82136852       7.93157926      10.32697088       0.00697733       0.00515115      -0.01093495
H        6.14780021       8.03459813       2.53546294       0.00658314      -0.00273210      -0.00284299
H        1.63810522       5.13205363       8.93355635       0.00076850       0.00427568      -0.00532622
H        1.55804587       5.80949955       3.73115809      -0.01024582      -0.02924045      -0.02400054
H        6.06774095       7.35715221      10.12925149      -0.01442343       0.02965664      -0.02073113
H        4.63340450       7.72431711       1.68653051       0.00916274      -0.00027038       0.00131411
H        0.12370950       5.44233474       8.08462392       0.01911369      -0.01711265       0.01347193
H        1.82884430       4.71238908       2.40039510       0.00654500      -0.00089596       0.00434898
H        6.33853939       8.45426268       8.79848837      -0.00206360       0.00872147      -0.00313567
H        2.68085060       0.32350507       2.40039510       0.00084435       0.01907678       0.00580986
H        7.19054560       4.06537885       8.79848850      -0.00868850      -0.00180604      -0.01295618
H        8.89568040       3.33543310       1.68653064       0.00216078      -0.01825660      -0.03173986
H        4.38598549       1.05345073       8.08462392       0.01280957      -0.00087878       0.00504472
H        2.95164913       1.42061563       3.73115809       0.00309797      -0.01355786      -0.02397471
H        7.46134412       2.96826829      10.12925149      -0.01738614      -0.01916505       0.03577278
H        7.38128477       3.64571412       2.53546307       0.03315822       0.00484371      -0.01015798
H        2.87158987       0.74316971       8.93355635      -0.00658284      -0.00142109       0.00494932
Pb       4.49933848       4.36106454      12.53159135       0.08586288      -0.27395179      -0.03184214
Pb       0.00854425       0.10731813       6.20404768      -0.05297260      -0.00881849      -0.00402113
Pb       8.99916302       8.64811292      12.62481298      -0.06420680       0.17492364      -0.10789043
Pb       4.42862899       4.50867552       6.07217913       0.20634863      -0.14854188       0.16548362
I        7.12282089       6.22981445       6.37692557       0.17591240       0.10620001       0.06818708
I        8.64565551       8.72506296       2.96432164       0.04574769       0.00644268       0.07304525
I        6.39271489       1.76739214      12.30042517       0.06062465      -0.06649445       0.03145829
I        1.80859234       2.50995400       0.03918563       0.13867462       0.10761996       0.00917125
I        1.83773056       2.73690696       5.93097129      -0.12855065      -0.20841880      -0.03146234
I        2.72132710       7.01114156       5.95014318      -0.24133769       0.31161657      -0.04300750
I        7.16734944       6.15981605      12.37182879      -0.11224929      -0.16087755      -0.04980215
I        6.37101226       1.85333316       6.47239984       0.06912903      -0.07239732      -0.03767788
I        4.18132318       4.45896342       9.41064861      -0.03353069       0.00006851      -0.08600330
I        0.35891986       0.05567176       9.35494386      -0.00955553      -0.02375287       0.02583386
I        2.69036317       6.88158802       0.05755763      -0.13796221       0.19867521       0.00554941
I        4.83724722       4.39583108       2.97856559       0.04677198      -0.05132313      -0.04336248
48
Lattice="9.01938999 0.0 0.0 0.0 8.77776784 0.0 0.0 0.0 12.79618681" Properties=species:S:1:pos:R:3:forces:R:3 config_id=O-FAPI3_cage_rattle_02 phase=O-FAPI3 mode=cage_rattle seed=4064901548 source=O-FAPI3/CONTCAR energy=-227.26774828 stress="-0.0003492867282762937 -0.0002270145845833079 0.00016082922859736692 -0.0002270145845833079 8.831211126358236e-05 -5.46831097536884e-07 0.00016082922859736692 -5.46831097536884e-07 0.0003138710198810061" pbc="T T T"
C        4.58144027       0.35721995       3.16826701      -0.00939876       0.00354765      -0.00060973
C        0.07174528       4.03166406       9.56636042      -0.00040498       0.00261519      -0.00301736
C        8.94764462       4.74610387       3.16826714       0.00976381      -0.00273181      -0.00309401
C        4.43794981       8.42054789       9.56636054       0.00586145      -0.00323712      -0.00992703
N        5.14641595       8.21104206       2.42775923      -0.01400262      -0.01667630      -0.00283904
N        0.63672086       4.95560970       8.82585276      -0.01463517       0.00342875      -0.00519227
N        1.18184368       5.12533408       3.07055866      -0.01421628      -0.01211653      -0.02189536
N        5.69153868       8.04131768       9.46865219       0.00088576      -0.00181911      -0.00590824
N        3.32785131       0.73645025       3.07055866       0.00629441       0.01025239      -0.00825389
N        7.83754631       3.65243376       9.46865219       0.00153832      -0.00415901       0.00650729
N        8.38266904       3.82215805       2.42775936      -0.01929056       0.00285362      -0.00213987
N        3.87297414       0.56672578       8.82585276      -0.00449202      -0.00637979      -0.00169365
H        5.19802156       0.84618876       3.92887722      -0.00311905      -0.00238514       0.00225125
H        0.68832647       3.54269525      10.32697075      -0.00331626       0.00333676      -0.00450305
H        8.33106343       5.23507259       3.92887735       0.00353310       0.00016020       0.00403543
H        3.82136852       7.93157926      10.32697088       0.00338389       0.00275082      -0.00372370
H        6.14780021       8.03459813       2.53546294      -0.00959795       0.00355710      -0.01288684
H        1.63810522       5.13205363       8.93355635       0.01163111      -0.00351152      -0.00786781
H        1.55804587       5.80949955       3.73115809       0.01742871       0.01446177       0.02617568
H        6.06774095       7.35715221      10.12925149      -0.00474523       0.00288362       0.00153412
H        4.63340450       7.72431711       1.68653051       0.01280643       0.00733297      -0.00339191
H        0.12370950       5.44233474       8.08462392       0.00930864      -0.00396796       0.00740269
H        1.82884430       4.71238908       2.40039510      -0.01034825      -0.00392723       0.00205959
H        6.33853939       8.45426268       8.79848837       0.00128606       0.00229357       0.00457834
H        2.68085060       0.32350507       2.40039510       0.00105439      -0.00043946       0.00511226
H        7.19054560       4.06537885       8.79848850      -0.00857048      -0.00031981       0.00921387
H        8.89568040       3.33543310       1.68653064      -0.00403689       0.00448750      -0.00212597
H        4.38598549       1.05345073       8.08462392      -0.00795884      -0.00217110       0.00291572
H        2.95164913       1.42061563       3.73115809       0.00020909      -0.00718042       0.00321101
H        7.46134412       2.96826829      10.12925149      -0.00445659       0.00189902      -0.00546686
H        7.38128477       3.64571412       2.53546307       0.01080197      -0.00126403      -0.00260977
H        2.87158987       0.74316971       8.93355635      -0.00294858      -0.00125684      -0.00199285
Pb       4.50970456       4.28151777      12.57046310       0.07502759      -0.01907815      -0.09660198
Pb       0.02499760       0.11755906       6.14426325       0.05313523       0.00666105       0.05852430
Pb       9.00133786       8.67713854      12.58065373      -0.06961329      -0.02777179      -0.10471268
Pb       4.52733927       4.50438319       6.12969889      -0.08653384       0.00143113       0.10821169
I        7.17443246       6.26244949       6.43601247       0.00566285      -0.04413940      -0.00410652
I        8.66902547       8.74965862       2.94185589      -0.01122070      -0.00804588       0.08501631
I        6.34424532       1.68339250      12.29270408      -0.01561673       0.07317769       0.01141708
I        1.83999759       2.54749028       0.03744241      -0.04888441      -0.02887745       0.01020900
I        1.85396691       2.66811454       5.93315701       0.03178404       0.02976083      -0.02719290
I        2.66239612       7.07389698       5.85895563       0.00283940      -0.03706493       0.02665280
I        7.12709825       6.09200261      12.30880718       0.05951814       0.05488299       0.01351932
I        6.34216933       1.82115106       6.43459146       0.00058032       0.04142175      -0.00832860
I        4.16362109       4.43718569       9.33659132      -0.00011396      -0.00202516       0.11978854
I        0.35170209       0.05130447       9.37466304      -0.00265261      -0.00451488      -0.05189048
I        2.66601704       6.94087122       0.00213735       0.02714019      -0.02940428       0.05005244
I        4.85688297       4.31927403       3.00123685       0.01869919       0.00126872      -0.15641635
48
Lattice="9.01938999 0.0 0.0 0.0 8.77776784 0.0 0.0 0.0 12.79618681" Properties=species:S:1:pos:R:3:forces:R:3 config_id=O-FAPI3_cage_rattle_03 phase=O-FAPI3 mode=cage_rattle seed=3935526796 source=O-FAPI3/CONTCAR energy=-227.23442878 stress="-0.000873748949913525 -0.00026053463430990043 -0.00018603363457592653 -0.00026053463430990043 -0.0009451736658370793 -8.349901519172137e-05 -0.00018603363457592653 -8.349901519172137e-05 0.00044200676804683034" pbc="T T T"
C        4.58144027       0.35721995       3.16826701       0.02755323      -0.01509881       0.00576826
C        0.07174528       4.03166406       9.56636042       0.02288279       0.02970419      -0.02054842
C        8.94764462       4.74610387       3.16826714      -0.02365640      -0.01174774       0.00502005
C        4.43794981       8.42054789       9.56636054      -0.00499216      -0.00295854       0.00480628
N        5.14641595       8.21104206       2.42775923       0.03306933       0.03339059       0.03257434
N        0.63672086       4.95560970       8.82585276      -0.07627222      -0.02302519       0.00215075
N        1.18184368       5.12533408       3.07055866       0.03282466      -0.01538124       0.01828966
N        5.69153868       8.04131768       9.46865219      -0.00773978       0.01092950       0.00950577
N        3.32785131       0.73645025       3.07055866      -0.02652664       0.01099820       0.02090320
N        7.83754631       3.65243376       9.46865219      -0.04713201       0.00521654       0.01349586
N        8.38266904       3.82215805       2.42775936       0.02240279       0.01009929      -0.00192747
N        3.87297414       0.56672578       8.82585276       0.00740580       0.00107666      -0.00142402
H        5.19802156       0.84618876       3.92887722      -0.00040272       0.00272485       0.00749505
H        0.68832647       3.54269525      10.32697075      -0.00230694      -0.00703437      -0.00015885
H        8.33106343       5.23507259       3.92887735      -0.00337344       0.00238650       0.01296662
H        3.82136852       7.93157926      10.32697088      -0.00019642       0.00569997      -0.00443612
H        6.14780021       8.03459813       2.53546294      -0.00670894       0.00396972       0.00948804
H        1.63810522       5.13205363       8.93355635       0.02663707       0.00390316       0.00184749
H        1.55804587       5.80949955       3.73115809      -0.00284073      -0.00708278      -0.00115002
H        6.06774095       7.35715221      10.12925149       0.00394291       0.01721239      -0.01559647
H        4.63340450       7.72431711       1.68653051      -0.01906457      -0.00507627      -0.01743217
H        0.12370950       5.44233474       8.08462392      -0.01090346       0.00188598      -0.00024597
H        1.82884430       4.71238908       2.40039510      -0.00082270       0.00555727      -0.00111099
H        6.33853939       8.45426268       8.79848837       0.01325893      -0.00569937       0.00031148
H        2.68085060       0.32350507       2.40039510       0.00150871       0.00136091      -0.01073397
H        7.19054560       4.06537885       8.79848850       0.00612947       0.00638748      -0.01543824
H        8.89568040       3.33543310       1.68653064      -0.00023614      -0.01364714      -0.01868458
H        4.38598549       1.05345073       8.08462392      -0.00651192      -0.00200287       0.00196635
H        2.95164913       1.42061563       3.73115809       0.00881461      -0.02045381      -0.00192336
H        7.46134412       2.96826829      10.12925149       0.01422770      -0.00125462       0.00388247
H        7.38128477       3.64571412       2.53546307       0.00619814       0.00054516      -0.00394680
H        2.87158987       0.74316971       8.93355635      -0.00833887      -0.00393268      -0.00210926
Pb       4.50152045       4.27698599      12.58757813      -0.05119044      -0.02525590      -0.06580338
Pb       0.02125744       0.10687169       6.14243161      -0.09983246      -0.12784162       0.12484485
Pb       8.95537027       8.62205533      12.59272501       0.15639412       0.14467115      -0.11649897
Pb       4.44717836       4.46991597       6.15355239       0.12137273       0.04923325       0.05558597
I        7.17494323       6.20340627       6.44010175      -0.02580960       0.03542830      -0.01719831
I        8.66449124       8.71594857       2.96072451      -0.00142157       0.00360866       0.07636939
I        6.42671195       1.75428518      12.32551030      -0.08112871       0.03534541      -0.00214761
I        1.81724699       2.48202086       0.01806719       0.17647639       0.19107959       0.03272901
I        1.87444480       2.60338605       5.95767591       0.00704666       0.08232884      -0.05679084
I        2.63992413       7.02464185       5.96181816      -0.05748456       0.07272824      -0.06288737
I        7.19051484       6.15588300      12.30491484      -0.23455086      -0.30763687      -0.01121458
I        6.36124841       1.88464039       6.44043343       0.03366176      -0.08703326      -0.00342981
I        4.10343741       4.45343203       9.32192228       0.10095337      -0.01785720       0.18493385
I        0.34634854       0.01674631       9.37447801       0.00181520       0.01610455      -0.03770716
I        2.70332638       6.95097321       0.07245278      -0.00811292      -0.06459998      -0.03631364
I        4.87455151       4.36614064       2.97273744      -0.01701919      -0.01895609      -0.09807641
48
Lattice="9.01938999 0.0 0.0 0.0 8.77776784 0.0 0.0 0.0 12.79618681" Properties=species:S:1:pos:R:3:forces:R:3 config_id=O-FAPI3_cage_rattle_04 phase=O-FAPI3 mode=cage_rattle seed=3113752695 source=O-FAPI3/CONTCAR energy=-227.25230289 stress="-0.0009043762910961085 0.00010894922428267655 -0.00014998704692121295 0.00010894922428267655 1.8550763763585187e-06 -2.860826915394221e-05 -0.00014998704692121295 -2.860826915394221e-05 0.0004037786044318742" pbc="T T T"
C        4.58144027       0.35721995       3.16826701      -0.04156074       0.03555424      -0.00363938
C        0.07174528       4.03166406       9.56636042       0.04697129       0.02878587      -0.01003447
C        8.94764462       4.74610387       3.16826714       0.03912858       0.01145361      -0.00091129
C        4.43794981       8.42054789       9.56636054      -0.02284136       0.03212073      -0.01443272
N        5.14641595       8.21104206       2.42775923       0.03970701      -0.00796455      -0.04656183
N        0.63672086       4.95560970       8.82585276      -0.00270527      -0.03669014       0.04385579
N        1.18184368       5.12533408       3.07055866      -0.02822850      -0.03037945       0.00088979
N        5.69153868       8.04131768       9.46865219       0.03799984       0.01321159      -0.00936645
N        3.32785131       0.73645025       3.07055866       0.04276251      -0.00159525      -0.01065244
N        7.83754631       3.65243376       9.46865219      -0.04910036      -0.02333188       0.00997600
N        8.38266904       3.82215805       2.42775936       0.00842756      -0.02077697      -0.02906139
N        3.87297414       0.56672578       8.82585276       0.10849971      -0.00193988      -0.00151775
H        5.19802156       0.84618876       3.92887722      -0.00116178      -0.00240694       0.00246282
H        0.68832647       3.54269525      10.32697075      -0.00285787      -0.00048626       0.00163674
H        8.33106343       5.23507259       3.92887735       0.00078811      -0.00517941      -0.00339901
H        3.82136852       7.93157926      10.32697088      -0.00857068       0.00263079       0.00210101
H        6.14780021       8.03459813       2.53546294      -0.02530394      -0.00231720       0.00839899
H        1.63810522       5.13205363       8.93355635       0.00455105      -0.00090764       0.00242738
H        1.55804587       5.80949955       3.73115809       0.00781194       0.01524713       0.01325591
H        6.06774095       7.35715221      10.12925149       0.00994646      -0.00014459       0.00388999
H        4.63340450       7.72431711       1.68653051       0.00250103       0.00020904       0.01846988
H        0.12370950       5.44233474       8.08462392      -0.01571887      -0.00183270      -0.01486417
H        1.82884430       4.71238908       2.40039510      -0.00381288      -0.00432109      -0.00482808
H        6.33853939       8.45426268       8.79848837      -0.00700516      -0.00098299      -0.00387013
H        2.68085060       0.32350507       2.40039510       0.00386975      -0.00850336      -0.00294917
H        7.19054560       4.06537885       8.79848850       0.00799377       0.00739092      -0.01032791
H        8.89568040       3.33543310       1.68653064       0.00852128       0.01629805       0.01743308
H        4.38598549       1.05345073       8.08462392       0.00441517      -0.00920198      -0.01081789
H        2.95164913       1.42061563       3.73115809      -0.00277987       0.00393315       0.01563240
H        7.46134412       2.96826829      10.12925149       0.00896192       0.00587065      -0.00478784
H        7.38128477       3.64571412       2.53546307      -0.01403131       0.01214075       0.00545998
H        2.87158987       0.74316971       8.93355635      -0.04292066      -0.00250443       0.00235622
Pb       4.51875488       4.31061625      12.53034884      -0.04117706       0.04763947       0.09208245
Pb       0.00162926       0.10185011       6.17166411       0.04330246       0.03368569       0.04570534
Pb       8.94163942       8.70655741      12.58373658       0.14361836      -0.00713197      -0.03280243
Pb       4.48259371       4.51554079       6.16463606      -0.02400985      -0.00956713      -0.10628806
I        7.20721343       6.18924290       6.45951625       0.00751317       0.07009621      -0.01295501
I        8.68293184       8.73845266       3.02649102      -0.05595793      -0.00808237      -0.18899448
I        6.36925077       1.72972033      12.30191503      -0.08757432       0.07641740      -0.01059095
I        1.87439078       2.54939795       0.09251182      -0.00968040      -0.00616043      -0.05173860
I        1.88356232       2.67697666       5.89521555      -0.04711098      -0.04312038       0.00644195
I        2.64140647       7.07961499       5.85268435       0.05028623      -0.04346049       0.04239499
I        7.17041152       6.14837660      12.28905806      -0.04449804      -0.07213296       0.00027135
I        6.33303819       1.82638322       6.38578104      -0.02242927       0.03437957       0.06461551
I        4.13835047       4.47185033       9.32516919       0.03136763      -0.01963624       0.11403917
I        0.42458336       0.05066703       9.35035131      -0.11211416      -0.00703452       0.15926724
I        2.59911761       6.93610226       0.08959903       0.09602502      -0.04818502      -0.05063155
I        4.90292480       4.39892964       2.94997021      -0.04181861      -0.02108667      -0.03704100
48
Lattice="9.01938999 0.0 0.0 0.0 8.77776784 0.0 0.0 0.0 12.79618681" Properties=species:S:1:pos:R:3:forces:R:3 config_id=O-FAPI3_cage_rattle_05 phase=O-FAPI3 mode=cage_rattle seed=3467449491 source=O-FAPI3/CONTCAR energy=-227.22985846 stress="-0.0007262374727569111 8.637666921571896e-05 2.776095308255793e-05 8.637666921571896e-05 -0.0005694283502554528 0.00012389792574858674 2.776095308255793e-05 0.00012389792574858674 0.00019880190227776416" pbc="T T T"
C        4.58144027       0.35721995       3.16826701      -0.04227182       0.01222241       0.00920098
C        0.07174528       4.03166406       9.56636042       0.03499646       0.00296436       0.02066579
C        8.94764462       4.74610387       3.16826714       0.02582566       0.01028295       0.01043430
C        4.43794981       8.42054789       9.56636054      -0.02013986       0.01662548      -0.00411571
N        5.14641595       8.21104206       2.42775923      -0.05409514      -0.03928742      -0.03938340
N        0.63672086       4.95560970       8.82585276       0.04016440      -0.01737890       0.05161564
N        1.18184368       5.12533408       3.07055866       0.00365460      -0.01920887       0.02513546
N        5.69153868       8.04131768       9.46865219       0.01681622       0.02798624      -0.00541505
N        3.32785131       0.73645025       3.07055866       0.03546677      -0.01325058      -0.00386369
N        7.83754631       3.65243376       9.46865219      -0.01975383      -0.03048769       0.06108012
N        8.38266904       3.82215805       2.42775936       0.01929558      -0.00827402      -0.05594972
N        3.87297414       0.56672578       8.82585276      -0.01676719      -0.03453185       0.02481993
H        5.19802156       0.84618876       3.92887722       0.00649801      -0.00715001       0.00266692
H        0.68832647       3.54269525      10.32697075       0.00687674       0.00285715       0.00332175
H        8.33106343       5.23507259       3.92887735       0.00717002       0.00134832      -0.00131928
H        3.82136852       7.93157926      10.32697088       0.00283391      -0.00255983       0.00176858
H        6.14780021       8.03459813       2.53546294       0.02875379       0.00823378       0.00126670
H        1.63810522       5.13205363       8.93355635       0.02382967      -0.01606088      -0.00992814
H        1.55804587       5.80949955       3.73115809      -0.00000371       0.00172636       0.00782646
H        6.06774095       7.35715221      10.12925149      -0.01313164      -0.01042815      -0.00277199
H        4.63340450       7.72431711       1.68653051       0.00610260       0.02886018       0.02198210
H        0.12370950       5.44233474       8.08462392      -0.00762047      -0.00476922      -0.01751087
H        1.82884430       4.71238908       2.40039510      -0.01796613      -0.00403408      -0.01172444
H        6.33853939       8.45426268       8.79848837      -0.01569483       0.00987024      -0.01103327
H        2.68085060       0.32350507       2.40039510      -0.00729320      -0.00205296      -0.01361126
H        7.19054560       4.06537885       8.79848850      -0.02882452      -0.00448823       0.00750190
H        8.89568040       3.33543310       1.68653064       0.00881410      -0.00886375       0.00790437
H        4.38598549       1.05345073       8.08462392      -0.00235808       0.00445436      -0.00232606
H        2.95164913       1.42061563       3.73115809      -0.01681650      -0.00189449       0.02934237
H        7.46134412       2.96826829      10.12925149       0.01132430       0.03596262      -0.04832657
H        7.38128477       3.64571412       2.53546307       0.02231268      -0.00790832       0.00560377
H        2.87158987       0.74316971       8.93355635       0.01490198       0.01271270      -0.00211419
Pb       4.60009463       4.29390268      12.63143962      -0.21287367      -0.02035177      -0.19417365
Pb       0.02207027       0.09700267       6.21205707       0.03681295       0.05209241      -0.15609453
Pb       8.98334319       8.66702875      12.54953519       0.07591881       0.10911782       0.11615250
Pb       4.53738308       4.52095053       6.12830705      -0.07923720      -0.08134980       0.22024735
I        7.22324531       6.24465993       6.47256824      -0.06833386      -0.07626786      -0.03609110
I        8.64975158       8.72440217       2.96774744       0.02015594      -0.00619379      -0.01791784
I        6.30430584       1.70936688      12.37022491       0.07106683      -0.01110167      -0.05353878
I        1.90180612       2.51366032       0.05754176      -0.08092464       0.01066975      -0.00631138
I        1.88575927       2.62242705       5.92416347       0.07050155       0.09057271      -0.02512055
I        2.68381230       7.02503852       5.91579015      -0.05036038       0.05440873      -0.01640784
I        7.12229164       6.14006116      12.26656224       0.08547393      -0.01160837       0.02205025
I        6.35503801       1.80146595       6.47017842       0.02698273       0.03139699      -0.04963657
I        4.19142589       4.43233405       9.30583415      -0.02217753       0.00343101       0.17634052
I        0.34827969       0.11280151       9.35318618       0.00134553      -0.02796570       0.09983469
I        2.59644318       6.92609359       0.03743793       0.08201287      -0.04856830       0.00696636
I        4.90097273       4.38100271       2.99484720      -0.00926446      -0.01176002      -0.14904293
48
Lattice="9.01938999 0.0 0.0 0.0 8.77776784 0.0 0.0 0.0 12.79618681" Properties=species:S:1:pos:R:3:forces:R:3 config_id=O-FAPI3_cage_rattle_06 phase=O-FAPI3 mode=cage_rattle seed=2175475145 source=O-FAPI3/CONTCAR energy=-227.26116542 stress="-0.0005706166025213292 -0.00012960920619120797 4.429904236435604e-05 -0.00012960920619120797 -0.0002598378197480686 6.727395631711368e-05 4.429904236435604e-05 6.727395631711368e-05 0.0002753804008073066" pbc="T T T"
C        4.58144027       0.35721995       3.16826701       0.00761493       0.01031241       0.01381769
C        0.07174528       4.03166406       9.56636042      -0.01369519      -0.00149810       0.01049409
C        8.94764462       4.74610387       3.16826714       0.01904526       0.01633643       0.00111296
C        4.43794981       8.42054789       9.56636054       0.01165617      -0.00245098      -0.00581395
N        5.14641595       8.21104206       2.42775923       0.04363664       0.01317910       0.00974621
N        0.63672086       4.95560970       8.82585276       0.03100736      -0.00426468       0.00244572
N        1.18184368       5.12533408       3.07055866      -0.04308335      -0.01826182      -0.03145054
N        5.69153868       8.04131768       9.46865219       0.01494310      -0.01164736       0.01516395
N        3.32785131       0.73645025       3.07055866       0.01190516       0.01165106       0.02043370
N        7.83754631       3.65243376       9.46865219       0.02287441       0.03035357       0.00397470
N        8.38266904       3.82215805       2.42775936      -0.03524266      -0.01043841       0.00814660
N        3.87297414       0.56672578       8.82585276       0.02101811      -0.00108284      -0.01463188
H        5.19802156       0.84618876       3.92887722      -0.00127388      -0.00388983       0.00106738
H        0.68832647       3.54269525      10.32697075      -0.00746515       0.00205014      -0.00372031
H        8.33106343       5.23507259       3.92887735       0.00237713       0.00078866       0.00213850
H        3.82136852       7.93157926      10.32697088      -0.00263398       0.00377404       0.00273908
H        6.14780021       8.03459813       2.53546294      -0.01741261      -0.00614740      -0.01440358
H        1.63810522       5.13205363       8.93355635      -0.02050316      -0.00180709      -0.00616889
H        1.55804587       5.80949955       3.73115809       0.00891290       0.00523691       0.00853144
H        6.06774095       7.35715221      10.12925149      -0.00097536       0.00943184       0.01355725
H        4.63340450       7.72431711       1.68653051       0.01824404       0.00262719       0.00200492
H        0.12370950       5.44233474       8.08462392      -0.00703051       0.00996717      -0.01305595
H        1.82884430       4.71238908       2.40039510       0.00181799      -0.00002101       0.00767828
H        6.33853939       8.45426268       8.79848837      -0.00272269       0.00210692      -0.01029507
H        2.68085060       0.32350507       2.40039510      -0.00780329      -0.01172016       0.00018288
H        7.19054560       4.06537885       8.79848850       0.00636098      -0.00252106      -0.00141832
H        8.89568040       3.33543310       1.68653064      -0.01658161       0.01435753       0.01159909
H        4.38598549       1.05345073       8.08462392       0.01765606      -0.00588634       0.00150081
H        2.95164913       1.42061563       3.73115809       0.00493717      -0.00248494      -0.01375423
H        7.46134412       2.96826829      10.12925149      -0.01207411      -0.00482657       0.01423028
H        7.38128477       3.64571412       2.53546307       0.00251959       0.00606169      -0.01228317
H        2.87158987       0.74316971       8.93355635      -0.01650917      -0.00932348       0.01041557
Pb       4.47333251       4.25021687      12.52648299       0.14518410       0.09014357       0.07610453
Pb       0.05653886       0.08617670       6.15057459      -0.03713668       0.01259005       0.00138902
Pb       9.01220938       8.68663328      12.54212594      -0.08066794      -0.06535701       0.00638223
Pb       4.47674626       4.45357765       6.16574127       0.07716924       0.02985370      -0.08384472
I        7.18512467       6.28055091       6.44596906      -0.03301018      -0.05880184      -0.00602086
I        8.71117236       8.72887401       2.97205374      -0.06311098       0.01356265       0.00157228
I        6.37123215       1.72971638      12.28658200      -0.06257191       0.06799190       0.01329446
I        1.83566016       2.55751739       0.05492840      -0.01131337       0.01497992      -0.01473751
I        1.85142137       2.71624462       5.89227358      -0.01729428      -0.06404440       0.01057918
I        2.64865679       7.02741054       5.87344795       0.02180052       0.04680100       0.03723312
I        7.14096953       6.15802653      12.36302770      -0.04873184      -0.05323893      -0.03846679
I        6.36603040       1.83988325       6.47998631       0.00598121       0.01278165      -0.04551896
I        4.16651478       4.41420348       9.36193084      -0.03040080       0.02739339      -0.01154920
I        0.39488639       0.03654624       9.36814467      -0.03879974       0.00664332      -0.00596282
I        2.63875621       6.98378266       0.04614676       0.10055654      -0.11358269      -0.01005903
I        4.83675666       4.34213792       2.94974870       0.03082580      -0.00767888       0.03561984
48
Lattice="9.01938999 0.0 0.0 0.0 8.77776784 0.0 0.0 0.0 12.79618681" Properties=species:S:1:pos:R:3:forces:R:3 config_id=O-FAPI3_cage_rattle_07 phase=O-FAPI3 mode=cage_rattle seed=3496495698 source=O-FAPI3/CONTCAR energy=-227.20563754 stress="-0.0009068331051257843 -0.0005030811332133502 0.00010899873193306306 -0.0005030811332133502 -0.0008477496815062751 -8.90345534618851e-05 0.00010899873193306306 -8.90345534618851e-05 0.00043491161395930913" pbc="T T T"
C        4.58144027       0.35721995       3.16826701       0.00434176      -0.01273123      -0.01884991
C        0.07174528       4.03166406       9.56636042       0.02466487       0.01923808      -0.00975965
C        8.94764462       4.74610387       3.16826714      -0.01944973      -0.01599174      -0.00696381
C        4.43794981       8.42054789       9.56636054      -0.01511209       0.01318520      -0.00108220
N        5.14641595       8.21104206       2.42775923      -0.06229576       0.00747432      -0.00269187
N        0.63672086       4.95560970       8.82585276      -0.06362177      -0.02062711      -0.01548051
N        1.18184368       5.12533408       3.07055866       0.03583003      -0.01198698      -0.01523258
N        5.69153868       8.04131768       9.46865219       0.01867757      -0.00084781       0.03079111
N        3.32785131       0.73645025       3.07055866      -0.00720123      -0.00832675      -0.01672532
N        7.83754631       3.65243376       9.46865219      -0.03133432       0.00690808      -0.00110497
N        8.38266904       3.82215805       2.42775936       0.05939244       0.00955556      -0.02836087
N        3.87297414       0.56672578       8.82585276       0.00908635      -0.00543130      -0.00886909
H        5.19802156       0.84618876       3.92887722       0.00464795      -0.00374981      -0.00287156
H        0.68832647       3.54269525      10.32697075       0.00628115      -0.00694779       0.01648764
H        8.33106343       5.23507259       3.92887735      -0.00124172       0.00605391       0.00380639
H        3.82136852       7.93157926      10.32697088       0.00134697       0.00651821      -0.00696242
H        6.14780021       8.03459813       2.53546294       0.04389512       0.00995914       0.02051715
H        1.63810522       5.13205363       8.93355635       0.02601904       0.00201384       0.00043668
H        1.55804587       5.80949955       3.73115809      -0.00494729       0.01972798       0.01205105
H        6.06774095       7.35715221      10.12925149      -0.00737053       0.03602614      -0.03753196
H        4.63340450       7.72431711       1.68653051      -0.00823838       0.01935674       0.01119452
H        0.12370950       5.44233474       8.08462392      -0.01552787       0.00868325      -0.01172345
H        1.82884430       4.71238908       2.40039510      -0.01287400      -0.01452439      -0.00831427
H        6.33853939       8.45426268       8.79848837      -0.00443954      -0.01290878      -0.00569278
H        2.68085060       0.32350507       2.40039510      -0.00313575       0.01677183       0.00392379
H        7.19054560       4.06537885       8.79848850      -0.00186005       0.00290652      -0.01676482
H        8.89568040       3.33543310       1.68653064       0.01290305      -0.01425187      -0.00508498
H        4.38598549       1.05345073       8.08462392       0.00933407       0.00384373      -0.01082056
H        2.95164913       1.42061563       3.73115809      -0.00406198      -0.00761136      -0.00319755
H        7.46134412       2.96826829      10.12925149      -0.00882472      -0.01492551       0.02486709
H        7.38128477       3.64571412       2.53546307      -0.00512454      -0.00789433       0.01377447
H        2.87158987       0.74316971       8.93355635       0.01675379      -0.00635831       0.01290060
Pb       4.54499770       4.37949399      12.55761867      -0.07734836      -0.25208159      -0.00006375
Pb       0.02494808       0.13113178       6.17786668      -0.08891890      -0.09248695      -0.11155770
Pb       8.96745770       8.63191268      12.50604441       0.16429095       0.39990698       0.21491199
Pb       4.45331506       4.49181001       6.14340834       0.08905634       0.08727557       0.02265618
I        7.17041775       6.28108328       6.44045390      -0.02507519      -0.05615328       0.02046789
I        8.61094818       8.72272263       2.97632318       0.09538449       0.01808934       0.07269753
I        6.38836872       1.72473851      12.30573315      -0.00983732       0.05926513      -0.01151984
I        1.86464235       2.51828814       0.04165056       0.15498285       0.15171421       0.00054464
I        1.87189872       2.65860409       5.87647182      -0.00498724       0.06429393       0.01916936
I        2.62229672       7.08920453       5.86992580       0.04472151      -0.05744363       0.02177378
I        7.24388149       6.17799059      12.31970761      -0.28782225      -0.42361676      -0.04095102
I        6.33947713       1.86376396       6.42916101      -0.01108487       0.02269237       0.03379870
I        4.12449804       4.46755914       9.31256174       0.06489902      -0.01295273       0.22232854
I        0.38500863       8.77136700       9.41468696      -0.00323027       0.03139801      -0.17755908
I        2.70968163       6.92306508       0.04285865      -0.03584880       0.03399987       0.00352582
I        4.92135610       4.35971066       3.00792529      -0.06569483       0.00299205      -0.20688836
48
Lattice="9.01938999 0.0 0.0 0.0 8.77776784 0.0 0.0 0.0 12.79618681" Properties=species:S:1:pos:R:3:forces:R:3 config_id=O-FAPI3_cage_rattle_08 phase=O-FAPI3 mode=cage_rattle seed=3973188120 source=O-FAPI3/CONTCAR energy=-227.26116402 stress="-0.0007202633873310356 5.400120615715828e-05 -0.00026275890219256407 5.400120615715828e-05 -0.00015850171991225204 3.3987744729922355e-05 -0.00026275890219256407 3.3987744729922355e-05 0.0003690619076096308" pbc="T T T"
C        4.58144027       0.35721995       3.16826701       0.01072386      -0.01286595       0.00574080
C        0.07174528       4.03166406       9.56636042       0.01904150       0.02621792       0.00164590
C        8.94764462       4.74610387       3.16826714       0.03373595       0.03204364       0.01575125
C        4.43794981       8.42054789       9.56636054       0.00969333      -0.02792918       0.01606365
N        5.14641595       8.21104206       2.42775923       0.00540332       0.01426837       0.01808889
N        0.63672086       4.95560970       8.82585276      -0.02396700      -0.01037488       0.01548005
N        1.18184368       5.12533408       3.07055866      -0.03638048      -0.00965052       0.01239259
N        5.69153868       8.04131768       9.46865219      -0.02874490       0.00188115      -0.00247545
N        3.32785131       0.73645025       3.07055866      -0.01674405       0.01145874       0.01290321
N        7.83754631       3.65243376       9.46865219      -0.04425365       0.00598010       0.03673267
N        8.38266904       3.82215805       2.42775936      -0.02789668      -0.02092602      -0.02005050
N        3.87297414       0.56672578       8.82585276      -0.03394392       0.00838430      -0.01131395
H        5.19802156       0.84618876       3.92887722      -0.00084010      -0.00121059       0.00028528
H        0.68832647       3.54269525      10.32697075      -0.00006216       0.00286358      -0.00241951
H        8.33106343       5.23507259       3.92887735       0.00410377      -0.00172439       0.00091922
H        3.82136852       7.93157926      10.32697088      -0.00013415      -0.00229286       0.01084261
H        6.14780021       8.03459813       2.53546294       0.00422843       0.00477428       0.00109165
H        1.63810522       5.13205363       8.93355635       0.01081828      -0.00558715       0.00111053
H        1.55804587       5.80949955       3.73115809      -0.00470686       0.00057677      -0.00049381
H        6.06774095       7.35715221      10.12925149       0.00270673       0.00739028       0.00487226
H        4.63340450       7.72431711       1.68653051      -0.01511396      -0.01061218      -0.01945151
H        0.12370950       5.44233474       8.08462392      -0.00532460      -0.00357621      -0.00581409
H        1.82884430       4.71238908       2.40039510       0.00523472       0.00340948      -0.00985794
H        6.33853939       8.45426268       8.79848837       0.00683705      -0.00106123       0.00296368
H        2.68085060       0.32350507       2.40039510      -0.00010797      -0.01078210      -0.00121976
H        7.19054560       4.06537885       8.79848850       0.00145331       0.00218766      -0.00233310
H        8.89568040       3.33543310       1.68653064      -0.01455831       0.01360604       0.01463656
H        4.38598549       1.05345073       8.08462392      -0.01139458       0.00086698       0.00006530
H        2.95164913       1.42061563       3.73115809       0.00187676      -0.00780200      -0.00383333
H        7.46134412       2.96826829      10.12925149       0.01934110       0.00780090      -0.01992564
H        7.38128477       3.64571412       2.53546307       0.01683183      -0.00136240      -0.01023380
H        2.87158987       0.74316971       8.93355635       0.01443884       0.00319661      -0.00682429
Pb       4.53611062       4.23387135      12.58534212       0.00820859       0.14151573      -0.06113530
Pb       0.02262839       0.12010655       6.18535731       0.01509168      -0.01372708      -0.03750372
Pb       8.97613642       8.68620361      12.57212033       0.15963565      -0.09730225       0.03105769
Pb       4.49434634       4.49749800       6.17671630      -0.03096814       0.02379617       0.00359829
I        7.18811614       6.22267119       6.44913624      -0.00982607       0.03248278      -0.01673080
I        8.66197375       8.73260500       2.98461140       0.00586417       0.00689579       0.00895280
I        6.41097753       1.67209991      12.32237204      -0.15609938       0.15908816      -0.01910118
I        1.87229043       2.56534575       0.03303694      -0.05103943      -0.03604470       0.01033599
I        1.85457031       2.68687324       5.91450759       0.00282515      -0.02291454      -0.01016959
I        2.63255439       7.07034725       5.91661717       0.03974513      -0.03595538      -0.00246706
I        7.17435462       6.15218475      12.33501313      -0.05732599      -0.10257972      -0.02528145
I        6.36951576       1.87488750       6.44455303      -0.05119492      -0.00928089      -0.00570521
I        4.13569913       4.43968279       9.35133892       0.04393912      -0.00189886       0.01216641
I        0.30621055       0.07764225       9.37845353       0.07055607      -0.00800598      -0.00970984
I        2.67147161       6.92611158       0.05325594       0.05049192      -0.05126477      -0.02589954
I        4.82521896       4.33200846       2.93257469       0.05780104      -0.00395358       0.09225309
48
Lattice="9.01938999 0.0 0.0 0.0 8.77776784 0.0 0.0 0.0 12.79618681" Properties=species:S:1:pos:R:3:forces:R:3 config_id=O-FAPI3_cage_rattle_09 phase=O-FAPI3 mode=cage_rattle seed=3541597839 source=O-FAPI3/CONTCAR energy=-227.27422582 stress="-0.0005498436555391285 8.240691337392907e-05 -0.00012275251520135028 8.240691337392907e-05 7.311732581736596e-05 -6.504875220808116e-05 -0.00012275251520135028 -6.504875220808116e-05 0.00046166299669924636" pbc="T T T"
C        4.58144027       0.35721995       3.16826701       0.00115836      -0.00464014       0.00176980
C        0.07174528       4.03166406       9.56636042       0.01051488       0.00753138      -0.00573877
C        8.94764462       4.74610387       3.16826714      -0.00358187       0.00247479       0.00743744
C        4.43794981       8.42054789       9.56636054       0.00784108      -0.00592340       0.00126545
N        5.14641595       8.21104206       2.42775923      -0.00392993       0.00822441      -0.00405494
N        0.63672086       4.95560970       8.82585276       0.00151181      -0.00396951       0.00201912
N        1.18184368       5.12533408       3.07055866       0.00833972      -0.01138338       0.01550585
N        5.69153868       8.04131768       9.46865219      -0.00556566       0.00501751       0.00525635
N        3.32785131       0.73645025       3.07055866      -0.00992739       0.01734823      -0.00922164
N        7.83754631       3.65243376       9.46865219      -0.01611065      -0.00130008       0.00979468
N        8.38266904       3.82215805       2.42775936      -0.02025651       0.00397202       0.01226959
N        3.87297414       0.56672578       8.82585276       0.03052041       0.01189689      -0.01871056
H        5.19802156       0.84618876       3.92887722       0.00098892      -0.00380270       0.00049211
H        0.68832647       3.54269525      10.32697075      -0.00199890       0.00186160       0.00156375
H        8.33106343       5.23507259       3.92887735       0.00240015       0.00221576       0.00320731
H        3.82136852       7.93157926      10.32697088       0.00012621       0.00012755       0.00148696
H        6.14780021       8.03459813       2.53546294       0.00857269       0.00265859       0.00703762
H        1.63810522       5.13205363       8.93355635       0.00096810      -0.00480282       0.00287711
H        1.55804587       5.80949955       3.73115809      -0.00195961       0.00679193       0.00007703
H        6.06774095       7.35715221      10.12925149       0.00015649       0.00343899      -0.00369704
H        4.63340450       7.72431711       1.68653051      -0.00526130       0.00026378      -0.00275385
H        0.12370950       5.44233474       8.08462392      -0.00756503       0.00051465      -0.00829522
H        1.82884430       4.71238908       2.40039510      -0.00398209       0.00256820      -0.00203578
H        6.33853939       8.45426268       8.79848837      -0.00047812      -0.00362619      -0.00228527
H        2.68085060       0.32350507       2.40039510      -0.00155929      -0.00503292       0.00418259
H        7.19054560       4.06537885       8.79848850      -0.00195760       0.00566046      -0.00523306
H        8.89568040       3.33543310       1.68653064       0.00778447      -0.00153510      -0.01160266
H        4.38598549       1.05345073       8.08462392      -0.01440600      -0.00870891       0.00914060
H        2.95164913       1.42061563       3.73115809       0.00340684      -0.01066390      -0.00169564
H        7.46134412       2.96826829      10.12925149       0.00906786       0.00424389      -0.00487347
H        7.38128477       3.64571412       2.53546307       0.00792175       0.00311219       0.00639995
H        2.87158987       0.74316971       8.93355635      -0.00082454       0.00125157      -0.00867927
Pb       4.54898003       4.27275063      12.55752551      -0.04020108       0.00917806      -0.02034275
Pb       0.00644823       0.11451406       6.18367129       0.04131169      -0.06494167      -0.05057744
Pb       8.99662794       8.67286149      12.56310695       0.05234850      -0.00039099       0.03355190
Pb       4.47018601       4.48376316       6.14120637       0.02213340       0.08748109       0.04414635
I        7.17504632       6.22632748       6.44693901       0.03266270       0.04150325      -0.00220763
I        8.66221520       8.71137280       3.00081905       0.00407017       0.00969566      -0.09054169
I        6.39145056       1.69275391      12.30372671      -0.07476052       0.06880066       0.00067702
I        1.80564318       2.55854544       0.03545132       0.07476406       0.00626192      -0.00023798
I        1.88331032       2.68171788       5.92192836      -0.06524812      -0.05233323      -0.01449583
I        2.66588563       7.09184242       5.89521760       0.02821187      -0.07294724       0.00824283
I        7.16978973       6.11612137      12.30759180      -0.04611688      -0.05631207      -0.00370417
I        6.38563684       1.85833939       6.42394477      -0.08399284       0.02845518       0.02765442
I        4.15331400       4.43579863       9.37152798       0.01121049      -0.00316979       0.01526984
I        0.35614017       0.04888857       9.35669617       0.00245313      -0.00422757       0.09097155
I        2.66549509       6.91960357       0.05166332       0.03738375      -0.02049857      -0.01130545
I        4.86562357       4.33821917       2.97405685       0.00185446      -0.00234003      -0.03000711
48
Lattice="9.01938999 0.0 0.0 0.0 8.77776784 0.0 0.0 0.0 12.79618681" Properties=species:S:1:pos:R:3:forces:R:3 config_id=O-FAPI3_cage_rattle_10 phase=O-FAPI3 mode=cage_rattle seed=2813790788 source=O-FAPI3/CONTCAR energy=-227.19355131 stress="-0.0010344182585640686 -5.531206662830366e-05 -9.10765068629817e-05 -5.531206662830366e-05 -0.00010599081137209914 -2.624080232740343e-05 -9.10765068629817e-05 -2.624080232740343e-05 0.00021130593569075752" pbc="T T T"
C        4.58144027       0.35721995       3.16826701       0.01337667      -0.05157210      -0.02933686
C        0.07174528       4.03166406       9.56636042       0.07059365       0.07730634      -0.04561562
C        8.94764462       4.74610387       3.16826714       0.03872230       0.01896904      -0.00492053
C        4.43794981       8.42054789       9.56636054       0.01316435      -0.01739778       0.00598610
N        5.14641595       8.21104206       2.42775923      -0.09557476       0.01540584       0.02732945
N        0.63672086       4.95560970       8.82585276      -0.13966974      -0.05945517       0.01168680
N        1.18184368       5.12533408       3.07055866      -0.03643572      -0.00972901      -0.02027414
N        5.69153868       8.04131768       9.46865219      -0.02007202       0.00037614      -0.02510540
N        3.32785131       0.73645025       3.07055866      -0.05497275       0.00824293      -0.01012602
N        7.83754631       3.65243376       9.46865219      -0.10359120      -0.01304647       0.01183152
N        8.38266904       3.82215805       2.42775936      -0.00981005      -0.01989434      -0.00350095
N        3.87297414       0.56672578       8.82585276       0.00102237       0.03495503      -0.00898769
H        5.19802156       0.84618876       3.92887722      -0.01212880      -0.00054057      -0.00792734
H        0.68832647       3.54269525      10.32697075      -0.00806830      -0.00161288      -0.00473945
H        8.33106343       5.23507259       3.92887735       0.00796261      -0.00225352      -0.00200176
H        3.82136852       7.93157926      10.32697088      -0.00219294       0.00376134      -0.00213262
H        6.14780021       8.03459813       2.53546294       0.01398486      -0.00140843      -0.01033727
H        1.63810522       5.13205363       8.93355635       0.03306194       0.01575163       0.00160382
H        1.55804587       5.80949955       3.73115809       0.01602401       0.00717039       0.02866135
H        6.06774095       7.35715221      10.12925149       0.01240631       0.01550461       0.01045008
H        4.63340450       7.72431711       1.68653051      -0.01620192      -0.00750846      -0.02217655
H        0.12370950       5.44233474       8.08462392       0.01166859       0.00960240       0.00457209
H        1.82884430       4.71238908       2.40039510      -0.00385698       0.00767846       0.00304222
H        6.33853939       8.45426268       8.79848837       0.01738955      -0.00464402       0.02022163
H        2.68085060       0.32350507       2.40039510       0.02303420      -0.00946677       0.00402318
H        7.19054560       4.06537885       8.79848850       0.01851219      -0.00122745       0.02271711
H        8.89568040       3.33543310       1.68653064      -0.00689536       0.01112364      -0.00676833
H        4.38598549       1.05345073       8.08462392      -0.02683497      -0.02121038       0.01018713
H        2.95164913       1.42061563       3.73115809       0.00239803       0.00964575       0.01322484
H        7.46134412       2.96826829      10.12925149       0.01369486      -0.00618075      -0.00825371
H        7.38128477       3.64571412       2.53546307       0.00084295       0.00112077      -0.00620208
H        2.87158987       0.74316971       8.93355635      -0.02242035      -0.01285920      -0.00384686
Pb       4.54847603       4.30865512      12.57256833       0.08843167       0.03657865      -0.04240105
Pb       8.98915294       0.12268265       6.06010772       0.25049453       0.01959044       0.15885711
Pb       9.01031080       8.75971276      12.57248771       0.05913200      -0.22214283      -0.20274990
Pb       4.53958579       4.48272300       6.17130659      -0.18462437       0.12193696      -0.02294110
I        7.22758905       6.26818225       6.41731046      -0.09943848      -0.08562915       0.01056805
I        8.59101325       8.71014664       2.91626428       0.10850692       0.02878510       0.25097177
I        6.41694350       1.63129329      12.29458486      -0.26091494       0.29368149      -0.01195837
I        1.81475511       2.53430554       0.00462352       0.15586108       0.16123985       0.05608942
I        1.86568129       2.70857206       5.89378071       0.00851380      -0.03942607       0.00757613
I        2.61578554       7.09779568       5.89799859       0.07116419      -0.10730639      -0.01087437
I        7.17353115       6.15693062      12.33756085      -0.12720766      -0.17651915      -0.01611321
I        6.34512093       1.84053842       6.42622774      -0.07521559       0.06901807       0.03442341
I        4.08731633       4.52374774       9.34005320       0.15076839      -0.06586834       0.10711196
I        0.34646147       0.01446102       9.41613971       0.01589251       0.02232787      -0.21338535
I        2.68846820       6.91258180       0.04063711       0.06234345      -0.06905659       0.02477026
I        4.84601317       4.28767801       2.98257233       0.02715892       0.01618309      -0.08322891
48
Lattice="9.01938999 0.0 0.0 0.0 8.77776784 0.0 0.0 0.0 12.79618681" Properties=species:S:1:pos:R:3:forces:R:3 config_id=O-FAPI3_cage_rattle_11 phase=O-FAPI3 mode=cage_rattle seed=3981943076 source=O-FAPI3/CONTCAR energy=-227.24357959 stress="-0.0007295473637708945 -0.00011132594726724901 0.00018187343780768768 -0.00011132594726724901 0.0001677520171688677 -0.00010186442485879521 0.00018187343780768768 -0.00010186442485879521 0.00025885458233244993" pbc="T T T"
C        4.58144027       0.35721995       3.16826701      -0.03565568       0.02889638       0.00555708
C        0.07174528       4.03166406       9.56636042      -0.01090691      -0.00753707       0.00646499
C        8.94764462       4.74610387       3.16826714       0.03589250       0.00536715      -0.00383325
C        4.43794981       8.42054789       9.56636054      -0.00691968       0.00780210      -0.01018560
N        5.14641595       8.21104206       2.42775923       0.05800535      -0.00997149       0.00396951
N        0.63672086       4.95560970       8.82585276      -0.04780532       0.02775820      -0.04218558
N        1.18184368       5.12533408       3.07055866      -0.02833681      -0.01435674      -0.02088476
N        5.69153868       8.04131768       9.46865219       0.00865113      -0.01372323      -0.02415865
N        3.32785131       0.73645025       3.07055866       0.05259645      -0.00216784       0.00225235
N        7.83754631       3.65243376       9.46865219       0.00849911       0.01210836      -0.02577025
N        8.38266904       3.82215805       2.42775936      -0.02355699      -0.00209104      -0.01082989
N        3.87297414       0.56672578       8.82585276       0.01300383      -0.00470299      -0.01265082
H        5.19802156       0.84618876       3.92887722      -0.00823976      -0.00574677      -0.00706605
H        0.68832647       3.54269525      10.32697075       0.00233478       0.00132358       0.00212608
H        8.33106343       5.23507259       3.92887735       0.00517568      -0.00482193      -0.00597116
H        3.82136852       7.93157926      10.32697088       0.00051620       0.00165108       0.00110825
H        6.14780021       8.03459813       2.53546294      -0.02428727       0.00705772      -0.01133386
H        1.63810522       5.13205363       8.93355635       0.00551988       0.00142420      -0.00395925
H        1.55804587       5.80949955       3.73115809       0.00673629       0.02136833       0.02524524
H        6.06774095       7.35715221      10.12925149       0.00323579       0.00049356       0.01450247
H        4.63340450       7.72431711       1.68653051       0.00200447      -0.00257432      -0.00900916
H        0.12370950       5.44233474       8.08462392       0.03601283      -0.02078781       0.02708602
H        1.82884430       4.71238908       2.40039510      -0.00744243      -0.01219980      -0.00788883
H        6.33853939       8.45426268       8.79848837      -0.00906663       0.00710430       0.01640231
H        2.68085060       0.32350507       2.40039510      -0.00019812       0.00466228       0.00634150
H        7.19054560       4.06537885       8.79848850       0.00143522       0.00180644       0.01207961
H        8.89568040       3.33543310       1.68653064       0.00502831       0.00195436       0.00178428
H        4.38598549       1.05345073       8.08462392      -0.01805597      -0.01550632       0.01377114
H        2.95164913       1.42061563       3.73115809      -0.01274232      -0.00419176       0.00384393
H        7.46134412       2.96826829      10.12925149      -0.01011929      -0.01683529       0.02049906
H        7.38128477       3.64571412       2.53546307       0.00713822       0.00323527      -0.00448388
H        2.87158987       0.74316971       8.93355635      -0.00807694      -0.00113541       0.00400968
Pb       4.52794366       4.29461535      12.57033654       0.02506143      -0.07036202      -0.03403546
Pb       8.95777231       0.12038744       6.13972752       0.24050239       0.01132419       0.03194060
Pb       9.00002022       8.65871620      12.56180661      -0.01564633       0.02872396      -0.02942239
Pb       4.49916080       4.52524926       6.15253381      -0.21670194      -0.00595277       0.00350779
I        7.12914628       6.22976239       6.40104945       0.08412087       0.01065840       0.05349676
I        8.70060028       8.75457154       2.97107547      -0.07364986      -0.01424972       0.07678467
I        6.38711881       1.68080148      12.27835686      -0.04052347       0.08324345       0.02662788
I        1.87361141       2.54915639       0.07698186      -0.07516831      -0.06064711      -0.02519125
I        1.82239544       2.67748437       5.90040606       0.01750991      -0.02447332       0.01656240
I        2.60160237       7.10436461       5.85860374       0.13353877      -0.17571731       0.05952026
I        7.14296796       6.09895838      12.28993690       0.07485937       0.04428328       0.01449425
I        6.35127864       1.80354285       6.43208200      -0.17603773       0.17794990       0.01677606
I        4.14377708       4.42014313       9.39617663       0.01265124       0.00506298      -0.11730166
I        0.37335296       0.04946702       9.43310656      -0.01668607      -0.01145186      -0.16817889
I        2.67967213       6.91159456       0.04366481       0.01112135       0.00919638       0.00695752
I        4.86185663       4.33710483       2.96232800       0.01467241      -0.00325196       0.10062892
48
Lattice="9.01938999 0.0 0.0 0.0 8.77776784 0.0 0.0 0.0 12.79618681" Properties=species:S:1:pos:R:3:forces:R:3 config_id=O-FAPI3_cage_rattle_12 phase=O-FAPI3 mode=cage_rattle seed=4244842573 source=O-FAPI3/CONTCAR energy=-227.23705227 stress="-0.0006520739763874102 0.00011159666648407506 0.00011920187669736343 0.00011159666648407506 -0.00019157835410601445 -8.826357104711036e-05 0.00011920187669736343 -8.826357104711036e-05 0.00038376212835573045" pbc="T T T"
C        4.58144027       0.35721995       3.16826701       0.00854240       0.02948765       0.02995563
C        0.07174528       4.03166406       9.56636042      -0.00512808      -0.01053557       0.00424296
C        8.94764462       4.74610387       3.16826714      -0.02451141      -0.01453968       0.00387103
C        4.43794981       8.42054789       9.56636054       0.00853484      -0.01135951       0.02746996
N        5.14641595       8.21104206       2.42775923       0.08358827       0.01494609       0.00511529
N        0.63672086       4.95560970       8.82585276      -0.00596427       0.00448053      -0.01245138
N        1.18184368       5.12533408       3.07055866       0.04646937      -0.00139368       0.06051751
N        5.69153868       8.04131768       9.46865219      -0.00643428       0.02181214       0.03395042
N        3.32785131       0.73645025       3.07055866       0.01344826       0.03000425       0.03108696
N        7.83754631       3.65243376       9.46865219       0.00793870      -0.01388088       0.00591075
N        8.38266904       3.82215805       2.42775936       0.05291379       0.01250362      -0.00181505
N        3.87297414       0.56672578       8.82585276      -0.00493665       0.02777102      -0.00767240
H        5.19802156       0.84618876       3.92887722       0.00209644      -0.00194035       0.00634953
H        0.68832647       3.54269525      10.32697075       0.00016422      -0.00092912       0.00909724
H        8.33106343       5.23507259       3.92887735      -0.00824551      -0.00042473       0.00606816
H        3.82136852       7.93157926      10.32697088      -0.00494454      -0.00052057       0.00826762
H        6.14780021       8.03459813       2.53546294      -0.02875178       0.00286933       0.00368119
H        1.63810522       5.13205363       8.93355635      -0.01517262       0.00680660      -0.00497455
H        1.55804587       5.80949955       3.73115809      -0.01905034      -0.01241583      -0.03589274
H        6.06774095       7.35715221      10.12925149      -0.00387913      -0.00152352      -0.01581793
H        4.63340450       7.72431711       1.68653051      -0.01780435      -0.01896883      -0.01494536
H        0.12370950       5.44233474       8.08462392      -0.00072692       0.00025058      -0.00091688
H        1.82884430       4.71238908       2.40039510       0.01120334       0.01144002      -0.01026934
H        6.33853939       8.45426268       8.79848837       0.00968153      -0.00126462      -0.01663312
H        2.68085060       0.32350507       2.40039510      -0.02140817      -0.00252223      -0.00930312
H        7.19054560       4.06537885       8.79848850      -0.00255451       0.00407854      -0.01466650
H        8.89568040       3.33543310       1.68653064       0.00743250      -0.00341830      -0.00424425
H        4.38598549       1.05345073       8.08462392      -0.00316452      -0.00924753      -0.00377604
H        2.95164913       1.42061563       3.73115809       0.02167581      -0.02973337      -0.03441623
H        7.46134412       2.96826829      10.12925149       0.01759207       0.01817176      -0.01755179
H        7.38128477       3.64571412       2.53546307      -0.01880310       0.00500452       0.00482596
H        2.87158987       0.74316971       8.93355635       0.01076026      -0.00412890      -0.00683650
Pb       4.56836252       4.25487892      12.55806475      -0.17993993       0.13021369       0.07923639
Pb       0.05266765       0.09028636       6.15224756      -0.15390332      -0.02921480      -0.00141730
Pb       8.95663506       8.66420047      12.53646030       0.17323314      -0.02828497       0.04825191
Pb       4.43911719       4.46811030       6.20340710       0.14224297       0.05358361      -0.13346744
I        7.13798086       6.22697036       6.41742768       0.07545944       0.05091653       0.01267511
I        8.73169337       8.75000034       2.95226687      -0.08937196      -0.01603435       0.02310647
I        6.37561485       1.74970635      12.33662852       0.05032656      -0.15189111      -0.04034868
I        1.83222693       2.52298301       0.02184296       0.02990421       0.00821783      -0.00893249
I        1.85777535       2.68104244       5.97148530      -0.05713491      -0.02824366      -0.05144165
I        2.63642677       7.13349592       5.94168234       0.17124005      -0.21523116      -0.03468590
I        7.19008877       6.06279819      12.29167450      -0.02029566       0.03439427      -0.00424668
I        6.40046688       1.84837522       6.42622659      -0.16230539       0.10099635       0.02030639
I        4.18549879       4.48313599       9.32575141      -0.03322659      -0.01911134       0.10129047
I        0.33227397       0.02189825       9.36884091       0.02873199       0.01525259      -0.01522377
I        2.66576540       6.89648758       0.07615075      -0.03791006       0.05072154      -0.05590130
I        4.88460407       4.34666812       2.93807679      -0.04761216      -0.00716445       0.03257144
48
Lattice="9.01938999 0.0 0.0 0.0 8.77776784 0.0 0.0 0.0 12.79618681" Properties=species:S:1:pos:R:3:forces:R:3 config_id=O-FAPI3_cage_rattle_13 phase=O-FAPI3 mode=cage_rattle seed=756447363 source=O-FAPI3/CONTCAR energy=-227.24947271 stress="-0.0005492748043973955 -0.00014046307197244554 -3.9152843191955785e-05 -0.00014046307197244554 5.9381661650071184e-05 -0.00016435657378929594 -3.9152843191955785e-05 -0.00016435657378929594 0.0003534823456088219" pbc="T T T"
C        4.58144027       0.35721995       3.16826701      -0.00834753      -0.00558567       0.00191060
C        0.07174528       4.03166406       9.56636042      -0.00762819      -0.00756849       0.00903278
C        8.94764462       4.74610387       3.16826714       0.02639668       0.01635364       0.02080242
C        4.43794981       8.42054789       9.56636054      -0.00645115      -0.00193713       0.00597913
N        5.14641595       8.21104206       2.42775923      -0.00036159      -0.00896823      -0.00319026
N        0.63672086       4.95560970       8.82585276       0.00216419       0.00313914      -0.02472140
N        1.18184368       5.12533408       3.07055866      -0.01843767      -0.02364551       0.01333948
N        5.69153868       8.04131768       9.46865219       0.01613470      -0.01783610       0.02538702
N        3.32785131       0.73645025       3.07055866       0.00831230       0.00464705      -0.00532827
N        7.83754631       3.65243376       9.46865219       0.00196276      -0.03315897       0.02956454
N        8.38266904       3.82215805       2.42775936      -0.03580133      -0.02576811      -0.00121426
N        3.87297414       0.56672578       8.82585276       0.02649811       0.00212674      -0.00604314
H        5.19802156       0.84618876       3.92887722       0.00028290      -0.00212727       0.00838294
H        0.68832647       3.54269525      10.32697075      -0.00018618       0.00994883      -0.01027422
H        8.33106343       5.23507259       3.92887735       0.00314746      -0.00201286       0.00062059
H        3.82136852       7.93157926      10.32697088       0.00149258      -0.00093802      -0.00357986
H        6.14780021       8.03459813       2.53546294      -0.00278203      -0.00208887      -0.00736802
H        1.63810522       5.13205363       8.93355635       0.00953463      -0.00053306      -0.00037209
H        1.55804587       5.80949955       3.73115809      -0.00156786       0.00343028       0.00167039
H        6.06774095       7.35715221      10.12925149      -0.00490048       0.00386536      -0.01157543
H        4.63340450       7.72431711       1.68653051       0.00230275       0.00442840      -0.00563805
H        0.12370950       5.44233474       8.08462392       0.01866808      -0.01629648       0.02359169
H        1.82884430       4.71238908       2.40039510      -0.01076573       0.00772312       0.00068912
H        6.33853939       8.45426268       8.79848837       0.00600079       0.00169701       0.00280567
H        2.68085060       0.32350507       2.40039510       0.00266221      -0.01171665      -0.00032116
H        7.19054560       4.06537885       8.79848850      -0.01392018       0.00601012       0.00210654
H        8.89568040       3.33543310       1.68653064      -0.01145077       0.01240517       0.00225795
H        4.38598549       1.05345073       8.08462392      -0.00497737      -0.00350886       0.00664375
H        2.95164913       1.42061563       3.73115809      -0.00355401      -0.00218981       0.00966711
H        7.46134412       2.96826829      10.12925149       0.00654917       0.02043467      -0.02430686
H        7.38128477       3.64571412       2.53546307       0.03167369       0.00254092      -0.00656124
H        2.87158987       0.74316971       8.93355635      -0.01208925      -0.00328703      -0.00352285
Pb       4.52944746       4.23766378      12.59766651       0.09991659       0.10385205      -0.18658664
Pb       0.06689402       0.13313100       6.13434199      -0.04512418      -0.01581935       0.07978658
Pb       0.00439903       8.69066166      12.58512087      -0.07842764      -0.11971608      -0.09823271
Pb       4.54943704       4.50658132       6.11252372      -0.12273255      -0.06205916       0.20675024
I        7.12680674       6.20199717       6.44750319       0.14597710       0.10761322      -0.00459395
I        8.68281702       8.67629561       2.97816276      -0.03241135       0.02194431      -0.06838636
I        6.34304358       1.66588577      12.31284067      -0.01600953       0.06459202       0.00504655
I        1.85097915       2.53449725       0.04556351      -0.03751174       0.00539594       0.01680310
I        1.83954761       2.66654578       5.90171780       0.01259215       0.02624658      -0.00803236
I        2.64738885       7.07944672       5.91810012       0.06343896      -0.09974033      -0.01703631
I        7.19677412       6.07334354      12.32366650      -0.03854170       0.04336112       0.00192751
I        6.36257200       1.82820987       6.42519637      -0.05620143       0.04073930       0.00117340
I        4.17395082       4.43521403       9.40309105      -0.02232054      -0.00660791      -0.01368677
I        0.35967758       0.04101991       9.33741821      -0.02365367      -0.00080981       0.09525272
I        2.63642830       6.91882077       0.05380451       0.08169356      -0.03552772       0.00465236
I        4.83958207       4.33427874       2.99824753       0.04875429      -0.00304750      -0.06527197
48
Lattice="9.01938999 0.0 0.0 0.0 8.77776784 0.0 0.0 0.0 12.79618681" Properties=species:S:1:pos:R:3:forces:R:3 config_id=O-FAPI3_cage_rattle_14 phase=O-FAPI3 mode=cage_rattle seed=286016455 source=O-FAPI3/CONTCAR energy=-227.2361562 stress="-0.0008594447279554262 -5.056446271170055e-05 5.567652082918223e-05 -5.056446271170055e-05 0.0001912410379868152 4.3343055377581e-05 5.567652082918223e-05 4.3343055377581e-05 5.28956039551267e-05" pbc="T T T"
C        4.58144027       0.35721995       3.16826701       0.02399352      -0.01713721      -0.01306215
C        0.07174528       4.03166406       9.56636042       0.00074845       0.00621632      -0.00513155
C        8.94764462       4.74610387       3.16826714      -0.01791731       0.00180032      -0.00615406
C        4.43794981       8.42054789       9.56636054       0.03165241      -0.00521861       0.00117725
N        5.14641595       8.21104206       2.42775923      -0.04661553       0.01351152      -0.00300471
N        0.63672086       4.95560970       8.82585276       0.00497202      -0.00962553       0.01848516
N        1.18184368       5.12533408       3.07055866       0.01477241       0.03360479       0.04502821
N        5.69153868       8.04131768       9.46865219      -0.03822867       0.01519599      -0.02037261
N        3.32785131       0.73645025       3.07055866      -0.03396264       0.01842664      -0.00304340
N        7.83754631       3.65243376       9.46865219      -0.01680284      -0.01515517       0.01198238
N        8.38266904       3.82215805       2.42775936      -0.00209953       0.00815913      -0.00034879
N        3.87297414       0.56672578       8.82585276       0.01169773       0.01869849       0.00767828
H        5.19802156       0.84618876       3.92887722      -0.00252747      -0.00119465       0.00128620
H        0.68832647       3.54269525      10.32697075      -0.00835263       0.00230446      -0.00217306
H        8.33106343       5.23507259       3.92887735      -0.00692681      -0.00331525       0.00594890
H        3.82136852       7.93157926      10.32697088       0.00018420       0.00620426      -0.00244155
H        6.14780021       8.03459813       2.53546294      -0.00720440       0.00257568      -0.00895060
H        1.63810522       5.13205363       8.93355635      -0.00781015       0.00006597      -0.01140702
H        1.55804587       5.80949955       3.73115809       0.00232910      -0.01798262      -0.01046307
H        6.06774095       7.35715221      10.12925149       0.02174066      -0.00652144       0.01533974
H        4.63340450       7.72431711       1.68653051       0.00721602      -0.00206032       0.01220874
H        0.12370950       5.44233474       8.08462392      -0.01219977       0.00627612      -0.01239543
H        1.82884430       4.71238908       2.40039510       0.01222459      -0.00100027      -0.00059058
H        6.33853939       8.45426268       8.79848837       0.00205828       0.00125207      -0.00514296
H        2.68085060       0.32350507       2.40039510       0.00392544       0.00015666       0.00480765
H        7.19054560       4.06537885       8.79848850       0.00736420       0.00846965      -0.00377788
H        8.89568040       3.33543310       1.68653064      -0.00916372       0.01570248       0.00859804
H        4.38598549       1.05345073       8.08462392      -0.00503857      -0.01369681       0.00071394
H        2.95164913       1.42061563       3.73115809       0.01545474      -0.00434731      -0.00807916
H        7.46134412       2.96826829      10.12925149       0.00709816      -0.00122100      -0.00297689
H        7.38128477       3.64571412       2.53546307      -0.01267224       0.01005821      -0.00367586
H        2.87158987       0.74316971       8.93355635      -0.01221452      -0.00316039      -0.00832493
Pb       4.45610196       4.31963146      12.49774211       0.17514669      -0.02671905       0.10970900
Pb       0.05777506       0.12503851       6.17434351      -0.00707124      -0.06970425       0.01725644
Pb       8.95066765       8.68613760      12.59068031      -0.00087889      -0.02780737      -0.15451985
Pb       4.50112621       4.47345429       6.15959257       0.07055526       0.09994735      -0.13651721
I        7.18517807       6.21727778       6.44102320       0.09584223       0.10393347      -0.01274645
I        8.63692519       0.00552701       2.88374034       0.05035280      -0.02101432       0.24635588
I        6.36655551       1.68126100      12.31238512      -0.09889823       0.15156401      -0.02686584
I        1.85541786       2.59173058       0.05259501      -0.04737074      -0.08353449      -0.02055200
I        1.91402631       2.70148077       5.92766412      -0.16054564      -0.12007392      -0.03384534
I        2.68845638       7.10251926       5.92542734      -0.01913197      -0.05390716      -0.03287355
I        7.18861879       6.10910092      12.25237702      -0.03333231      -0.02326708       0.03288216
I        6.36236383       1.82853509       6.42552369      -0.01542292       0.02056620       0.00681958
I        4.15622925       4.45555405       9.30694230       0.00039821      -0.01207389       0.20710773
I        0.34789690       0.07768562       9.33632388       0.01033483      -0.00000326      -0.04512874
I        2.64239544       6.91669558       0.05581326       0.05266139       0.02052714      -0.02236534
I        4.87015780       4.39316326       2.98015014      -0.00033456      -0.02547554      -0.13645466
48
Lattice="9.01938999 0.0 0.0 0.0 8.77776784 0.0 0.0 0.0 12.79618681" Properties=species:S:1:pos:R:3:forces:R:3 config_id=O-FAPI3_cage_rattle_15 phase=O-FAPI3 mode=cage_rattle seed=583389517 source=O-FAPI3/CONTCAR energy=-227.12349607 stress="-0.0020278198469640286 -0.0005998657623153354 -0.0001825017830144086 -0.0005998657623153354 -0.0005018487909270085 -0.0002261564145275537 -0.0001825017830144086 -0.0002261564145275537 -3.955000914216312e-06" pbc="T T T"
C        4.58144027       0.35721995       3.16826701      -0.07369544       0.07397359       0.04415903
C        0.07174528       4.03166406       9.56636042       0.03477653       0.03852756      -0.04203495
C        8.94764462       4.74610387       3.16826714       0.06352243       0.02401815       0.03032745
C        4.43794981       8.42054789       9.56636054      -0.00113568      -0.04682295       0.04186334
N        5.14641595       8.21104206       2.42775923       0.21666957      -0.00488149       0.00701668
N        0.63672086       4.95560970       8.82585276      -0.10045258      -0.01406391       0.00105192
N        1.18184368       5.12533408       3.07055866      -0.05597601      -0.05447587       0.00590978
N        5.69153868       8.04131768       9.46865219      -0.04650354      -0.00006898       0.07858591
N        3.32785131       0.73645025       3.07055866       0.08616923       0.00535614      -0.00136103
N        7.83754631       3.65243376       9.46865219      -0.04236212       0.02417751      -0.06207192
N        8.38266904       3.82215805       2.42775936       0.02764310      -0.02909139      -0.04822289
N        3.87297414       0.56672578       8.82585276      -0.02562147       0.01122172      -0.00851446
H        5.19802156       0.84618876       3.92887722      -0.00887269      -0.01290279      -0.00465894
H        0.68832647       3.54269525      10.32697075       0.00764919      -0.00357368       0.01185936
H        8.33106343       5.23507259       3.92887735      -0.00096337       0.00664609       0.00960995
H        3.82136852       7.93157926      10.32697088      -0.00060749       0.00470747      -0.00090707
H        6.14780021       8.03459813       2.53546294      -0.07067133       0.01437159       0.01165649
H        1.63810522       5.13205363       8.93355635       0.03468761      -0.00639199      -0.01268446
H        1.55804587       5.80949955       3.73115809       0.02572891       0.04113046       0.04977983
H        6.06774095       7.35715221      10.12925149      -0.03348351       0.01911655      -0.05367956
H        4.63340450       7.72431711       1.68653051      -0.02231616      -0.01391854      -0.01220919
H        0.12370950       5.44233474       8.08462392      -0.00269935       0.01700345      -0.00377829
H        1.82884430       4.71238908       2.40039510      -0.01124663      -0.00894851      -0.01679694
H        6.33853939       8.45426268       8.79848837       0.02815299      -0.01498139      -0.01765731
H        2.68085060       0.32350507       2.40039510      -0.01417514      -0.01021011      -0.00430055
H        7.19054560       4.06537885       8.79848850       0.00668932       0.02209566       0.00081788
H        8.89568040       3.33543310       1.68653064       0.00221361       0.00395192       0.01170625
H        4.38598549       1.05345073       8.08462392      -0.05379682      -0.02756836       0.02503810
H        2.95164913       1.42061563       3.73115809       0.01960835      -0.01760523      -0.00487389
H        7.46134412       2.96826829      10.12925149       0.00019827      -0.01753919       0.01801146
H        7.38128477       3.64571412       2.53546307      -0.01233541      -0.00595900       0.00081152
H        2.87158987       0.74316971       8.93355635       0.02496990       0.00759853      -0.03324086
Pb       4.51846067       4.26729068      12.59879603      -0.24525888      -0.01785142      -0.06755752
Pb       9.00325800       0.20997395       6.12865843       0.30122273      -0.28745155       0.02746544
Pb       8.88395068       8.56964416      12.53136192       0.24743219       0.12523258       0.00531579
Pb       4.52044367       4.49547850       6.15959142      -0.03676515       0.21291655       0.02579242
I        7.13283557       6.31400500       6.49918712       0.06562522      -0.08763257      -0.07440927
I        8.77929067       0.00792869       2.99860672      -0.17792666      -0.04566829      -0.32564565
I        6.43411020       1.75341776      12.25304818      -0.05001351      -0.06171776       0.05337520
I        1.89790252       2.56855692       0.01375718      -0.20419727      -0.18825541       0.01259959
I        1.94226548       2.68345711       5.96371993      -0.10025031      -0.05456140      -0.04739244
I        2.63665595       7.05950978       5.86983431       0.11398444      -0.15700197       0.03155731
I        7.09685335       6.03485548      12.34267139       0.24396275       0.21470866      -0.04050966
I        6.40014056       1.74709882       6.37443108      -0.37228450       0.34498903       0.07723314
I        4.09793603       4.41985267       9.31875215       0.12138907       0.00030441       0.14548772
I        0.27460002       0.02472197       9.28021093       0.11281214       0.00251904       0.33647612
I        2.67251055       6.93826967       0.15246273      -0.03067246      -0.03121066      -0.14718750
I        4.87514724       4.28747165       2.96648791       0.00917592       0.00578775      -0.03381332
48
Lattice="9.01938999 0.0 0.0 0.0 8.77776784 0.0 0.0 0.0 12.79618681" Properties=species:S:1:pos:R:3:forces:R:3 config_id=O-FAPI3_cage_rattle_16 phase=O-FAPI3 mode=cage_rattle seed=3834880372 source=O-FAPI3/CONTCAR energy=-227.22517547 stress="-0.0006805453879707492 4.2654136324793395e-05 -4.418760646042252e-05 4.2654136324793395e-05 -0.00042261993541130576 0.000158447081741364 -4.418760646042252e-05 0.000158447081741364 9.791359327267497e-05" pbc="T T T"
C        4.58144027       0.35721995       3.16826701       0.03180434      -0.01112578      -0.00521812
C        0.07174528       4.03166406       9.56636042       0.00463404       0.00591130      -0.00003793
C        8.94764462       4.74610387       3.16826714      -0.01951200      -0.00560239      -0.02433145
C        4.43794981       8.42054789       9.56636054       0.03501288      -0.02459159       0.03579649
N        5.14641595       8.21104206       2.42775923      -0.02612510       0.02988958       0.00162149
N        0.63672086       4.95560970       8.82585276       0.03326896      -0.02843382       0.00987379
N        1.18184368       5.12533408       3.07055866       0.02007027      -0.01684982       0.00938054
N        5.69153868       8.04131768       9.46865219      -0.01543106       0.02240060      -0.00505944
N        3.32785131       0.73645025       3.07055866      -0.02374115       0.02642731       0.03290569
N        7.83754631       3.65243376       9.46865219      -0.00826567       0.00753361       0.01678175
N        8.38266904       3.82215805       2.42775936       0.00683279       0.00668127       0.03636121
N        3.87297414       0.56672578       8.82585276      -0.07314104       0.03130717       0.00094760
H        5.19802156       0.84618876       3.92887722       0.00067716      -0.00536081      -0.00471768
H        0.68832647       3.54269525      10.32697075      -0.00587349      -0.00384848       0.01421325
H        8.33106343       5.23507259       3.92887735       0.00143410       0.00095922      -0.00126579
H        3.82136852       7.93157926      10.32697088      -0.00253586       0.00316361       0.00793342
H        6.14780021       8.03459813       2.53546294       0.01839808      -0.00673527      -0.00435860
H        1.63810522       5.13205363       8.93355635      -0.02153983       0.01247498       0.00975828
H        1.55804587       5.80949955       3.73115809      -0.01491064      -0.00566237      -0.02065382
H        6.06774095       7.35715221      10.12925149       0.00384246       0.00792810       0.00876922
H        4.63340450       7.72431711       1.68653051       0.00531750       0.00116997       0.01053616
H        0.12370950       5.44233474       8.08462392      -0.01598286       0.00439589      -0.02014141
H        1.82884430       4.71238908       2.40039510       0.01033027       0.00336791      -0.00557666
H        6.33853939       8.45426268       8.79848837       0.00230823       0.00220794      -0.00257700
H        2.68085060       0.32350507       2.40039510      -0.01239805      -0.00732503      -0.01086700
H        7.19054560       4.06537885       8.79848850       0.01601559       0.00733521      -0.01570761
H        8.89568040       3.33543310       1.68653064       0.00571321      -0.00205527      -0.01226955
H        4.38598549       1.05345073       8.08462392       0.02339063      -0.00087640      -0.01620936
H        2.95164913       1.42061563       3.73115809       0.01263522      -0.01534845      -0.03401754
H        7.46134412       2.96826829      10.12925149       0.00520565      -0.00485031       0.01765352
H        7.38128477       3.64571412       2.53546307      -0.01456674       0.01329001      -0.00838057
H        2.87158987       0.74316971       8.93355635       0.01772035      -0.02058720       0.01098848
Pb       4.54440287       4.27509684      12.49190692      -0.02627206       0.00034830       0.23692214
Pb       0.09233267       0.13416897       6.18313167      -0.17398928      -0.11472513      -0.08287032
Pb       9.01178917       8.67207667      12.54115011       0.03046610       0.05829656       0.10945984
Pb       4.48655133       4.47027007       6.18998006       0.13733323       0.05529088      -0.14633675
I        7.21125755       6.17290669       6.40845000      -0.03953042       0.09081395       0.01956725
I        8.67005747       8.70736698       2.94801149       0.00307227       0.02850361       0.14929185
I        6.39363956       1.73350030      12.31689706      -0.09659814       0.06032147      -0.03495374
I        1.79506245       2.56562436       0.04320300       0.13536670       0.05301993      -0.03900957
I        1.84055832       2.69263251       5.89182162       0.01216348       0.01299976       0.01790001
I        2.62699880       7.04958081       5.90307522       0.05223753       0.00423356       0.01272406
I        7.17467292       6.15744491      12.34611498      -0.12711170      -0.14358037      -0.04888325
I        6.34898637       1.86837360       6.49397191       0.00257822      -0.04154097      -0.04328891
I        4.17370775       4.54917079       9.39408279      -0.04036282      -0.03727603      -0.23623089
I        0.34516583       8.75953308       9.38993990       0.04067558       0.04164823      -0.15405728
I        2.61803389       6.94746701       0.06560797       0.13600646      -0.07781952      -0.02353355
I        4.87330232       4.37318585       2.88904807      -0.04662341      -0.01772493       0.23116772
48
Lattice="9.01938999 0.0 0.0 0.0 8.77776784 0.0 0.0 0.0 12.79618681" Properties=species:S:1:pos:R:3:forces:R:3 config_id=O-FAPI3_cage_rattle_17 phase=O-FAPI3 mode=cage_rattle seed=1416337329 source=O-FAPI3/CONTCAR energy=-227.20251926 stress="-0.0012721503257127045 -0.0004311856951545401 -0.00016872599218494352 -0.0004311856951545401 0.00017308629797726732 8.692359393589274e-05 -0.00016872599218494352 8.692359393589274e-05 0.0002827228060373405" pbc="T T T"
C        4.58144027       0.35721995       3.16826701      -0.02014846       0.01085696      -0.00870030
C        0.07174528       4.03166406       9.56636042       0.02315115       0.05748539      -0.04548616
C        8.94764462       4.74610387       3.16826714       0.07591221       0.03633802      -0.00909157
C        4.43794981       8.42054789       9.56636054      -0.00561255       0.00803783      -0.00698785
N        5.14641595       8.21104206       2.42775923       0.07488154       0.01238176       0.03929639
N        0.63672086       4.95560970       8.82585276      -0.14782388      -0.03978435      -0.01573848
N        1.18184368       5.12533408       3.07055866      -0.08679120      -0.00617581      -0.06263265
N        5.69153868       8.04131768       9.46865219       0.01206741       0.00726742      -0.01670317
N        3.32785131       0.73645025       3.07055866       0.03487245      -0.01191492      -0.02573093
N        7.83754631       3.65243376       9.46865219      -0.05459346      -0.01293865      -0.01470958
N        8.38266904       3.82215805       2.42775936       0.02285259      -0.03992342      -0.05234760
N        3.87297414       0.56672578       8.82585276      -0.03331361       0.01314541       0.03345181
H        5.19802156       0.84618876       3.92887722      -0.01528256       0.00094412      -0.00190781
H        0.68832647       3.54269525      10.32697075      -0.00002798       0.00469059      -0.01062458
H        8.33106343       5.23507259       3.92887735       0.00522890      -0.01381745      -0.00902985
H        3.82136852       7.93157926      10.32697088       0.00528262       0.00200683      -0.00235327
H        6.14780021       8.03459813       2.53546294      -0.03172707       0.00426506      -0.01553902
H        1.63810522       5.13205363       8.93355635       0.04900760       0.01334990       0.01126067
H        1.55804587       5.80949955       3.73115809       0.02850074       0.01440800       0.03362511
H        6.06774095       7.35715221      10.12925149       0.01078536      -0.01129420       0.03309839
H        4.63340450       7.72431711       1.68653051      -0.01002757      -0.00902458      -0.02170282
H        0.12370950       5.44233474       8.08462392       0.02078978      -0.02355300       0.03589302
H        1.82884430       4.71238908       2.40039510       0.00655426       0.00115438       0.01059593
H        6.33853939       8.45426268       8.79848837       0.00077355       0.01581814       0.01441496
H        2.68085060       0.32350507       2.40039510       0.02826675      -0.01876597       0.00310254
H        7.19054560       4.06537885       8.79848850       0.02536347       0.00038444       0.01480921
H        8.89568040       3.33543310       1.68653064      -0.04406744       0.03087467       0.03752158
H        4.38598549       1.05345073       8.08462392       0.00117101      -0.01147389      -0.00371394
H        2.95164913       1.42061563       3.73115809      -0.02054455       0.03456665       0.04452251
H        7.46134412       2.96826829      10.12925149      -0.00523569      -0.00245805       0.01353672
H        7.38128477       3.64571412       2.53546307      -0.00323152       0.00215389      -0.02723068
H        2.87158987       0.74316971       8.93355635      -0.01981920      -0.02069467      -0.00216950
Pb       4.51603987       4.25219362      12.55256917       0.19057425       0.19853648      -0.02739292
Pb       8.99346475       0.11969075       6.11568143       0.22442929       0.13422956       0.14245533
Pb       0.02786946       8.72739100      12.59730208      -0.09801330      -0.21034593      -0.20318795
Pb       4.56208755       4.55361927       6.16913827      -0.31692357      -0.12164299      -0.03355442
I        7.18004126       6.18411168       6.44312984       0.12393269       0.11709303      -0.01498688
I        8.66395252       8.76738839       2.95637342      -0.03237448      -0.01401667      -0.01791729
I        6.39666899       1.74841698      12.28647477       0.00360762      -0.03173717       0.00672295
I        1.92611743       2.52546300       0.00981237      -0.21379093      -0.04543165       0.05163442
I        1.85174291       2.71072955       5.82840998      -0.05206490      -0.12285231       0.07241756
I        2.61697104       7.08796230       5.85885147       0.09442154      -0.10460919       0.02406501
I        7.13883049       6.11350121      12.29340595       0.09057709       0.11541054       0.02689003
I        6.32228509       1.78821907       6.49937765      -0.05240997       0.13779205      -0.06939914
I        4.06105024       4.53088275       9.38550935       0.15556986      -0.05859329      -0.08492300
I        0.37498890       8.76876325       9.33329438      -0.03677581       0.02694225       0.05890073
I        2.70456754       6.98844251       0.05808944      -0.05467719      -0.05933478      -0.00886536
I        4.84208811       4.35026674       2.94681428       0.04670319      -0.00975045       0.10441188
48
Lattice="9.04140648 0.06606443 0.02298003 0.06429461 8.8147372 0.0502054 0.03260273 0.07318919 12.84678582" Properties=species:S:1:pos:R:3:forces:R:3 config_id=O-FAPI3_mixed_01 phase=O-FAPI3 mode=mixed seed=3408005148 source=O-FAPI3/CONTCAR energy=-225.78938664 stress="-0.0009991120761709221 0.00166367770281722 0.005726078455332308 0.00166367770281722 -0.0024211982746715163 0.0016584636147500575 0.005726078455332308 0.0016584636147500575 -0.00025921144061672233" pbc="T T T"
C        4.66597109       0.43598945       3.01925286       5.55224257      -0.13886986      -1.12694423
C        0.11910683       4.15251080       9.58175702      -0.54042663      -5.39663930       5.56149169
C        8.93612019       4.93379560       2.96514449       0.39683594       0.94820182       0.68937646
C        4.56135035       8.56531639       9.65559727      -5.28924007       0.54938296       1.24298864
N        4.97934984       8.17897875       2.35461330      -3.41506729      -1.59633576      -0.17923001
N        0.66214478       5.00855715       8.91209918       4.40219557       5.82884540      -4.68373853
N        1.06906200       5.25665679       3.45029733      -1.22591977      -0.24534848      -0.70401110
N        5.73112692       8.14913296       9.55321533       5.95044295      -1.16565471      -0.56125391
N        3.56954239       0.87933933       3.44700048      -2.20182823       0.75367855       0.82473265
N        7.93045995       3.80400688       9.53444137      -1.53774254      -0.99349382       0.45103774
N        8.67135365       3.78217030       2.41137930       0.71042224      -1.23738414      -0.02855299
N        3.91073227       0.67854791       8.85918528      -1.60063245      -1.27805666       2.11786284
H        5.62267521       1.01505394       3.24431112      -1.25046261      -0.34282291      -0.04686757
H        0.77406534       3.65169634      10.39972217      -1.02524847       0.57913240      -1.08327373
H        8.09245331       5.63657223       3.04717389       0.30821001      -0.05150337      -0.04376517
H        3.91166708       8.04880886      10.44532838       0.66299578       0.76698417      -0.89905342
H        5.86112408       7.95227197       1.93561398       0.69726672       0.13218368      -0.01373319
H        1.72168762       5.24335354       8.98464959      -1.86356999      -0.62114702       0.08834314
H        1.18174991       6.19424606       3.86293472      -0.07824484      -0.46638391      -0.14123730
H        6.17366584       7.48535702      10.24073693      -0.74547325       0.54544772      -0.50404177
H        4.13043194       7.55133571       2.03729426       1.84365747       1.20447022       0.39521010
H        0.16100949       5.49368565       8.13719485       0.22955654      -0.16874579       0.36169026
H        1.87934752       4.64719036       3.40500525       0.24713678       0.00778839       0.07281793
H        6.45478915       8.57596133       8.91062078      -1.00597830      -0.44496076       0.59126801
H        2.70644605       0.38644304       3.28852724      -0.70176673      -0.11427133       0.01574560
H        7.25477401       4.16612964       8.87451950      -0.10571684       0.21062775      -0.28220868
H        0.35076424       2.95116938       2.28144087      -0.83366817       0.95129417      -0.02609059
H        4.41711514       1.09482561       8.13976389       0.99172403       1.18235544      -1.80970688
H        3.55783356       1.70298002       4.04326222      -0.25498692       0.11825927       0.12726498
H        7.55302612       3.09056856      10.19041322       0.50450973       0.51658164      -0.36468027
H        7.73716419       3.59243123       2.03465908       0.21819268       0.08594859       0.16724625
H        2.88066329       0.84268624       8.96527697       1.01088766      -0.15222651      -0.10408399
Pb       4.63911702       4.43974397      12.65038344      -0.30259518      -0.13982986      -0.00771439
Pb       9.02406735       0.20248814       6.19615655       0.01623468       0.03781404       0.16785719
Pb       9.11425230       8.82406027      12.72197739       0.22848404       0.20514260      -0.15744669
Pb       4.56201998       4.60259497       6.22248319       0.02773349      -0.00020745       0.02994504
I        7.26065653       6.37719981       6.52565642      -0.02680698      -0.04342639      -0.05155562
I        8.75434794       8.84570091       3.05593037       0.00269475       0.00936785       0.07307610
I        6.45076602       1.81810572      12.40942713      -0.09517597       0.13063880      -0.00149943
I        1.87186260       2.56277951       0.05492120       0.17476180      -0.09847893      -0.10658636
I        1.91229274       2.68879061       5.92654562      -0.01813445       0.13254620       0.13071660
I        2.68954669       7.12637993       5.97610200       0.03381134       0.10971763       0.08201578
I        7.22927678       6.28728138      12.41973275      -0.00062880      -0.02229610       0.00845406
I        6.38201590       1.95986347       6.51535238       0.03402271      -0.03124378      -0.07786589
I        4.20448803       4.56171776       9.39562187      -0.04098864       0.03032039       0.06809590
I        0.38626010       0.10653740       9.44533478      -0.05155716      -0.02160337      -0.10247525
I        2.71228784       7.01108873       0.08467338      -0.07240164      -0.24553805      -0.13246313
I        4.91014883       4.41227130       2.99487189       0.04024245      -0.02026143      -0.02715685
48
Lattice="8.96257243 0.00204351 -0.05271632 0.00198877 8.83532672 -0.01631149 -0.07479086 -0.02377881 12.60879733" Properties=species:S:1:pos:R:3:forces:R:3 config_id=O-FAPI3_mixed_02 phase=O-FAPI3 mode=mixed seed=2868466720 source=O-FAPI3/CONTCAR energy=-224.55275475 stress="-0.006581507015584085 -0.0005667124699064889 -0.0025849029228326137 -0.0005667124699064889 -0.002937856656309037 -0.0007271866689817573 -0.0025849029228326137 -0.0007271866689817573 -0.01274248666779697" pbc="T T T"
C        4.52415280       0.31216396       3.12060300      -1.75408524       0.08436312      -1.46766803
C       -0.05440201       4.02502950       9.47293813       3.56246936       1.37487615      -1.57883451
C        0.10451410       4.80780598       3.20346473       1.57104800      -2.80832773      -4.81529790
C        4.26088729       8.40267085       9.38493890       6.58912269       2.68727962      -3.57434354
N        5.07357380       8.26600383       2.34538271       2.24117827      -2.21340222      -1.25430285
N        0.52986748       4.91968315       8.70043748       3.18201938       0.47193274       1.08000842
N        1.33252003       4.54179512       2.75231801       0.23429838       3.48133699       6.93109197
N        5.65872104       8.20039587       9.31456243      -3.04419862      -1.82524339       2.05544431
N        3.28288377       0.70142129       2.99793381      -0.29646706       2.39988664       2.77712713
N        7.72697654       3.62309131       9.21502217       1.06962115      -3.47908943       4.37006886
N        8.00684122       4.43111870       2.47716248      -1.37638700       0.47406620       0.80564813
N        3.71557830       0.51406568       8.64134240       4.13301144      -1.96958029       0.91008667
H        5.10799979       0.85730857       3.77148950       1.47176739       0.93637164       1.84069460
H        0.64709068       3.52897463      10.12686525      -0.26813663      -0.31764962       0.83627538
H        0.01474237       5.28139949       4.08044379      -0.51620630       1.74816668       3.46419681
H        3.77208539       7.87520045      10.10184132      -1.84350328      -1.56705904       2.03448976
H        6.11181450       8.05411331       2.45002093      -1.38375757       0.43674354      -0.05823747
H        1.60866626       5.12793447       8.81905020      -2.44971617      -0.58541702      -0.14514116
H        2.14484287       4.82185411       3.44378752      -1.78550290      -0.65060109      -2.04198274
H        6.02516178       7.43633575      10.00103660      -0.46044996       1.53386569      -1.45312420
H        4.58069390       7.72515516       1.58826169       0.13310355       0.64246988       0.77157296
H        0.05795738       5.42978125       7.97852648      -0.58596053       0.38780743      -0.63804732
H        1.54214836       4.16971809       1.91581095       0.89364267      -1.87232338      -3.89089783
H        6.31961806       8.60519770       8.64191092      -0.48713288       0.05169462       0.12837078
H        2.65228619       0.37018859       2.33199031      -1.18041435      -0.96786853      -1.43872897
H        7.14036041       4.01196107       8.63032689      -3.88262765       2.65856859      -4.02980282
H        8.02958976       3.97469843       1.54835570       0.08804579       0.25781821       0.66072208
H        4.30385532       1.01934880       7.96758619      -0.45267009       0.09402888      -0.04061089
H        2.86911219       1.42592922       3.68592350       0.86386210      -1.25374024      -1.10852777
H        7.34071601       3.02724461       9.93413360      -0.47333536      -0.54897632       0.17769026
H        7.04396040       4.62328928       2.92235254       1.32922136      -0.36480426      -0.98570246
H        2.78599270       0.57017732       8.78834985      -4.35176576       1.03786199      -0.10666665
Pb       4.46400027       4.18354435      12.30453620      -0.19858842       0.18928021      -0.04078161
Pb       0.00092859       0.08748140       5.99626766      -0.01665799      -0.15619132       0.19485640
Pb       8.88412063       8.68273197      12.34004567       0.17649340       0.01649352      -0.20880965
Pb       4.42699446       4.49812958       6.01622896       0.10231213       0.06660985       0.08052108
I        7.09898289       6.21715350       6.33366102       0.00581255       0.11120920      -0.16219181
I        8.63604588       8.76106016       2.79927916      -0.11514206      -0.02295646       0.36523649
I        6.27573014       1.73455434      12.11058650       0.02237420       0.00410382       0.01565252
I        1.82669230       2.55042135       0.00082389       0.08442641      -0.08862087      -0.21291214
I        1.82353316       2.64713010       5.79787120      -0.02342263      -0.04076260       0.07190279
I        2.66029475       7.09159018       5.80327706      -0.06595600      -0.10879515      -0.05633280
I        7.06523741       6.16014094      12.05492984      -0.13308504      -0.14407387      -0.04500270
I        6.31011493       1.81656007       6.35133531      -0.07975726       0.01952425      -0.02157808
I        4.13030489       4.50693291       9.15284539      -0.12259876       0.00680773       0.09842399
I        0.29398538       0.01306817       9.30320484      -0.01761648      -0.00769805      -0.30351546
I        2.65500848       7.00485810       0.04161649       0.02745782      -0.14415918      -0.08669724
I        4.79302875       4.35505534       2.86491955      -0.41614607      -0.03582712       0.09565719
48
Lattice="8.99592006 -0.01247547 0.00276774 -0.01214127 8.80010498 0.05721308 0.00392671 0.08340495 12.60756331" Properties=species:S:1:pos:R:3:forces:R:3 config_id=O-FAPI3_mixed_03 phase=O-FAPI3 mode=mixed seed=888324749 source=O-FAPI3/CONTCAR energy=-225.58672203 stress="-0.005514595323197466 0.0005643627414488859 -0.001416810488013832 0.0005643627414488859 -0.002686412549105148 0.0005952834585264222 -0.001416810488013832 0.0005952834585264222 -0.008860494058958123" pbc="T T T"
C        4.52355069       0.34842621       3.14880370       1.96419852      -1.27521031       0.92378897
C        0.02497654       4.18934612       9.52497709       0.94293355       1.82258203      -1.24043108
C        8.90731322       4.83148396       3.17818001       0.89218445      -4.19344584      -4.53187141
C        4.43015043       8.59852412       9.54722017      -2.78961165       0.93283155      -3.53791839
N        4.94714685       7.96286379       2.75531984      -0.45470795       2.25649820       1.20121543
N        0.48911473       5.16836610       8.77042768       0.65314149       0.55270593      -0.24581262
N        1.20963926       5.09999386       3.10120668      -3.02644364      -0.56197543       0.05395176
N        5.68242580       8.47330739       9.77733634       2.07812168       0.61587384      -3.11360265
N        3.56042201       1.05002464       2.66242908      -0.94650628       0.03526073      -0.47928290
N        7.96206714       3.48746507       9.25405342       1.25506897       0.24931652       1.04346253
N        8.33994210       3.82197899       2.37222072       0.93910171       3.60189409       3.35691540
N        3.86757312       0.18258806       8.28113764      -0.03713019      -1.42682698       5.13698996
H        5.08906246       0.75457902       4.01416140      -0.33611904      -0.06197099      -0.36712106
H        0.61470771       4.00780406      10.38895313       0.23915113      -0.59346931       1.08475834
H        8.28362732       5.41307551       3.77246911      -1.15952795       0.95639034       1.29471938
H        3.70418186       8.36865545      10.30519610      -0.22644105      -0.10312301       0.67728200
H        5.72800480       7.53994130       3.22499953       0.36550649      -0.26942162       0.06171958
H        1.36238409       5.70150408       9.01228393      -1.05981147      -0.88958234      -0.17697774
H        1.51767668       5.77179912       3.73789470       1.29727044       1.56455748       1.25473008
H        5.99891586       8.26367052      10.69662803       0.54004587      -0.43841794       0.95738524
H        4.47703409       7.50778398       2.01157957      -0.50766452      -0.83254759      -1.09692457
H        0.00628650       5.43329982       7.89196672       0.20068631      -0.01041087       0.37888118
H        1.82670364       4.60078656       2.51098715       0.89131086      -0.60107044      -0.70696823
H        6.40880735       8.68509674       8.98824775      -1.31528477      -0.51121033       1.87964110
H        3.00032541       0.73991659       1.88746483      -0.29065156      -0.37293896      -0.61878334
H        7.39077209       3.57849011       8.48091663      -1.38140536       0.53438867      -2.25975474
H        8.87793683       3.29423644       1.71851876       0.60171269      -0.51187657      -0.63316340
H        4.41995744       0.37085375       7.51153241       1.33184869       0.56768554      -2.19570191
H        3.21894051       1.91299488       3.06052414       0.28796286       0.29016947       0.52556771
H        7.68239324       2.81906329       9.90535007      -0.72168870      -1.57529827       1.49858558
H        7.33727828       3.73275642       2.43236741      -0.47540991      -0.21579358      -0.11004250
H        2.84711979       0.10613712       8.22535622       0.31880322       0.18203129      -0.07412932
Pb       4.47361937       4.35583942      12.42819465       0.15249127       0.03934463      -0.36115658
Pb       0.01543091       0.16514721       6.08233523       0.01232561      -0.01769511      -0.20043588
Pb       8.95210215       8.70942747      12.44075746      -0.00710180      -0.02177673       0.20941746
Pb       4.47791476       4.51584517       6.09845444      -0.13740446      -0.01246514       0.33404345
I        7.13500378       6.28843711       6.40974531      -0.19525657       0.04070996      -0.13476816
I        8.64289656       8.74599141       3.01121435      -0.03734801      -0.02963102      -0.09482310
I        6.35907099       1.76578074      12.08698976       0.14178869       0.27813894       0.46264297
I        1.83475554       2.56186161       0.05538129      -0.11069907      -0.01147224      -0.07139055
I        1.81694158       2.67566095       5.80703795       0.13281426       0.11618010      -0.00226195
I        2.59615696       7.08757970       5.89660455      -0.03532375      -0.17263952      -0.24604781
I        7.12046794       6.21997679      12.17983577       0.07619254      -0.07955944       0.05690296
I        6.36567343       1.90877998       6.34407275      -0.00911422      -0.01007336      -0.02731600
I        4.19654497       4.51431851       9.30353613      -0.07398844       0.03240651      -0.13449429
I        0.37547088       0.12361953       9.22407865       0.05057691      -0.06523402       0.08954002
I        2.69697279       6.90687789       0.07325102      -0.10109364       0.09056143       0.01148259
I        4.82947066       4.32912778       2.94796203       0.07049577       0.10560968       0.16755648
48
Lattice="9.03335373 0.03946126 -0.03511437 0.03840412 8.86099676 0.01253427 -0.04981823 0.0182724 12.71032938" Properties=species:S:1:pos:R:3:forces:R:3 config_id=O-FAPI3_mixed_04 phase=O-FAPI3 mode=mixed seed=4012514917 source=O-FAPI3/CONTCAR energy=-223.72101154 stress="0.01167372042956227 0.002767987762663526 -0.0038966799221440743 0.002767987762663526 0.0036621341329211837 -0.003937025948394116 -0.0038966799221440743 -0.003937025948394116 -0.0005642618599368842" pbc="T T T"
C        4.65979378       0.27701094       3.14825045      -4.67729059       4.45060992       1.70591980
C        8.92398685       3.99932864       9.44127725       2.49142306       1.45548331      -2.26117094
C        8.97319789       4.81130905       3.16416547       0.75451437       0.72663042      -0.99620785
C        4.49912188       8.45478031       9.55785601      -1.05664941       1.69165403      -0.80677703
N        5.25821869       8.26708902       2.38713559      -1.09492482       0.81866692       0.65873245
N        0.85878341       4.68883496       8.74344597      -2.52869122      -3.54155710       3.52771012
N        1.15879812       5.27261865       3.06161829       1.89549580      -3.54410636      -3.18584794
N        5.82070064       8.25951228       9.42355367      -5.54250907       2.88093423      -3.61490372
N        3.21271714       0.76052203       3.13065243       7.18272837      -7.59658362      -5.67543245
N        7.64641265       4.20348217       9.26423428      -0.35659260      -2.86097174       3.06951612
N        8.44069636       3.86255978       2.42283323      -2.93302367       0.62051945       1.84017493
N        3.71478580       0.46474385       8.79434426       5.61127237      -0.51069553      -1.85475787
H        5.23053252       0.95653428       3.85408191      -0.16401263      -1.30092238      -0.48666895
H        0.24520029       3.12392040      10.15077288      -0.28002594       0.95942127      -0.67515197
H        8.36184536       5.38682618       3.83071574      -0.71176025      -0.10590221       0.74026407
H        3.95162782       7.96680612      10.41077038       0.57994200       0.22829568      -0.67476919
H        6.27781157       8.21009399       2.50913488       0.21988879      -0.48038901      -0.55229487
H        1.79452745       4.30802423       8.90136462       0.25448124       0.67958910      -0.37703958
H        1.58010452       5.89647964       3.71925233       0.15810924       0.70777668       0.80546490
H        6.17912347       7.78492845      10.12079580       3.17360141      -3.21641897       4.24651435
H        4.64075399       7.88751953       1.66324680       0.53066843      -0.72478717      -0.49215821
H        0.62142383       5.44226843       8.13946249      -0.10705622       0.68690099      -0.70882220
H        1.91019448       4.69850999       2.38778169      -2.28636280       1.91675756       2.07803818
H        6.31196404       8.72581730       8.69331759       0.86950910       0.31317539      -0.51167388
H        2.74027041       0.39041802       2.27175373      -0.22226207       0.87292786       1.33986616
H        7.29622690       4.94917976       8.74065445      -0.80307811       1.57045740      -1.32723479
H        8.88019410       3.47439755       1.63702635       1.20946225      -0.84902074      -1.43920065
H        4.22453558       0.93840057       7.86408962      -1.59427953      -1.29769138       2.78803624
H        2.93374781       1.41626818       3.71965893      -1.64528768       3.89422763       3.32421744
H        6.96050922       3.66495582       9.89741369       1.13663446       0.95640881      -1.22250375
H        7.36839786       3.68933133       2.49253883       1.95907138       0.43054299       0.05320997
H        2.73723751       0.48195568       8.86575343      -1.97996034      -0.03504867       0.23428591
Pb       4.58861284       4.39859836      12.45858520      -0.15538733      -0.21492153      -0.00832852
Pb       9.00164492       0.23111852       6.08952476      -0.01168625      -0.12674508      -0.00101305
Pb       0.00110722       8.71360607      12.51396687       0.04039100       0.28077816       0.01518186
Pb       4.49195345       4.61618745       6.08284988       0.11163709      -0.06656528       0.07738113
I        7.21249466       6.26686336       6.32408719      -0.04572454       0.13111962       0.01011145
I        8.75100989       8.85596750       2.93238981      -0.19871099      -0.02458047       0.06739249
I        6.30663948       1.74551637      12.18653626       0.10050064       0.09362093       0.00344330
I        1.77774727       2.60832037      12.69083831       0.09369137       0.01184370      -0.00007839
I        1.81252685       2.67581389       5.83182400       0.07310113       0.07217212       0.06550043
I        2.64642329       7.06935951       5.88886225      -0.06524645       0.10643104       0.04366348
I        7.19276732       6.23928064      12.19211963      -0.06787305      -0.07560926       0.11501680
I        6.34914587       1.89621661       6.40449277      -0.12508923      -0.08047446       0.05549356
I        4.18336946       4.49239383       9.32888031       0.18253287      -0.01109403      -0.15038283
I        0.22637968       0.02162394       9.35159163       0.05595204      -0.01336010      -0.14430068
I        2.73249845       6.95945611       0.01399104       0.02586359       0.13441923       0.11330427
I        4.94243139       4.38114858       2.89126628      -0.05698720      -0.01391932       0.18827992
48
Lattice="9.06435899 0.06236934 -0.01751772 0.06069852 8.83384332 0.02622034 -0.02485312 0.03822388 12.70768237" Properties=species:S:1:pos:R:3:forces:R:3 config_id=O-FAPI3_mixed_05 phase=O-FAPI3 mode=mixed seed=1195945496 source=O-FAPI3/CONTCAR energy=-226.6852947 stress="-0.0002880366583863711 0.0030503886379016627 -0.0019355412316849109 0.0030503886379016627 0.002626855750709005 0.001031838830087615 -0.0019355412316849109 0.001031838830087615 -0.002227061313763492" pbc="T T T"
C        4.60016056       0.44228756       3.12946342       1.75681411      -1.51205173      -0.16109683
C        0.08672336       4.07155919       9.53363402      -1.90415475       2.06235069      -3.19204601
C        9.00876994       4.93502742       2.97384294      -2.91478550       0.06097085      -0.11765782
C        4.57820070       8.56560464       9.53713481      -1.45037773      -0.12152676       1.57852592
N        5.23140627       8.27080781       2.47057559      -1.54301732       1.10878830       0.39403305
N        0.66283753       5.00931264       8.75730215      -0.25155643      -0.67647788       0.71284130
N        1.16476567       5.13836285       3.23101073       4.03672998      -0.91647705      -0.16943622
N        5.85621985       8.34896714       9.46188192      -0.02320938      -0.21229204       0.10146865
N        3.35706454       0.79199586       3.04123261      -0.85323962      -0.75250037      -1.19657805
N        7.86256524       3.76753226       9.40708684       2.06633270       0.27086416       0.44217874
N        8.51176354       3.88098145       2.35671476      -0.88644379       0.43913422       0.26173455
N        3.77514190       0.38801384       8.66173542       1.54604204       0.03958066      -0.66293056
H        5.23823553       0.93012477       3.88124922      -0.14798785       0.13174146      -0.19986277
H        0.69892091       3.59519700      10.21359393       1.20831261      -1.14545715       1.72955462
H        8.27349862       5.67121658       3.34196114       0.14224115      -0.20702711      -0.13875517
H        4.03173200       8.21305736      10.45457939       0.56337212       0.06931352      -0.64315804
H        6.21137764       8.07147016       2.56749521       0.62302826       0.03365353       0.15525203
H        1.69014505       5.20484956       8.84081247      -0.95914420      -0.30098455       0.03273980
H        1.47106319       5.93730086       3.80242468      -0.30204137      -0.06044319      -0.08868691
H        6.32304522       7.88728438      10.23634203       0.19191508      -0.24547809       0.11656226
H        4.69604449       7.76032937       1.76340032       0.02862383      -0.02899613      -0.03429136
H        0.11297599       5.51616142       8.03681938       0.27065712      -0.27053918       0.33909944
H        1.97341592       4.48358275       2.95565886      -1.40498752       1.09962106       0.39043109
H        6.39968625       8.68298622       8.68930642       0.54050346       0.19375199      -0.55194652
H        2.68530570       0.33492179       2.40216538       0.41937660       0.17983919       0.25290098
H        7.21580009       4.14194557       8.73394670      -0.19544623       0.36337847      -0.36926898
H        0.04706834       3.09718316       2.00104316       0.20508493      -0.36692125      -0.31826983
H        4.17424999       0.77669414       7.81579678       0.12244308       0.19509822      -0.35282169
H        2.98392041       1.52267283       3.60827876      -0.28619690       0.78959282       0.75879246
H        7.50644374       3.08296851      10.06040527      -0.19689226      -0.32431088       0.30597924
H        7.48096757       3.83657286       2.18298912       1.00230726      -0.00619577       0.24411854
H        2.80191619       0.51033938       8.81206797      -1.34235336       0.03677320       0.33463334
Pb       4.52986313       4.35287693      12.48210608      -0.01978931       0.06675603      -0.03674712
Pb       0.02256204       0.13423810       6.10020080      -0.06097888       0.08435832       0.09737237
Pb       9.08533061       8.82856623      12.49192629       0.01885260      -0.06329871      -0.08210887
Pb       4.55643599       4.60148860       6.13691900       0.03296977      -0.07550362       0.05619931
I        7.24677063       6.36892414       6.42156884      -0.05807691       0.00246790      -0.08240792
I        8.79462222       8.84891489       2.94975706      -0.00828872       0.00058307       0.05930143
I        6.39907618       1.79608328      12.20727054      -0.07454035       0.09703473       0.08295421
I        1.83485770       2.57354033       0.05986071       0.12114840      -0.06124548      -0.02957163
I        1.85351251       2.72966335       5.85156760       0.07544758      -0.03155920       0.00864110
I        2.66732701       7.13702479       5.89044837       0.05628805      -0.00642198      -0.03692028
I        7.22601558       6.19000913      12.24635769      -0.04510869       0.13144615       0.01481090
I        6.38043987       1.92992769       6.34422570      -0.03326592      -0.02892853       0.06131796
I        4.20192451       4.49719461       9.31410492      -0.03703098       0.02045973      -0.02185559
I        0.37130210       0.06157386       9.32138681      -0.13057739       0.00733813      -0.05197425
I        2.71188864       7.01850648       0.02356808       0.10171198      -0.06780789       0.06474473
I        4.91083022       4.40490599       2.96823889      -0.00071132      -0.00245188      -0.05779562
48
Lattice="8.94411468 -0.05653519 0.04436767 -0.05502066 8.67460212 -0.012117 0.06294627 -0.0176641 12.67851928" Properties=species:S:1:pos:R:3:forces:R:3 config_id=O-FAPI3_mixed_06 phase=O-FAPI3 mode=mixed seed=3513950248 source=O-FAPI3/CONTCAR energy=-224.73377851 stress="-0.01211626351800527 -0.0031514558223167907 -0.0003994790846969273 -0.0031514558223167907 -0.005491114141714981 0.002762703407686624 -0.0003994790846969273 0.002762703407686624 -0.009938812109272293" pbc="T T T"
C        4.26632140       0.40061349       3.23992952       4.88024466      -1.86310509       2.30452095
C        0.10182481       3.95551109       9.38229146      -1.31809004      -1.58874063       2.67975562
C        8.75810956       4.63233275       3.15182800       4.58734876      -2.37155601      -4.03819260
C        4.33237021       8.34422246       9.41305431       2.23489103      -2.88295986       1.30835399
N        5.20349198       8.08875976       3.15276941      -7.14084052       2.80341072      -3.85561524
N        0.64740324       4.89605215       8.70282159      -3.77494057      -1.88250028       0.05194712
N        1.15107431       4.94998133       3.21859617      -2.85076560       1.17596101       2.08206130
N        5.51914685       7.64591484       9.43491599      -1.71961140       1.87287055      -0.70265369
N        3.38280965       0.63710023       2.37941460       0.89817143      -3.80996105      -3.50803316
N        7.77640214       3.51883917       9.41845150       0.09864729       2.00165535      -2.45371888
N        8.31371543       3.81483329       2.17452211      -2.30058993       2.46651807       3.30631032
N        4.11636076       0.74771904       8.74128511      -1.98683605      -2.52351246       2.77061853
H        4.39936280       1.09826686       4.07040008      -0.22301123      -0.18941724       0.23247003
H        0.71219220       3.51449350      10.21269939      -0.22896752       0.06173177      -0.79880205
H        8.11663084       5.10754621       3.78198389      -1.98644630       1.39549772       1.81396539
H        3.60642609       7.85380639      10.08838037      -0.21892849       0.66024443      -0.38311154
H        5.86650285       8.05099958       3.78797416       4.04952756      -0.20831784       3.90703071
H        1.52394559       5.06040456       8.90311792       6.12735868       1.43888445       0.96209124
H        1.38540628       5.61018482       4.03132926       0.20173650      -1.03418536      -1.27065266
H        5.71590585       6.83868299      10.06483178      -0.40518426       0.76188456      -0.44783194
H        5.20039042       7.48131250       2.35543605       0.25058688      -0.53267337      -0.32471071
H        0.17729731       5.39519544       8.03344591      -1.46646079       1.71030271      -2.29728372
H        1.88764411       4.48835235       2.70715356       0.18614714      -0.15375263      -0.27167486
H        6.25223405       7.96529384       8.79927176       0.21016848      -0.26821568       0.26360843
H        3.28546790       0.00486644       1.52193747      -0.00337016       0.62280845       0.91303945
H        7.07427211       3.97931976       8.76718495       0.94974901      -0.74940309       0.91406141
H        0.00716860       3.38360297       1.56780292       1.02264894      -1.02306344      -1.41265361
H        4.78271574       1.14375447       8.18216208       2.09202676       1.76730852      -2.25237665
H        2.70666344       1.28672758       2.46067850      -2.79541824       3.01815979       0.65477333
H        7.42856447       2.86475206      10.07869674      -0.37192895      -0.94972903       0.89811324
H        7.26489379       3.77476836       2.10346014       1.11898484      -0.43634105      -0.19123305
H        3.16368348       1.05049701       8.83664000      -0.55851946       0.65483512      -0.33040606
Pb       4.58331114       4.21488939      12.44828292      -0.19579568      -0.07497519      -0.01302950
Pb       0.05047876       0.07710496       6.10290848      -0.02543821       0.06304398      -0.06968476
Pb       8.92903533       8.48857142      12.46935412       0.01577017       0.08327654       0.06739974
Pb       4.42821949       4.37484121       6.08417430      -0.03794765       0.00002961       0.13563662
I        7.03249727       6.09594256       6.44327944       0.16182562       0.04212262      -0.02385241
I        8.56132993       8.52637463       2.98545938       0.20663845       0.04911846      -0.06416210
I        6.31014871       1.64582252      12.15694287       0.09005299      -0.19737319       0.06792399
I        1.86640541       2.50351773       0.05786265      -0.17871258       0.04062496      -0.26101790
I        1.88249391       2.56794315       5.88618885      -0.07145385      -0.01650100      -0.03109741
I        2.58955853       6.96014363       5.83476504       0.02460873       0.04438749       0.07993907
I        7.05449739       6.01308871      12.21807531       0.22449028       0.00738276       0.00619557
I        6.23559217       1.75660444       6.36125822       0.36554149       0.02446433      -0.26361875
I        4.11497892       4.35208876       9.29039135      -0.02432276      -0.09070011       0.09646194
I        0.49424609       0.00291721       9.27968584       0.02841983       0.01655899       0.05363769
I        2.60594792       6.79803172       0.04941251      -0.08642862       0.01957159      -0.09391948
I        4.87980705       4.19025124       2.99251386      -0.05557662       0.04432904      -0.21058296
48
Lattice="8.97187898 -0.02172629 0.01908401 -0.02114426 8.74547932 0.0144649 0.02707528 0.02108686 12.94630938" Properties=species:S:1:pos:R:3:forces:R:3 config_id=O-FAPI3_mixed_07 phase=O-FAPI3 mode=mixed seed=1231405104 source=O-FAPI3/CONTCAR energy=-226.50649733 stress="-0.00911254402945286 0.0005321227815534482 9.327333083001882e-05 0.0005321227815534482 -0.0009427741551026882 -0.0012591838151980105 9.327333083001882e-05 -0.0012591838151980105 0.005021555848182803" pbc="T T T"
C        4.55079101       0.30995715       3.22220304       5.62226445      -1.89127419      -0.45604763
C        0.07498987       4.03739961       9.72994202       0.31098990       0.19167011      -0.76284266
C        8.86765633       4.69918870       3.19214228       0.62556611       1.29765045       1.84703643
C        4.38326601       8.35448578       9.70388980       1.32515291       0.34180967      -0.08063050
N        4.97525735       8.12669239       2.41027544       1.70595022      -0.59475645       0.03367143
N        0.64139832       4.93610830       8.95794039      -1.82738680       0.87471599      -1.32000609
N        1.14828206       5.10288697       3.13294765       0.63212857       1.29334711       1.00817247
N        5.67911153       8.00705383       9.64924352      -1.65900269       1.64416818      -1.58742209
N        3.40591012       0.77180624       3.21298322      -4.48323359       2.56104854       1.14275392
N        7.81014727       3.62199788       9.62950045      -0.95735469       0.59001756      -0.92027510
N        8.33952395       3.76503673       2.47754368      -0.45915191      -0.32171677      -0.42665813
N        3.82810040       0.52806925       8.93322921       4.08012139      -0.05300174      -1.34145441
H        5.30238492       0.74127664       3.91458014      -0.36742191      -0.22271532      -0.14096032
H        0.70216440       3.54520233      10.46301044       0.16172837      -0.10555918       0.35770827
H        8.27485603       5.19628289       3.99897022       0.01195824      -0.38424051      -0.69278594
H        3.79755147       7.89805098      10.50230485      -0.20437971      -0.14060401      -0.04339335
H        5.99721208       7.85715554       2.39553893      -1.30681089       0.52099254       0.27114810
H        1.61238745       5.11985869       9.04878044       1.27349681       0.19809434       0.24690912
H        1.55078065       5.82248808       3.80734220      -0.79827612      -1.00988283      -0.83725594
H        6.05417748       7.33780050      10.27617910       0.43737208      -0.91788828       0.91004671
H        4.40450356       7.69021361       1.67975395      -0.22108935       0.12763124       0.05383783
H        0.12643130       5.47162196       8.17819065       0.60348338      -1.02777586       1.31005454
H        1.80388983       4.71866061       2.48104648       0.52229424      -0.34294966      -0.53592068
H        6.30769105       8.42690881       8.94700757      -0.25198157      -0.25302539       0.39813941
H        2.66521935       0.43701490       2.62679287      -0.63257144      -0.22934403      -0.50051353
H        7.15800648       4.03809308       8.92525196       0.61940820      -0.42163908       0.70384497
H        8.84124909       3.29028837       1.72614822       0.01843912      -0.10393583      -0.11927420
H        4.38822317       1.08346472       8.17970879      -1.01325454      -1.11424284       1.35787836
H        3.14905673       1.46839980       3.93227530      -0.16435559      -0.18964149      -0.29972108
H        7.43981840       2.92470208      10.26031841      -0.23891526      -0.30246422       0.34965420
H        7.33792309       3.67259205       2.58342207      -0.56161106      -0.41647214      -0.21144402
H        2.89469835       0.73510374       9.08186347      -2.57327809       0.55035748       0.30925543
Pb       4.50090548       4.25659717      12.66453039       0.09627307       0.01954648       0.05873667
Pb       0.02928245       0.10380406       6.24772628      -0.05166019       0.04337602      -0.04299373
Pb       0.02047424       8.64749344      12.71465627      -0.10761311      -0.00532503       0.01477377
Pb       4.45675695       4.52397043       6.21332183       0.06216675      -0.20342522      -0.01915517
I        7.12168845       6.18038311       6.57788627       0.13043816       0.03399344      -0.00572122
I        8.62699691       8.68414473       3.01380052      -0.02612551      -0.01955387       0.05915595
I        6.39283201       1.70696985      12.46930227      -0.11108669       0.09009943       0.01137139
I        1.83081888       2.50668844       0.05213433       0.00408742       0.06282716       0.02862528
I        1.86753920       2.65035113       5.99368650      -0.03362111       0.00556646       0.01606649
I        2.67048059       7.01659288       6.01315755      -0.11552395       0.12374212      -0.05458523
I        7.14344165       6.08176552      12.49093562      -0.00539060      -0.04165640       0.01811320
I        6.31067193       1.79500783       6.52085331      -0.01203157       0.00152295       0.04234993
I        4.14061298       4.41687565       9.52683497       0.02927171      -0.02622258      -0.07614325
I        0.38618972       0.04383855       9.46306234      -0.09473957      -0.00868073      -0.00784302
I        2.65396968       6.97051905       0.05237110      -0.00056079      -0.23101523      -0.10592611
I        4.81710601       4.31635650       3.02600680       0.00583718       0.00683161       0.03966953
48
Lattice="9.0179545 0.0204888 0.0059308 0.01993992 8.90377372 -0.00429652 0.00841427 -0.00626344 12.97672611" Properties=species:S:1:pos:R:3:forces:R:3 config_id=O-FAPI3_mixed_08 phase=O-FAPI3 mode=mixed seed=3909983353 source=O-FAPI3/CONTCAR energy=-225.4738165 stress="0.0033476796318010534 0.001175409362208564 0.001750812765323807 0.001175409362208564 0.0071685750565160175 0.0026931445846747433 0.001750812765323807 0.0026931445846747433 0.010704944609312827" pbc="T T T"
C        4.59486983       0.37315907       3.20034106       0.16357598      -0.08864529      -0.14191495
C        0.10930199       4.10681944       9.68471877      -2.05814283      -2.68836507       2.18518260
C        0.13387448       4.92073410       3.29133476      -1.70165308      -1.53393394       1.15173015
C        4.44158849       8.56350678       9.69000778      -0.96814675       0.03284654       0.21101583
N        5.19249684       8.33218290       2.47325039      -1.84962915      -0.03916373      -0.86767151
N        0.62732770       5.05772494       8.99886848       1.86132124       1.03916073      -1.22315765
N        1.14108483       5.06896303       2.52986698       3.18467160      -0.35983866      -3.67452791
N        5.36173635       7.75834434       9.18239095       0.31801506       3.30323429      -0.92945201
N        3.33091471       0.73650627       3.02184206       3.45696580       3.42758355       4.93492367
N        7.85328407       3.69773725       9.59930813       0.01494033       1.49971421      -1.38558575
N        8.22520472       3.96191368       3.12584283       4.15426422       0.31118915      -3.54297059
N        4.28233724       0.95359886       9.40960338       0.16122815       0.61944793      -0.99530227
H        5.23026300       0.89613343       4.00322795      -0.99430527      -0.63017570      -1.04673257
H        0.69471145       3.55852232      10.49019686      -0.25910789       0.79080635      -0.94087309
H        0.14190036       5.57270327       4.18538946      -0.60791010      -0.38267645      -0.22405102
H        3.68322959       8.07723676      10.39389854       0.93007430       0.72387811      -0.74333859
H        6.17705877       8.20651988       2.59153757       0.98354164      -0.36609132      -0.05752489
H        1.66883761       5.16497254       9.02137442      -0.74857680      -0.00044282       0.16549123
H        1.89095435       5.76839851       2.67548494      -0.75681376      -0.31061240       0.33761785
H        5.42093656       6.85431258       9.55058267       0.27651885      -1.89716051       0.51468632
H        4.65880273       7.84189896       1.67718112       0.96184859       0.73344235       1.27423364
H        0.17214550       5.48953134       8.18755627      -0.26013734      -0.01100214       0.17727338
H        1.37215018       4.48268919       1.60915625      -0.93734237       0.92167991       2.04866981
H        6.09200679       8.11976971       8.51675361      -0.77776013      -0.61592883       0.79820156
H        2.69119353       0.33981424       2.47123397      -3.00206665      -2.23037956      -2.99549153
H        7.19342550       4.16753108       8.91710456       0.89565814      -0.65001562       0.88868929
H        8.19786450       3.39513303       2.19213897      -0.01907087       1.26915055       2.21448138
H        4.89745770       1.45491787       8.65336892      -1.07785098      -1.10884394       1.40318766
H        2.96902178       1.40941386       3.76186571       0.21891744      -0.79793540      -1.08168463
H        7.39892684       3.05018339      10.25316364       0.53867143       0.02504394       0.09412579
H        7.44185193       4.01280407       3.66197897      -3.00992549      -0.06885052       1.82985413
H        3.42943040       1.49070725       9.71156159       1.06222923      -0.88077746      -0.24592441
Pb       4.54655527       4.28185570      12.74967838       0.23229749       0.08630194       0.13438602
Pb       8.99637732       0.09277201       6.26677304       0.23273067       0.11260703       0.14733022
Pb       9.04485125       8.78382243      12.77342611      -0.24074980      -0.11588927      -0.20108408
Pb       4.48971986       4.57416380       6.21384574      -0.28690623      -0.06745067      -0.18933429
I        7.09017052       6.28807285       6.47673554       0.37226454       0.08417772      -0.03774065
I        8.73736005       8.85888512       3.00139384      -0.01264011      -0.00077474       0.01213136
I        6.38476410       1.74426738      12.47812237      -0.01380027       0.04757002       0.02690715
I        1.84251297       2.54072583       0.02337104      -0.01941856       0.03352573      -0.06725743
I        1.89833395       2.65741826       5.99585196      -0.12928138      -0.10188871      -0.03792781
I        2.72654794       7.16552732       5.95980230      -0.18746384       0.03395955       0.00249987
I        7.17144479       6.15238225      12.45549741       0.01289110       0.07278058       0.07536883
I        6.27912490       1.88546038       6.48580825       0.14340449      -0.12120219       0.04385740
I        4.15861429       4.53024251       9.50136217      -0.07393906      -0.13754298       0.08432486
I        0.33410668       0.07333270       9.47707960       0.02527945      -0.02976869      -0.00508661
I        2.65131354       7.02760438       0.02202587       0.20473259       0.00991851      -0.04291618
I        4.91753931       4.40040668       3.02901874      -0.41340360       0.05733791      -0.07861957
48
Lattice="8.95139908 0.04460633 -0.05318123 0.04341137 8.71642987 0.01720424 -0.07545044 0.02508026 12.74556814" Properties=species:S:1:pos:R:3:forces:R:3 config_id=O-FAPI3_mixed_09 phase=O-FAPI3 mode=mixed seed=3185068890 source=O-FAPI3/CONTCAR energy=-225.23466047 stress="-0.013058491222742476 -0.0017341987418419832 -0.0011441867807836634 -0.0017341987418419832 -0.00730983843975462 -0.002163462720027228 -0.0011441867807836634 -0.002163462720027228 -0.005996608910197874" pbc="T T T"
C        4.53804157       0.41298420       3.05531771      -3.20536531       5.05468855      -0.67035113
C       -0.02402111       4.11378518       9.67300457      -1.31710274       0.62356055      -2.34248424
C        0.12858212       4.56115255       3.23740060       1.65488325       0.83109694       3.44223612
C        4.49134471       8.35925730       9.56879881       0.73975124       0.82837836      -0.72762508
N        4.88426459       7.91972693       2.97615146       3.90966270      -2.43684433       1.67800209
N        0.86377886       4.39108235       8.77202653      -1.06652127       0.09285978       0.09401915
N        1.22936330       5.02307521       2.73090276       0.97412293       1.06795338       3.37533740
N        5.66718143       8.03392344       9.06101734      -0.45877505       1.39457255      -1.36567260
N        3.39332166       0.96336729       2.50167310       4.86850446       1.26707114       3.44748505
N        7.65662527       4.16355621       9.36326992      -2.86488876      -0.60159366       0.70660327
N        8.12317962       4.03645854       2.61569643      -2.92305405      -2.01379065      -4.94929334
N        3.63899947       0.59321351       9.09832805       3.55587249      -0.91978158      -1.51171681
H        5.18177607       1.12263775       3.61371933      -0.21579453      -0.45797209      -0.22701525
H        0.24255892       3.91920655      10.64472990       1.01201687      -0.64184309       2.39946886
H        0.03226646       4.58552575       4.32485887       0.17473553       0.38422634       0.15354413
H        4.20785300       7.85935021      10.46197822      -0.45570835      -0.59012223       0.86263533
H        5.79601945       7.58474063       3.40727285      -1.23093578       0.45275755      -0.68291475
H        1.80401113       4.28991663       9.01202437       2.19882497      -0.03698180       0.43619583
H        1.92483800       5.44977631       3.42016403      -0.99542774      -0.58669113      -1.43216204
H        6.26984971       7.35748171       9.49200681       0.16756624      -0.45714164       0.43564844
H        4.37745779       7.25865007       2.47388995      -1.30412808      -1.56231977      -1.21696606
H        0.65578763       4.62129941       7.82566357      -0.40024631       0.16407996      -0.91583813
H        1.39035329       4.95418112       1.78279261       0.91200045       0.07606278      -2.66563627
H        6.05751316       8.52298595       8.20957177      -0.51572785      -0.52009397       0.98335848
H        2.79416082       0.39215094       2.02510525      -2.32691119      -1.51457523      -1.64170422
H        7.18487446       4.36478875       8.46850858       0.74722365      -0.00007606       0.10087894
H        8.13543921       3.95264944       1.50977330      -0.35327957      -0.01587199       2.60277738
H        3.90655557       1.10743458       8.24256474      -0.46869592      -0.08988786       0.51590757
H        3.23562369       1.96129444       2.73371492      -0.22529957      -0.86598898      -0.47464098
H        6.95281654       3.92443080      10.10886554       1.10710883       0.22527228      -0.70131561
H        7.25666490       3.72870360       3.11265124       0.77040181       0.29757237      -0.49896005
H        2.78747853       0.71167680       9.54214875      -2.37182343       0.52339016       0.89199959
Pb       4.46081058       4.33952044      12.51352022      -0.17241531      -0.15323862      -0.15282530
Pb      -0.00596416       0.13503332       6.12073268      -0.02044484      -0.07627051      -0.07220258
Pb       8.87535677       8.67807316      12.43727444      -0.03907910       0.19182003       0.06118617
Pb       4.41705007       4.50576554       6.10032284       0.09848815      -0.03618632       0.18890907
I        7.11783434       6.27094400       6.42480548      -0.01487638      -0.21036050      -0.26163155
I        8.61716956       8.76164789       2.93931651      -0.10101893      -0.04912480      -0.05281948
I        6.21992353       1.79016409      12.26556104       0.05289348      -0.07083642      -0.02073032
I        1.76030863       2.51795214      12.72884343      -0.13140160       0.23641983      -0.18459616
I        1.81670309       2.65661129       5.84212364       0.18019833       0.02434977      -0.03146617
I        2.57588513       6.97150893       5.89912897       0.05099920       0.00258821      -0.11570600
I        7.05391311       6.10680120      12.16432134       0.00238775       0.06256777       0.21303642
I        6.27024862       1.87020742       6.36051182      -0.09259596       0.02147755       0.02104578
I        4.07858206       4.45304088       9.34533328       0.57791973       0.00700296      -0.02103509
I        0.28479338       0.04927832       9.31377257      -0.22090395      -0.02633631       0.13601456
I        2.68783845       6.89081308       0.03894159       0.02524729       0.12067809      -0.00856059
I        4.83697357       4.32006615       2.92808403      -0.28838778      -0.01651737       0.19958017
48
Lattice="8.92707305 0.06240289 0.04615254 0.06073116 8.81184892 0.02656764 0.06547854 0.03873017 12.72425624" Properties=species:S:1:pos:R:3:forces:R:3 config_id=O-FAPI3_mixed_10 phase=O-FAPI3 mode=mixed seed=443631424 source=O-FAPI3/CONTCAR energy=-226.11531641 stress="-0.013809254992718964 0.0009358526085915035 0.0009063337531881679 0.0009358526085915035 -0.004202552429355734 -0.0012401846364527853 0.0009063337531881679 -0.0012401846364527853 -0.005475102167961931" pbc="T T T"
C        4.71846131       0.21280777       3.01087947       0.81664438      -0.64382347       0.85756312
C        0.15062905       4.06936771       9.54015572       0.26627945       1.04413045      -1.08208162
C        8.92310677       4.84929245       3.23038938      -0.38357176      -0.88571487      -0.66649411
C        4.59145203       8.39916373       9.54377004      -2.97715324       1.31183165      -1.21156497
N        4.41388045       8.04234875       2.25557573       0.34390651       1.08032053       0.81148094
N        0.74208798       4.98981035       8.81425345      -1.00506960       0.87554826      -1.18391292
N        1.23632874       5.14954618       3.04079377       0.69010358       0.97105445       0.83117865
N        5.84628992       8.51224374       9.45747202       3.17263986       0.51076788      -0.43230210
N        3.93448046       1.18200563       3.38754351      -0.07193253       0.55691641       0.36648058
N        7.83242595       3.76707332       9.47187146       0.91769178      -0.28393199       0.53509149
N        8.29653395       3.93882393       2.50776160       1.12017883       0.07127922      -0.31687421
N        3.66499549       0.33301798       8.82837007       2.32343264      -0.46786778       0.46029373
H        5.72997743       0.15205953       3.47278357      -0.46996353       0.22641630      -0.35384408
H        0.74833566       3.59125384      10.26251715       0.76163641      -0.73275307       1.12471958
H        8.37317449       5.30921618       4.01473668      -0.64891308       0.52204454       0.78231587
H        4.17988779       7.68057146      10.20941373      -0.40491015      -0.72272960       0.70962182
H        5.11200732       7.37948603       1.97208837       0.19306169      -0.52370364      -0.30969007
H        1.73739256       5.20182338       8.92117960      -0.02237333      -0.21555294       0.14330808
H        1.67802083       5.83457185       3.70338504      -0.53007988      -0.64143999      -0.55199375
H        6.44424794       7.96866562      10.06154651       0.26827749      -0.40845738       0.29492627
H        3.49261157       8.04970170       1.80826009       0.17068100      -0.25734735      -0.07266676
H        0.21739048       5.51181268       8.04769186       0.60950286      -0.71576412       0.99059300
H        1.83446406       4.73644110       2.35134098       0.45734586      -0.28980207      -0.53766340
H        6.27750923       0.37614558       8.82488785      -0.39741824      -0.21680439       0.10404023
H        2.99146534       1.31380722       3.01066304       0.16451135       0.04491126       0.19872006
H        7.22601741       4.16802846       8.81196444      -1.14310713       0.67944960      -1.10954784
H        8.75177081       3.42835837       1.74170035       0.13786253       0.17595732       0.12577918
H        3.95886668       1.01583227       8.14063319       0.12679936       0.16840546      -0.16245240
H        4.29287922       1.84571956       4.08936305      -0.40563511      -0.26820899      -0.41557635
H        7.47388189       3.10437274      10.13043200      -0.48505754      -0.62388654       0.52230963
H        7.31832109       3.74922847       2.63442994      -0.71777412       0.06029525       0.33451521
H        2.70179564       0.14850820       8.93989754      -1.57081768      -0.16373612       0.10894693
Pb       4.57968813       4.38991826      12.51542131      -0.04466089      -0.06806943      -0.09710482
Pb       0.05252089       0.13764211       6.09425556       0.04239268       0.08351879      -0.12400717
Pb       9.01919611       8.78399047      12.53543889       0.07747692       0.06209317       0.13921579
Pb       4.53241472       4.59496810       6.15366051      -0.04865328      -0.03437784       0.10517032
I        7.19284793       6.33774857       6.46670105       0.00824916       0.01915513       0.02303406
I        8.66293592       8.83667436       3.00037073       0.05047295       0.00420073       0.01466209
I        6.39591825       1.80971318      12.27771342      -0.09611703       0.09550219       0.07259700
I        1.84019027       2.55753199       0.05130807       0.10112292       0.00595875       0.08599124
I        1.88873987       2.73759220       5.91046649      -0.03669728      -0.02265182       0.06608953
I        2.69873223       7.10013470       5.90850458      -0.01373789       0.05090562      -0.11607679
I        7.19843042       6.25920700      12.25535950      -0.09280193      -0.04192638      -0.00349878
I        6.31558499       1.91571923       6.44460031      -0.07840603      -0.02253771      -0.03324108
I        4.17703223       4.49987410       9.32429770       0.09653916      -0.00794823       0.11949789
I        0.42469689       0.07586801       9.29002142      -0.54375127      -0.04784946       0.09133941
I        2.67588844       6.98131235       0.06272921      -0.72515252      -0.61777136      -1.14147828
I        4.86448636       4.38748258       2.99002017      -0.00305436       0.30399357      -0.09741021
48
Lattice="8.96825448 0.06070758 0.01293611 0.05908127 8.66174412 -0.02065945 0.018353 -0.03011724 12.71294811" Properties=species:S:1:pos:R:3:forces:R:3 config_id=O-FAPI3_mixed_11 phase=O-FAPI3 mode=mixed seed=1228369350 source=O-FAPI3/CONTCAR energy=-225.40660772 stress="-0.025181528631877538 0.002233601235682193 0.0004435115896555717 0.002233601235682193 -0.007421547584474652 -0.0019349506600914196 0.0004435115896555717 -0.0019349506600914196 -0.004830206170488143" pbc="T T T"
C        4.54795232       0.43348714       3.16478250       7.52422780      -3.98583862      -0.54787751
C        0.08395571       3.94677202       9.48652354       6.04466563       1.28225057       1.22687525
C        8.93406970       4.71547025       3.10411009      -2.07175367       1.68679121       3.22568636
C        4.47311851       8.54559766       9.55516059      -0.51764632       0.59006807      -1.37715175
N        5.13292877       8.12624259       2.39951503       2.17578635       1.00902761       1.78554371
N        0.64589962       4.88905443       8.76020734       1.56145427       0.21237793       0.15447272
N        1.19882416       5.01100158       3.02280806       0.89489450       2.47517123       2.25475529
N        5.56011560       7.84692927       9.64100103      -1.77784927       0.36630416       2.98611680
N        3.39645225       0.72249517       3.06292690     -11.59394173       3.01290095      -1.36639783
N        7.89472862       3.62361157       9.43456492      -7.72267049      -0.95026394      -2.16687306
N        8.32668078       3.81714286       2.43738869       0.52864112      -1.69351299      -2.23132834
N        3.99276322       0.39485499       8.43313591      -0.09057148      -0.12029300       0.62710232
H        5.12609162       0.86493968       3.95662824       0.76518112       0.39838174       0.39567819
H        0.71232211       3.44513031      10.25852512      -0.03698834       0.43698385      -0.41283928
H        8.28385583       5.19110317       3.91989816       1.00964838      -0.24867477      -0.92475130
H        3.82447879       0.03897098      10.46890954      -0.22871103       0.00462553       0.25596476
H        6.12475382       7.93155776       2.49688526       0.19012952       0.02197339       0.05954892
H        1.68067186       5.02031484       8.91477827      -1.07729653       0.01107161      -0.32553895
H        1.57574304       5.71770494       3.72654162      -0.65753672      -0.90389107      -0.90867691
H        5.81771683       7.51295858      10.55547412       0.39286882      -0.38928080       0.53739341
H        4.68134479       7.65860415       1.66987642      -1.31066279      -0.73738315      -1.42773855
H        0.17730004       5.40247151       8.00003498       0.00159729      -0.24763559       0.27697919
H        1.88514519       4.66247444       2.42495771       1.22867297      -1.00261605      -1.52058991
H        6.17159412       7.68938843       8.93482934       2.33172270      -0.62854319      -2.98383987
H        2.63698410       0.34157398       2.37257998       1.94905811       0.45542699       1.19693186
H        7.22412017       4.03227542       8.71043511       0.90790528      -0.56766189       1.06083850
H        8.89186158       3.38842687       1.68135005      -0.69375145      -0.30820123       0.06760015
H        4.55595252       0.34491158       7.57404642      -0.21322624       0.12295060       0.17738473
H        2.96217021       1.42443155       3.68859127       0.25558254      -0.17332035      -0.07729934
H        7.42851937       2.97314199      10.06834388       0.35383684      -0.21460148       0.24469952
H        7.32908150       3.63956944       2.53193647      -0.16409756       0.01670087       0.02736751
H        3.12852669       0.92493939       8.43659930      -0.10568969       0.08620660      -0.19464689
Pb       4.52597454       4.22996936      12.49850090      -0.03396079       0.13507598      -0.18663394
Pb       0.05167226       0.10615993       6.13647602      -0.25139820       0.01137541       0.07475054
Pb       9.01638650       8.57514424      12.47646768       0.02931659      -0.03080576      -0.09398443
Pb       4.46033184       4.46688784       6.05302384       0.17560759      -0.11691738       0.29409316
I        7.21921275       6.17238400       6.44136013      -0.15137132       0.05280999      -0.05879415
I        8.63757974       8.62590710       2.86642201       0.12884866       0.05129329       0.32595030
I        6.34352594       1.75549213      12.23167143       0.09726535      -0.15336365       0.00382189
I        1.88056415       2.53863009       0.05595150      -0.09949482      -0.08244954       0.02790949
I        1.87880851       2.63355680       5.83086437      -0.01333449       0.04847211      -0.00853282
I        2.68182375       7.00308244       5.82247901       0.03898356      -0.04766808      -0.12730102
I        7.15277759       6.04873220      12.22367912       0.12232236      -0.04471100       0.13736850
I        6.31647547       1.82523763       6.40535327       0.14881149       0.10875528      -0.14936499
I        4.14821470       4.38755317       9.26398819       0.03522249      -0.05483976       0.10005789
I        0.36250074       0.03617184       9.34971628       0.05774697       0.02332906      -0.24982413
I        2.74033794       6.88830909       0.01825287      -0.10787830       0.08758435      -0.04641330
I        4.88695960       4.30583006       2.97078241      -0.03016706      -0.00543509      -0.13849268
48
Lattice="9.02824178 -0.05720336 -0.023683 -0.05567093 8.69956033 0.01164407 -0.03360006 0.01697466 12.85466931" Properties=species:S:1:pos:R:3:forces:R:3 config_id=O-FAPI3_mixed_12 phase=O-FAPI3 mode=mixed seed=751784079 source=O-FAPI3/CONTCAR energy=-222.55048831 stress="-0.010493077337257324 -0.0043540684712505325 -0.0009057114996943539 -0.0043540684712505325 -0.012243108122627277 0.002207857569556666 -0.0009057114996943539 0.002207857569556666 0.0007615151689024073" pbc="T T T"
C        4.53186460       0.32100747       3.18847024       0.68542853       1.71947422       1.13785383
C        0.03260640       3.96487772       9.58616713       7.16940191       2.86781486       0.04848276
C        0.14797910       4.73156944       3.27569486       6.14471770       4.94389764       2.89294580
C        4.33255842       8.39525569       9.59935008       0.52839921      -5.79609480       3.72000010
N        5.02754140       8.09972903       2.43588074       3.62142989       0.93995966       2.54794330
N        0.54756040       4.93007683       8.87157812       3.96471638      -0.69007152       2.10323756
N        1.07766588       4.94534383       2.36718613       0.62884684      -0.13548512      -1.09346912
N        5.49583326       7.74563446       9.51271799      -0.50903770       1.91347264      -0.85235038
N        3.28247514       0.80913425       3.10016504       5.65013247     -12.61887925     -13.88695933
N        7.90553744       3.62561489       9.44665424     -11.66001558      -4.78302052       1.52431071
N        8.20107315       3.96413029       3.16475722      -7.34505333      -6.56502381      -4.25638845
N        4.01309086       0.68775004       8.95994224       0.39669510       4.85729286      -4.11218755
H        5.21584277       0.86351760       3.96961993      -1.09765002      -1.15898033      -1.21908444
H        0.68956967       3.49480162      10.30781639       0.08247028      -0.31685817       0.31832125
H        0.22874490       5.22429556       4.31007248       0.44722577      -0.26630133      -1.36297570
H        3.60743275       7.90588612      10.31174569       0.48176036       0.39517622      -0.59022858
H        6.09516711       7.83091197       2.54711942      -2.38526492       0.91895069       0.00596895
H        1.56084545       5.08674523       8.96577709      -0.32647246      -0.01380650      -0.08199643
H        1.99286246       5.41314700       2.51317078      -1.00146558      -0.19599357       0.45350708
H        5.70688723       6.95660125      10.07437645       0.04242052      -0.84218143       0.84995824
H        4.57405048       7.61846117       1.73404950      -1.67420624      -1.31101935      -2.06937939
H        0.13254674       5.38907454       8.14641267      -1.88200024       1.49068584      -2.45675755
H        1.05622487       4.44440595       1.44100042      -0.14734322       0.35111408       0.92099085
H        6.26398184       8.12677619       8.97239402       0.20898868      -0.00976119      -0.19020228
H        2.67342838       0.23355715       2.32617287       1.06450831       2.22188024       2.59956441
H        7.13524572       4.01581629       8.86524449       1.15502356       0.29802563      -0.05605516
H        7.98430532       3.39591906       2.09610155       0.43679961       1.83640485       3.98879421
H        4.76384606       1.11460543       8.26610821      -1.86110655      -0.41719754       0.99565583
H        3.00614842       1.30644595       3.70790679      -5.64425460       9.15279428      10.79049645
H        7.39367570       2.95589556      10.16255946       1.46926799       1.08755550      -1.30018573
H        7.48192364       3.86784989       3.92937657       0.77144638       0.08777531      -1.15523404
H        3.02513958       0.99510663       8.92897483       0.58159652      -0.08078932       0.14379024
Pb       4.48643758       4.18579792      12.59339801      -0.09252344       0.20801618       0.11863460
Pb       8.94641883       0.06963357       6.18904050       0.38385077      -0.16875882      -0.00730765
Pb       8.87842360       8.59501968      12.60940014       0.13188061      -0.09859815      -0.03048882
Pb       4.47455422       4.41229262       6.18952171      -0.30279520       0.07896937      -0.12370173
I        7.05564393       6.08970288       6.49834037       0.24805519       0.05620176      -0.11615597
I        8.69602567       8.60315352       3.00600692      -0.21861702      -0.04369345      -0.18162698
I        6.31957759       1.71617253      12.32134561       0.18163363      -0.16341222      -0.05750368
I        1.84483454       2.52404960       0.03021023      -0.10129789      -0.23799618      -0.21801353
I        1.87910387       2.58283450       5.89009174      -0.20168841      -0.05439908       0.14880616
I        2.63548300       6.86578179       5.95849819      -0.14480613       0.14250254       0.00062284
I        7.09736400       6.00865455      12.37234783       0.09445668      -0.05618648       0.07603424
I        6.33262635       1.69160881       6.45979640      -0.01902605       0.11958855      -0.00453384
I        4.08482028       4.35021247       9.39231756       0.08622201      -0.07191725       0.11056480
I        0.30337977       8.68233781       9.39236395       0.03337891       0.07808674       0.13148330
I        2.62015381       6.85092431      12.84209437      -0.04502648       0.24824243      -0.12426329
I        4.74781240       4.21992276       2.99304723      -0.03110276       0.08254329      -0.08091792
48
Lattice="9.05020869 -0.03224583 0.01666561 -0.03138199 8.65763304 -0.01112954 0.0236442 -0.01622459 12.82807693" Properties=species:S:1:pos:R:3:forces:R:3 config_id=O-FAPI3_mixed_13 phase=O-FAPI3 mode=mixed seed=532421674 source=O-FAPI3/CONTCAR energy=-225.577699 stress="-0.008050902842134396 -0.0056855700125317925 0.002861740522534031 -0.0056855700125317925 -0.0030141039491568145 0.0006177831502158442 0.002861740522534031 0.0006177831502158442 -0.00025447537725049293" pbc="T T T"
C        4.59424596       0.34196269       3.23330589      -0.65034237      -1.82698144      -3.26864914
C        0.09564952       3.95671923       9.55858705       8.48109729       2.67098478      -1.65263990
C        8.90607531       4.39087265       3.24542136       1.27500914       1.07640554      -0.87060901
C        4.47964062       8.05861975       9.33363778       1.95672148       3.77370863      -0.22381184
N        5.13808842       8.09030956       2.38763713       0.36423623       2.65157047       3.54890360
N        0.48110255       4.78015820       8.61310381      -0.05430493       1.49344060      -1.71335182
N        1.15171723       4.63650737       3.43852129      -0.16096273      -0.11290074       1.53908306
N        5.79951614       8.12852691       9.53734341      -1.59822666      -2.32906750       0.10891197
N        3.33867537       0.73306618       3.06118165       0.95041778      -0.68997311       0.08587391
N        8.01356344       3.60104850       9.79063569     -10.39565445      -2.61132643       1.55453602
N        8.39337140       4.30615017       2.02530648       0.90696224      -0.15233316       2.24063614
N        3.80772696       0.47367152       9.01643591      -0.55897397      -1.06102437      -0.11557648
H        5.21197255       0.80232740       3.96465181       0.50223177       0.45230184       0.84451585
H        0.92692733       3.60489398      10.19561524      -0.35886352      -0.21469654      -0.00891100
H        8.25402739       4.49062605       4.11027823      -0.23881816      -0.36611646       0.09634393
H        3.95494357       7.17873069       9.49100689      -0.78935635      -1.92913977       0.26837357
H        6.12048496       7.90187100       2.54364680       0.37458285      -0.18863263      -0.08476141
H        1.46861767       4.98474712       8.46072909      -0.07222146      -0.17164271       0.28214766
H        1.54004228       4.67891894       4.42722405      -0.89448461       0.03439678      -1.34407510
H        6.20299476       7.22023924       9.85102560       0.27809373       1.11718598      -0.19032873
H        4.64274237       7.62961458       1.69039406      -1.24457057      -1.08145005      -1.72434452
H        8.88311062       5.26958155       7.94715435       0.59856321      -1.00347744       1.07419785
H        1.88606620       4.60664771       2.74064432      -0.07561136      -0.01958438      -0.51423543
H        6.37840636       0.31729080       9.46592508       0.20267900       0.03446398      -0.02275237
H        2.68586850       0.27120177       2.41525267       0.25885727       0.19135262       0.17369715
H        7.12527291       3.93590579       9.23439623       2.02921351      -0.68661586       1.15448899
H        8.99619446       4.34531489       1.23128349       0.31050114      -0.14348854      -0.93336746
H        4.21957785       1.37824130       8.81188562       0.08987961       0.16512251      -0.01056662
H        2.97121312       1.38280487       3.73375675      -0.51717422       0.46517584       0.41033502
H        7.79752953       2.98340234      10.61305613      -0.11764818       0.41513667      -0.66696202
H        7.40606279       4.24143259       1.95949588      -1.21038360      -0.14054553      -0.39551289
H        2.79677202       0.32412713       8.83598277       0.42124487       0.35602896       0.16143931
Pb       4.51172050       4.21054612      12.59555100      -0.17102779      -0.17113433       0.08524274
Pb       9.05631918       0.09356699       6.22594681      -0.13332111      -0.24569909      -0.11171306
Pb       9.00107916       8.44950205      12.59173697       0.13440241       0.25019219       0.14689291
Pb       4.48348198       4.36049507       6.16830146       0.21036712       0.16039660      -0.03219441
I        7.17194766       6.16661809       6.49054688      -0.22345927      -0.07338484      -0.17710180
I        8.69956048       8.58129666       2.95328843      -0.02292428      -0.02282649       0.08137452
I        6.40138443       1.60217677      12.29556209      -0.05475766       0.11709706       0.08994628
I        1.79596572       2.49615165       0.05477273       0.11853799       0.11837885      -0.05631448
I        1.86173272       2.59591536       5.90344078       0.24319934      -0.11764049       0.37234720
I        2.59548840       6.96608958       5.95261421       0.12382122      -0.12729139       0.08345833
I        7.17594486       5.97702018      12.31284236      -0.24111710       0.00655406      -0.24686816
I        6.37376359       1.78907022       6.42826654      -0.07140694       0.09959760       0.12645163
I        4.15058564       4.32621709       9.36574955       0.07296196      -0.13392162       0.03824566
I        0.35723679      -0.01210930       9.40154166      -0.04432068       0.00632067      -0.08279920
I        2.64745354       6.81065233       0.06070048      -0.01659448      -0.03320759      -0.04675510
I        4.87756260       4.28234749       2.98172254       0.01294529      -0.00170972      -0.07324136
48
Lattice="8.93047021 0.02287628 -0.00931417 0.02226344 8.87768964 0.0579085 -0.0132144 0.08441873 12.81060048" Properties=species:S:1:pos:R:3:forces:R:3 config_id=O-FAPI3_mixed_14 phase=O-FAPI3 mode=mixed seed=662156461 source=O-FAPI3/CONTCAR energy=-226.09925061 stress="-0.010334756833321034 0.00010974955427336117 -0.0032528781423596716 0.00010974955427336117 -0.0005472671480889457 0.0009335211927216758 -0.0032528781423596716 0.0009335211927216758 0.0028547091129792123" pbc="T T T"
C        4.47067910       0.42040104       3.21123395       3.00654841      -3.03344082      -2.24517225
C        0.04996976       4.10298677       9.57462612       3.48297872       0.41392283       2.13513861
C        8.75943794       4.71023161       3.15615364      -3.42784372      -1.11013559      -0.91724456
C        4.41639571       8.58137603       9.58764343      -6.01518848       0.69653809       1.77744213
N        5.07926547       8.32559958       2.48596364       0.41529938       1.68032608       1.85993983
N        0.62541475       5.07014147       8.90499941      -0.69515967       0.24060797      -0.64859206
N        0.93324764       5.18886304       3.53936104       3.37822198       0.88264423       0.29060803
N        5.53437415       8.07847141       9.42213486       4.63171905      -2.41147779      -0.08494242
N        3.25078108       0.76664764       3.07212689       0.13655555       1.91533506       2.13386459
N        7.77924657       3.73486144       9.43162917      -3.23319501      -0.26465813      -1.09696528
N        8.55940768       4.02781849       2.02989579       1.16881335       0.64155410       0.60549761
N        3.93263983       0.80191285       8.98247952       0.05839580       0.86874895      -0.62240313
H        5.11784787       0.89284891       3.94319855       0.01208311       0.12954792       0.26703244
H        0.69218363       3.67173054      10.42919176      -0.94757408       0.21869327      -1.20824733
H        7.88539880       4.88973795       3.83127371       0.45726975      -0.20904162      -0.52314080
H        3.65174464       8.03775974      10.25467402       1.14356649       0.59868711      -0.75546453
H        6.11189937       8.16752908       2.62222712      -1.08866146       0.18817100      -0.15837700
H        1.57990295       5.36421417       8.98927927       0.76063357      -0.24023531       0.52195407
H        1.03808918       5.67630957       4.44118906      -0.10353136      -0.11815989      -0.26928844
H        5.87998466       7.25815187       9.94219719      -0.41955938       0.22903808      -0.01803613
H        4.61727376       7.83284884       1.71638312      -0.21367502       0.18192638       0.14963630
H        0.11339849       5.54837650       8.17794847      -0.41122340       0.26051940      -0.47589028
H        1.82866814       5.08472205       3.00287365      -0.85248969       0.10251214       0.45395274
H        6.24335304       8.50955290       8.85929839       0.58080224       0.42300281      -0.54747103
H        2.67654362       0.36059429       2.41806907      -1.93797735      -1.15251596      -1.94291225
H        7.09098349       4.18251563       8.75787261       1.01120774      -0.63062507       0.84162897
H        0.45300970       3.84615659       1.40295834      -0.91433762      -0.05216020       0.31083353
H        4.53475970       1.35594338       8.32928275      -0.62565481      -0.33124903       0.43915386
H        2.87790487       1.44711055       3.73313012      -0.34021619       0.13468800      -0.05741091
H        7.39088874       3.03604932      10.07710692       0.03274882       0.05931427      -0.03989078
H        7.63364729       3.76846191       1.70014988      -0.04788215      -0.02251383       0.20636385
H        2.93549468       1.04435452       9.11097237       0.59219811      -0.08948634      -0.10563095
Pb       4.48546498       4.42248418      12.59187038       0.11638085      -0.02374820       0.08641919
Pb       0.03256901       0.19085795       6.10351018      -0.18691049      -0.14706853       0.08827652
Pb       0.08466897       8.84444430      12.62476199      -0.31250939      -0.00503982      -0.06780577
Pb       4.36254159       4.60634054       6.20383865       0.31655224      -0.07037949      -0.08063916
I        7.06765034       6.32642768       6.47453185       0.07323758       0.05833287      -0.05354894
I        8.56442024       8.80652649       2.97255602       0.06971441       0.05105845       0.16397085
I        6.35739207       1.89471354      12.27772018      -0.06192799      -0.02680247      -0.00594615
I        1.85640760       2.54393574       0.04476728       0.31197533      -0.22214573      -0.29420913
I        1.79883018       2.73842856       5.95070711       0.01925347      -0.07986306       0.02166452
I        2.64161857       7.14090799       5.89876430      -0.00307076       0.19832057       0.17069089
I        7.10756825       6.22305164      12.36103050       0.00914830       0.20057555      -0.15049000
I        6.29465547       1.92199812       6.45669242      -0.00201108       0.01311575      -0.03846825
I        4.15735815       4.56342140       9.42939101      -0.03142884       0.02635473      -0.22599641
I        0.30725190       0.12825248       9.38179884       0.06809143      -0.03037013      -0.13829394
I        2.63637743       7.01632634       0.09747195       0.10891756      -0.13128912       0.02153166
I        4.86964708       4.39480013       2.92346011      -0.09028531      -0.01112948       0.22687768
48
Lattice="8.92204508 0.06399961 -0.00705759 0.06228511 8.86451891 -0.06167626 -0.0100129 -0.08991136 12.79737628" Properties=species:S:1:pos:R:3:forces:R:3 config_id=O-FAPI3_mixed_15 phase=O-FAPI3 mode=mixed seed=657797681 source=O-FAPI3/CONTCAR energy=-225.38625384 stress="-0.013596412060439923 0.006445765894925734 0.0019772176168806072 0.006445765894925734 -0.0012253361112083455 -0.000157806284723937 0.0019772176168806072 -0.000157806284723937 -0.003111209635246726" pbc="T T T"
C        4.55711594       0.36188776       3.20953338      -1.40122758      -1.59828854      -3.28124463
C        8.88619896       3.98960125       9.54228855       1.72125147      -0.52555507      -0.86330005
C        8.92544526       4.95199694       3.03414926      -7.95045190      -2.61190974       1.98208559
C        4.41810024       8.52119165       9.50286699       0.26703189      -3.63495106       2.83889363
N        5.14230351       8.31795577       2.34115647       3.23815358      -0.02409028       1.55145668
N        0.87591778       4.29410756       8.63503945       0.76776995      -3.43367330       3.15452921
N        1.18622143       5.13823474       2.88052083       4.61451682       4.27874766       1.23290644
N        5.65464760       8.13577965       9.42122422       1.19261583      -1.71661702       1.34096769
N        3.31875091       0.73260916       3.02326681      -1.38002359       0.85588601       0.89943360
N        7.68613292       4.45530782       9.61999290      -0.59437240       0.00969676      -0.02990791
N        8.31968237       3.79931343       2.61046450      -0.67082016       3.58792406       2.23571324
N        3.83719088       0.49762365       8.79783237      -2.92650963       2.90138840      -1.53866198
H        5.14294804       0.88650442       3.89681433       1.10320244       0.65375773       1.31108488
H        0.23029571       3.13854202      10.27783601       0.18442226       0.37588716      -0.26691554
H        8.31091330       5.61040292       3.74446198       0.61757208      -0.73626443      -1.14255213
H        3.77912892       7.93796336      10.27209569       0.71428814       1.09973688      -1.06399567
H        6.20228281       8.15163634       2.49830790      -1.86789636       0.08186494      -0.50312063
H        1.75800917       3.69660367       8.56419660      -1.36460895       1.19961551       0.13774763
H        1.62731710       5.97727742       3.34079312      -0.42122266      -0.90802564      -0.49091009
H        6.01175866       7.37398546      10.04722260      -0.38433337       0.87815721      -0.46147771
H        4.66726669       7.78336658       1.61724985      -0.36424059       0.10905851      -0.04862105
H        0.69479113       4.90670787       7.91679016      -0.65489370       1.86467975      -2.15372884
H        1.75523640       4.57686849       2.35654835       2.24443587      -1.87047766      -1.84973924
H        6.32854018       8.54188901       8.80602065       0.51053782       0.43392389      -0.60809114
H        2.62768924       0.29530971       2.39028648       0.69137993       0.09974798       0.25338573
H        7.34312334       5.13495027       8.95268389      -0.29251029       0.28238443      -0.23214762
H        8.78316390       3.21104070       2.01394357       1.54942982      -1.98422142      -1.98718747
H        4.32452196       1.03590065       8.08530724       0.35886759       0.03213901      -0.21939806
H        2.93339469       1.41814744       3.68923184      -0.05287055      -0.17424142      -0.21809266
H        7.11720534       4.21942335      10.43145255      -0.07117925      -0.07771918      -0.24647484
H        7.30882238       3.67939488       2.70225347       0.03094674       0.23913942       0.11236513
H        2.83999193       0.71392740       8.95085478       0.23388910      -0.01490482      -0.23058060
Pb       4.47140526       4.22352852      12.48072192      -0.05930321      -0.06879445       0.15865351
Pb       8.87489734       0.09217977       6.19697795       0.09240736      -0.00471139       0.01134188
Pb       8.94617921       8.70432945      12.51050443      -0.02423013       0.08943226      -0.06305326
Pb       4.45551362       4.52625574       6.14486417       0.03288603       0.03517038      -0.10916911
I        7.14151091       6.30101843       6.40480236       0.07790530      -0.00329690       0.01759241
I        8.61367349       8.85826549       2.91695283       0.06198286      -0.03368112       0.02014770
I        6.33211473       1.70092465      12.27735259      -0.04572790       0.09319256      -0.00719409
I        1.81896000       2.57379955       0.01395561      -0.00362912      -0.04703421       0.00199997
I        1.85161618       2.64680499       5.86645238       0.06016181      -0.12135869      -0.23479180
I        2.69183560       7.13010414       5.83931776      -0.04715517      -0.03804457      -0.06794885
I        7.13445336       6.09777710      12.23896221      -0.17350387       0.38982587       0.56740407
I        6.27196378       1.87401866       6.43631962       0.01177579       0.00351480       0.01822563
I        4.10398421       4.41154990       9.31325538       0.32338737       0.02727603       0.12669658
I        0.32451369       0.03144232       9.39199454       0.03056463      -0.01446690      -0.03200943
I        2.65606058       6.96977190      -0.03146293       0.07921958       0.02477571       0.01515412
I        4.82560397       4.42411229       2.93835516      -0.05989168      -0.00459513      -0.03747091
48
Lattice="9.11644575 -0.06566169 -0.00362615 -0.06390267 8.73547901 0.0394892 -0.00514458 0.05756716 12.62583936" Properties=species:S:1:pos:R:3:forces:R:3 config_id=O-FAPI3_mixed_16 phase=O-FAPI3 mode=mixed seed=297949624 source=O-FAPI3/CONTCAR energy=-226.17718895 stress="-0.00022646119990118882 -0.0031731004896710575 0.001013079150530568 -0.0031731004896710575 -0.0014377839746842476 0.003494732145825605 0.001013079150530568 0.003494732145825605 -0.00728577384568961" pbc="T T T"
C        4.40526442       0.50371682       3.04060666      -0.11244976       0.89788893       0.04059908
C        9.05716860       3.90172573       9.46144333      -2.86162779      -0.29690699       0.19165208
C        8.97185481       4.68638889       3.06619052      -0.79270097       1.14290025       0.05138243
C        4.40818748       8.34482163       9.43727935       2.16214982      -1.41651439       1.21797951
N        5.55373610      -0.00298282       2.64038372      -0.99244970      -1.07693975      -0.29833116
N        0.86200877       4.54088049       8.77814939       0.86936791       0.25557217      -0.44311479
N        1.08470085       5.17866601       3.12076364       2.36789116      -1.72980093      -1.25324771
N        5.73086572       8.13665937       9.37777918      -0.88276728       0.54265636      -0.40569532
N        3.20123633       0.00764744       2.87010553      -0.10637397      -1.04131569      -0.07995183
N        7.73359525       4.12873569       9.28115285       3.04808840      -1.59041570       1.38511427
N        8.50715532       3.64612436       2.43143291       1.42856402      -0.49579718      -0.12063598
N        3.81728141       0.48094480       8.72883494       1.25554655       1.31709964      -1.34447575
H        4.46934877       1.49555465       3.50866120      -0.07149059      -0.18350780       0.00486895
H        0.24201211       3.22688248      10.21575570      -0.16071114       0.11727423      -0.03570379
H        8.24674359       5.35516067       3.52677052      -0.25179722      -0.06937908       0.25014089
H        3.87381394       7.74233812      10.16132386      -0.26023666      -0.28785137       0.15262746
H        6.42513058       0.52334614       2.75933197      -0.16815382      -0.27480551       0.02036692
H        1.83447759       4.21830675       8.91254072      -0.10272858       0.43487292      -0.16574874
H        1.37116193       5.98635125       3.66764509      -0.19806262       0.12043871       0.29356355
H        6.20844826       7.48459636       9.99257932      -0.26314609      -0.24451329       0.32263252
H        5.52187989       7.80086663       2.21524312       0.20338791       0.84134504       0.31819168
H        0.64318002       5.22063570       8.05408882       0.14927550       0.07956590      -0.17478127
H        1.89966210       4.61850064       2.68179729      -1.51230536       1.04325058       0.82124087
H        6.35642517       8.68377460       8.78505897      -0.23290102       0.08949861      -0.11326527
H        2.99496127       7.79422793       2.47823024       0.15454294       1.03810024       0.19317763
H        7.37506596       4.79716893       8.66643912      -0.57234072       1.43964819      -1.46964185
H        0.04577959       3.08469471       1.93952579      -0.39520526       0.10325963      -0.01641095
H        4.31225534       1.07458179       8.06016424      -0.01202821       0.09041834      -0.16618559
H        2.34008347       0.45550946       3.23282475       0.72905904      -0.07873983      -0.15030935
H        7.10241532       3.70724617       9.92275773      -0.64686131      -0.54096863       0.63079798
H        7.52059194       3.48064803       2.39389890      -0.75790348      -0.13075784      -0.00945671
H        2.83155171       0.54732092       8.74992881      -1.61252685      -0.03339228       0.28292393
Pb       4.53832044       4.30777064      12.40238212      -0.08261431      -0.04781575      -0.00460646
Pb       0.03498803       0.13564326       6.06945274      -0.13148988       0.01326993       0.22541133
Pb       9.03858511       8.62446595      12.44213184       0.05361286       0.01515952      -0.13262761
Pb       4.50937819       4.45565810       6.07656466       0.11564143      -0.02512847       0.08355758
I        7.22230008       6.20314640       6.36781763      -0.01205436      -0.04872739      -0.07110771
I        8.72405689       8.65641422       3.00714795       0.33734927      -0.04844828      -0.14728018
I        6.41036446       1.72738539      12.16834790       0.10265933       0.08363436      -0.04318860
I        1.82045599       2.49656814       0.04638398       0.08061492       0.05193295       0.01030925
I        1.84487615       2.68422187       5.82449340       0.11834241      -0.00345769      -0.09379695
I        2.62283820       7.03343809       5.86232810      -0.05772842      -0.06032766       0.15298629
I        7.17996474       6.06685006      12.14016058      -0.03353826       0.09534587       0.17564346
I        6.39106006       1.80824369       6.34150899      -0.01470676       0.00671606      -0.04719349
I        4.18733846       4.45560389       9.25981130       0.22441889      -0.05286889       0.01818178
I        0.38657988       0.07156163       9.22580718      -0.12752259      -0.03180211       0.13501557
I        2.65694914       6.88396497       0.06405992      -0.03877926      -0.13806659      -0.13071118
I        4.86766597       4.31716759       2.94390172       0.06468989       0.12840067      -0.06089676
48
Lattice="8.97833059 -0.04616541 0.02191344 -0.04492868 8.83860903 -0.06117725 0.03108952 -0.08918389 12.98306119" Properties=species:S:1:pos:R:3:forces:R:3 config_id=O-FAPI3_mixed_17 phase=O-FAPI3 mode=mixed seed=4025761315 source=O-FAPI3/CONTCAR energy=-224.13075718 stress="-0.007021477285308794 -0.0075963100522106934 0.0021635126396172166 -0.0075963100522106934 0.005730882863223466 -0.0014989642083285605 0.0021635126396172166 -0.0014989642083285605 0.005815402745889325" pbc="T T T"
C        4.39237747       0.43452949       3.20894827       5.60223607      -0.28976896      -1.02061749
C        0.04820954       3.91093730       9.68544856       1.84808631       1.13235048      -1.31041007
C        8.87564166       4.50181059       3.24028599      -2.34199405      -5.57918946      -4.56703858
C        4.34645872       8.41816334       9.67373855       1.67226830       2.24867785      -3.50331931
N        5.42378861       8.77908415       2.38595190      -5.78794966      -0.08689017       1.34197150
N        0.57077798       5.04339504       9.22391071       3.47281546       0.41794250       2.08788666
N        0.76838951       5.43349963       3.39667170      -3.51756278       0.46952349       5.80173729
N        5.46192547       7.70042394       9.51676061      -1.32616089       0.24907673       1.58358408
N        3.19711062       0.02619252       3.15188427      -2.98592328       1.04491249       1.82384578
N        7.88989246       3.47747140       9.25760200      -2.50759409      -4.74452213       2.19982967
N        8.77619533       3.66841133       2.11708898       1.59295291       3.24080853       0.98522326
N        4.11157106       0.67715109       8.93242585      -1.20915072      -3.08495875       3.43346104
H        4.73756394       1.14131211       3.97669492      -0.49497077       0.01317829      -0.09824592
H        0.67700146       3.18570418      10.24853355      -0.33521497       0.68836738      -0.00947147
H        8.15236609       4.20263217       3.95192018      -0.65635245       0.36225950       1.31577659
H        3.66622983       8.09972543      10.40900539      -1.20475158      -0.28831813       0.90639500
H        6.32516780       0.40498966       2.51234466       1.71469830       0.74027082      -0.03484488
H        1.58020352       5.31806721       9.56644441      -2.23100959      -0.78741824      -0.79524977
H        0.67032524       5.89987922       4.31160281       0.71787237       0.21352165      -0.42171442
H        5.67701556       6.97323754      10.24332565       0.01976066       0.69419662      -0.80297372
H        5.17219753       8.14886651       1.61956919       0.58161588       0.15784995       0.01267056
H        0.13401821       5.76818869       8.66377090      -0.58012721      -0.18667575      -0.14201549
H        1.41938246       5.67962618       2.81388395       4.87831163       1.87079123      -4.35967500
H        6.19759880       8.05788914       8.93319290       0.61299539      -0.09877965      -0.39846565
H        2.83277809       8.22133638       2.39382151      -0.40895663      -0.67166878      -0.73220787
H        7.24028639       4.04972856       8.76161585      -0.54961957       0.57226521      -0.55747746
H        0.49538291       3.93547177       1.25013960      -1.98413048      -0.97969928       1.79246786
H        4.71947322       1.06664388       8.25801302       1.26947036       0.30398990      -1.11636826
H        2.47334028       0.41398074       3.85907702       1.32620829      -0.69623706      -1.46053959
H        7.49325112       2.50231401       9.68451888       0.96672481       2.88627574      -1.32472989
H        7.99422960       2.99833662       2.02826024       0.57454664       0.57932100      -0.01317805
H        3.17830768       1.07927463       8.97703139      -0.02199186      -0.04722524       0.19400489
Pb       4.45522917       4.15933058      12.71784875       0.21010037       0.04267491       0.10699902
Pb       8.94834436       0.03978964       6.27781215       0.13282340       0.02859323       0.04218983
Pb       8.93387139       8.61732101      12.70332149      -0.11187952      -0.10043177      -0.04795812
Pb       4.49892803       4.50946402       6.20820351      -0.20448299      -0.00726288      -0.17634338
I        7.15624165       6.20569830       6.57332490       0.05592135      -0.11226070      -0.06660928
I        8.60626738       8.75539109       3.01008883       0.41039597       0.06770442       0.01700845
I        6.30678247       1.60286391      12.44241295       0.13383240      -0.01983220      -0.15521161
I        1.81847627       2.53893352       0.04492238       0.59027217      -0.40481564      -0.68135320
I        1.89072747       2.55122220       6.00897009       0.04583971       0.01967731      -0.04451490
I        2.63083438       7.04193225       5.87675281      -0.00557895      -0.06421333       0.39538509
I        7.15260288       5.98831656      12.54807688      -0.02913450       0.07532792      -0.10750620
I        6.34052814       1.77729879       6.58592366       0.10271163       0.09381461      -0.34123909
I        4.14422141       4.37704454       9.43797185      -0.02828254      -0.05271856       0.10439818
I        0.32896034       8.74974923       9.43953419      -0.01011896       0.09508409       0.09148890
I        2.57348382       6.93279814       0.04730972      -0.01648876       0.01225856       0.01083450
I        4.82554215       4.32286299       2.95117065       0.01696642      -0.01782768       0.04212051
48
Lattice="9.01938999 0.0 0.0 0.0 8.77776784 0.0 0.0 0.0 12.79618681" Properties=species:S:1:pos:R:3:forces:R:3 config_id=O-FAPI3_small_rotation_01 phase=O-FAPI3 mode=small_rotation seed=117086298 source=O-FAPI3/CONTCAR energy=-227.26771897 stress="-5.099968938455753e-05 -3.4916125521833606e-06 -6.091040696329202e-05 -3.4916125521833606e-06 -0.0004149657106268518 -0.00027651966970956317 -6.091040696329202e-05 -0.00027651966970956317 0.00016766589058443964" pbc="T T T"
C        4.59594120       0.32708868       3.17392484       0.02408735      -0.02107896       0.00452612
C        0.07174528       4.03166406       9.56636042      -0.00039260       0.00069092       0.00082994
C        8.90880505       4.76144908       3.11936894      -0.05017971       0.02524307      -0.01098952
C        4.43794981       8.42054789       9.56636054       0.00057483      -0.00059322       0.00060250
N        5.10203748       8.20376924       2.36575838       0.14086687       0.05706063       0.06997911
N        0.63672086       4.95560970       8.82585276       0.00094406      -0.00298151      -0.00215145
N        1.14199692       5.15373402       3.16408215      -0.07835585      -0.03390350      -0.03198722
N        5.69153868       8.04131768       9.46865219       0.00177894       0.00325501       0.00270987
N        3.36002131       0.76892009       3.12771961       0.02687041      -0.04485436      -0.04127517
N        7.83754631       3.65243376       9.46865219      -0.00104943       0.00230887       0.00311940
N        8.45506380       3.78089350       2.37515487      -0.16410467       0.04273531       0.10737959
N        3.87297414       0.56672578       8.82585276      -0.00078850      -0.00089550      -0.00251276
H        5.24967669       0.73890679       3.94905488      -0.00710544       0.01234731       0.00358831
H        0.68832647       3.54269525      10.32697075      -0.00324723       0.00211792      -0.00033164
H        8.19216545       5.29008839       3.75557552       0.01823900      -0.00575169      -0.01044994
H        3.82136852       7.93157926      10.32697088      -0.00000856       0.00010391       0.00311491
H        6.09586765       7.97509443       2.44000403      -0.06196293       0.02247791      -0.00065100
H        1.63810522       5.13205363       8.93355635       0.00064106      -0.00158619      -0.00026421
H        1.42114163       5.88664375       3.82052986       0.05487197      -0.01065053      -0.00523722
H        6.06774095       7.35715221      10.12925149      -0.00067284       0.00271851       0.00046232
H        4.55222043       7.78821865       1.60778687      -0.02892273      -0.04669090      -0.04598027
H        0.12370950       5.44233474       8.08462392      -0.00112272      -0.00133763      -0.00337812
H        1.87608642       4.70748951       2.61614866       0.04211807       0.01304206       0.01297205
H        6.33853939       8.45426268       8.79848837      -0.00003216       0.00056345      -0.00188485
H        2.68126586       0.42866931       2.44818066      -0.00732864       0.00594160       0.00529856
H        7.19054560       4.06537885       8.79848850       0.00021020       0.00112594      -0.00120811
H        0.04706570       3.25409664       1.74413434       0.01060657      -0.01123133      -0.08028856
H        4.38598549       1.05345073       8.08462392       0.00140936      -0.00140589      -0.00224331
H        3.02955312       1.42723529       3.83723630      -0.03525991       0.01999798       0.01164082
H        7.46134412       2.96826829      10.12925149      -0.00037359       0.00209396       0.00105598
H        7.44958807       3.59570551       2.36008672       0.06995536      -0.00406986       0.04028017
H        2.87158987       0.74316971       8.93355635       0.00021362      -0.00318069      -0.00071761
Pb       4.53083798       4.28292590      12.55414681      -0.01190090       0.01672230       0.01681718
Pb       0.02114307       0.10595802       6.15605340      -0.00936503      -0.00204148       0.00713013
Pb       8.99824692       8.67180982      12.55414681       0.01324515      -0.00721049      -0.00286094
Pb       4.48855201       4.49484194       6.15605340       0.01433561       0.00088808      -0.00545345
I        7.17846837       6.23686150       6.43993604       0.00669266      -0.00248960      -0.01366822
I        8.66456556       8.72915928       2.96947351      -0.02624321      -0.00516769      -0.00555987
I        6.36795414       1.71737739      12.30292209       0.00050501       0.00230218      -0.00132792
I        1.84092144       2.54090660       0.04184264       0.05900411      -0.04785783      -0.03418563
I        1.85825933       2.67150644       5.90482868      -0.00159705       0.00819299       0.02170638
I        2.65143567       7.06039036       5.90482881       0.00976850       0.02924226       0.04211330
I        7.16113084       6.10626131      12.30292209      -0.00277334       0.00248488       0.00110577
I        6.35061653       1.84797758       6.43993604      -0.00181159      -0.00380550       0.00299111
I        4.15487048       4.43749221       9.36756705      -0.00084780      -0.00063196       0.00029634
I        0.35482443       0.04860838       9.36756692      -0.00040702       0.00105309       0.00028910
I        2.66877355       6.92979043       0.04184264      -0.04430876      -0.01803020      -0.03299560
I        4.86451933       4.34027536       2.96947351       0.04322351       0.00273638      -0.02240636
48
Lattice="9.01938999 0.0 0.0 0.0 8.77776784 0.0 0.0 0.0 12.79618681" Properties=species:S:1:pos:R:3:forces:R:3 config_id=O-FAPI3_small_rotation_02 phase=O-FAPI3 mode=small_rotation seed=3815716637 source=O-FAPI3/CONTCAR energy=-227.2856676 stress="-0.0003583484320931617 1.3481940579818503e-05 1.8062590368813353e-05 1.3481940579818503e-05 -7.853461245563072e-05 1.7844724251265273e-06 1.8062590368813353e-05 1.7844724251265273e-06 0.0005062452475401894" pbc="T T T"
C        4.58144027       0.35721995       3.16826701      -0.00024329      -0.00064837       0.00025871
C        0.07174528       4.03166406       9.56636042      -0.00055859       0.00047013       0.00016478
C        8.94764462       4.74610387       3.16826714       0.00039243      -0.00073970       0.00004053
C        4.43847573       8.41557484       9.56351314       0.00180231      -0.00441553       0.00231247
N        5.14641595       8.21104206       2.42775923       0.00009461       0.00203057      -0.00181526
N        0.63672086       4.95560970       8.82585276       0.00087811      -0.00205530      -0.00169359
N        1.18184368       5.12533408       3.07055866       0.00110516      -0.00234691       0.00180347
N        5.69047592       8.03445171       9.45356561       0.00700455      -0.00442123       0.01238405
N        3.32785131       0.73645025       3.07055866      -0.00123301      -0.00230339       0.00175822
N        7.83754631       3.65243376       9.46865219      -0.00115660       0.00296729       0.00159946
N        8.38266904       3.82215805       2.42775936      -0.00004324       0.00185045      -0.00159151
N        3.87360062       0.57775953       8.84335334       0.00463131       0.00575872      -0.00615931
H        5.19802156       0.84618876       3.92887722      -0.00172228      -0.00118670       0.00126134
H        0.68832647       3.54269525      10.32697075      -0.00185420       0.00101107       0.00174223
H        8.33106343       5.23507259       3.92887735       0.00160235      -0.00115943       0.00111978
H        3.82326160       7.91377224      10.31683681       0.00149281       0.00262105       0.00015774
H        6.14780021       8.03459813       2.53546294       0.00005589       0.00221002      -0.00103414
H        1.63810522       5.13205363       8.93355635      -0.00137478      -0.00189940      -0.00130281
H        1.55804587       5.80949955       3.73115809       0.00068648      -0.00210993       0.00146000
H        6.06703320       7.33637418      10.09923919      -0.00519677       0.01455547      -0.00109498
H        4.63340450       7.72431711       1.68653051       0.00030046       0.00184915      -0.00250019
H        0.12370950       5.44233474       8.08462392       0.00037199      -0.00165794      -0.00279552
H        1.82884430       4.71238908       2.40039510      -0.00037777      -0.00075848      -0.00051957
H        6.33621419       8.45838753       8.78907076      -0.00028181       0.00187813      -0.00115060
H        2.68085060       0.32350507       2.40039510       0.00033646      -0.00091860      -0.00045354
H        7.19054560       4.06537885       8.79848850       0.00117015       0.00032706      -0.00130226
H        8.89568040       3.33543310       1.68653064      -0.00041255       0.00211747      -0.00220575
H        4.38531310       1.07726077       8.10976561      -0.00420028      -0.00756490       0.00036203
H        2.95164913       1.42061563       3.73115809      -0.00063667      -0.00206745       0.00157707
H        7.46134412       2.96826829      10.12925149      -0.00065188       0.00157705       0.00250900
H        7.38128477       3.64571412       2.53546307       0.00010134       0.00232847      -0.00108391
H        2.87319857       0.75516190       8.95836252      -0.00092445      -0.00362953      -0.00432490
Pb       4.53083798       4.28292590      12.55414681       0.00339795       0.00116343       0.00468394
Pb       0.02114307       0.10595802       6.15605340       0.00383574       0.00060135       0.00066975
Pb       8.99824692       8.67180982      12.55414681      -0.00392032      -0.00173183      -0.00146573
Pb       4.48855201       4.49484194       6.15605340      -0.00195608       0.00012634      -0.00459050
I        7.17846837       6.23686150       6.43993604       0.00113601      -0.00285828      -0.00170556
I        8.66456556       8.72915928       2.96947351      -0.00008948      -0.00009874       0.00107219
I        6.36795414       1.71737739      12.30292209      -0.00090614      -0.00095771      -0.00358316
I        1.84092144       2.54090660       0.04184264       0.00066433       0.00081599      -0.00070880
I        1.85825933       2.67150644       5.90482868       0.00090244      -0.00061032       0.00074608
I        2.65143567       7.06039036       5.90482881       0.00096205      -0.00068967       0.00305410
I        7.16113084       6.10626131      12.30292209      -0.00225085       0.00074515      -0.00308077
I        6.35061653       1.84797758       6.43993604      -0.00279505      -0.00101769       0.00386057
I        4.15487048       4.43749221       9.36756705       0.00036991       0.00049202       0.00040511
I        0.35482443       0.04860838       9.36756692      -0.00045181       0.00020757       0.00146472
I        2.66877355       6.92979043       0.04184264      -0.00001844       0.00033416      -0.00112486
I        4.86451933       4.34027536       2.96947351      -0.00003851      -0.00019107       0.00081989
48
Lattice="9.01938999 0.0 0.0 0.0 8.77776784 0.0 0.0 0.0 12.79618681" Properties=species:S:1:pos:R:3:forces:R:3 config_id=O-FAPI3_small_rotation_03 phase=O-FAPI3 mode=small_rotation seed=2763444321 source=O-FAPI3/CONTCAR energy=-227.19257841 stress="-0.001843548152965284 -8.831837149723562e-05 0.00019805594831458424 -8.831837149723562e-05 0.0003858841415943847 -0.0006022213952405715 0.00019805594831458424 -0.0006022213952405715 0.0005773708765879403" pbc="T T T"
C        4.59219427       0.34133219       3.16909608       0.01862286      -0.01047750      -0.00065144
C        0.05774421       3.96691748       9.52567468      -0.00740150      -0.02373466      -0.00312503
C        8.94232805       4.74996354       3.16123448      -0.01332755       0.00361721      -0.00077617
C        4.51985200       8.34902154       9.56735199       0.09468754      -0.00263196       0.00867980
N        5.11867194       8.20728359       2.38638481       0.08661840       0.03507160       0.04506258
N        0.69841385       4.92535660       8.89944658      -0.22594008       0.07822781      -0.06886478
N        1.17370179       5.13986822       3.06951461       0.00251407      -0.00410532       0.00666907
N        5.80429016       8.26152625       9.30771595       0.08877860      -0.22522485       0.22609643
N        3.34655563       0.75349404       3.11117529       0.01822749      -0.03095154      -0.02524468
N        7.78771553       3.73679777       9.42927922      -0.00488657      -0.08626143       0.06240548
N        8.39527715       3.80438193       2.43471153      -0.02388146       0.00244352       0.01430650
N        3.69138044       0.40618313       8.98618732       0.55546328       0.09787719      -0.15955665
H        5.23636840       0.78961464       3.93190224      -0.00553754       0.00442688       0.00437717
H        0.63877710       3.31211031      10.18249975      -0.00490026       0.02951492      -0.01081647
H        8.31209791       5.24896578       3.90393054       0.00372377      -0.00225796       0.00142745
H        4.11303205       7.67776290      10.33004478      -0.01502243       0.03935920      -0.01106165
H        6.11743851       8.00343082       2.46646245      -0.03931462       0.01023019       0.00266939
H        1.71558863       4.98040505       8.98792338       0.09088480       0.03965705       0.02217990
H        1.53533567       5.84205936       3.71924573       0.00160058      -0.01526451      -0.00446044
H        6.39013625       7.62504986       9.85332054      -0.14801789       0.06472398      -0.05264590
H        4.57847344       7.75811617       1.64077352      -0.01530886      -0.02418939      -0.03362075
H        0.22060048       5.56449634       8.25703180       0.04382224      -0.08460954       0.02645185
H        1.83253648       4.71914577       2.41592301       0.00382335       0.00180716       0.00179443
H        6.26717545       0.08043832       8.62363769      -0.02069081       0.07549024      -0.11059958
H        2.67573742       0.37886242       2.44191667      -0.00561312       0.00779513       0.00276128
H        7.17075228       4.30681390       8.85248559       0.00024987       0.01093853      -0.02853728
H        8.92170260       3.30697760       1.71016545      -0.00046191       0.00366306      -0.01429719
H        4.00040513       1.05110592       8.25264770      -0.07514967      -0.11116359       0.11481353
H        3.00118173       1.42390211       3.80202401      -0.02369257       0.01291427       0.00493830
H        7.35830995       3.00648854      10.00222016       0.04177123       0.05538273      -0.00023618
H        7.39453570       3.62001878       2.53485986       0.01414379       0.00664083       0.00018866
H        2.69517556       0.35066682       9.20978699      -0.18189444       0.09264988      -0.02668970
Pb       4.53083798       4.28292590      12.55414681       0.01243121       0.00735593       0.04475512
Pb       0.02114307       0.10595802       6.15605340      -0.02775468      -0.00292029      -0.07618241
Pb       8.99824692       8.67180982      12.55414681      -0.01271936      -0.01212367       0.07417953
Pb       4.48855201       4.49484194       6.15605340       0.02678475       0.00543706      -0.03805033
I        7.17846837       6.23686150       6.43993604       0.03501157      -0.02006616       0.02717464
I        8.66456556       8.72915928       2.96947351      -0.01520548      -0.00245661      -0.00299714
I        6.36795414       1.71737739      12.30292209       0.00828642       0.01200807      -0.02020166
I        1.84092144       2.54090660       0.04184264       0.00061136      -0.00789628      -0.01374507
I        1.85825933       2.67150644       5.90482868       0.00308271       0.00249717       0.02744870
I        2.65143567       7.06039036       5.90482881      -0.00270503       0.00260218       0.01229865
I        7.16113084       6.10626131      12.30292209      -0.00856856       0.05554423      -0.05494372
I        6.35061653       1.84797758       6.43993604      -0.03748867      -0.02302172       0.02465578
I        4.15487048       4.43749221       9.36756705       0.06592766      -0.02072412      -0.00763981
I        0.35482443       0.04860838       9.36756692      -0.29091459      -0.04503540       0.04408761
I        2.66877355       6.92979043       0.04184264      -0.01995856      -0.00425511      -0.03663741
I        4.86451933       4.34027536       2.96947351       0.00928867       0.00149558       0.00215959
48
Lattice="9.01938999 0.0 0.0 0.0 8.77776784 0.0 0.0 0.0 12.79618681" Properties=species:S:1:pos:R:3:forces:R:3 config_id=O-FAPI3_small_rotation_04 phase=O-FAPI3 mode=small_rotation seed=343322148 source=O-FAPI3/CONTCAR energy=-227.28565857 stress="-0.0004840907362714652 1.7496572872223503e-06 -1.7766393311735437e-05 1.7496572872223503e-06 -2.9348399789107697e-05 -5.478968976352199e-05 -1.7766393311735437e-05 -5.478968976352199e-05 0.0004897068898734988" pbc="T T T"
C        4.58144027       0.35721995       3.16826701      -0.00049748      -0.00040226       0.00033954
C        0.07174528       4.03166406       9.56636042      -0.00001369       0.00049536       0.00063594
C        8.94764462       4.74610387       3.16826714       0.00021911      -0.00037997       0.00029156
C        4.44456733       8.41243319       9.56635811       0.00754245      -0.00082862      -0.00322034
N        5.14641595       8.21104206       2.42775923       0.00026711       0.00192813      -0.00222176
N        0.63672086       4.95560970       8.82585276       0.00000569      -0.00136561      -0.00157025
N        1.18184368       5.12533408       3.07055866       0.00135010      -0.00247353       0.00169589
N        5.70720229       8.06698493       9.46021605       0.00888687      -0.01242011       0.01179862
N        3.32785131       0.73645025       3.07055866      -0.00108358      -0.00263477       0.00172961
N        7.83754631       3.65243376       9.46865219      -0.00092179       0.00151032       0.00113232
N        8.38266904       3.82215805       2.42775936      -0.00017918       0.00180419      -0.00226754
N        3.85173383       0.54782971       8.83430349       0.06123627       0.01159162      -0.02675801
H        5.19802156       0.84618876       3.92887722      -0.00144403      -0.00116397       0.00139384
H        0.68832647       3.54269525      10.32697075      -0.00109661       0.00107160       0.00121618
H        8.33106343       5.23507259       3.92887735       0.00124709      -0.00097640       0.00182752
H        3.84491337       7.90280969      10.32694337      -0.00012356       0.00502265       0.00130554
H        6.14780021       8.03459813       2.53546294      -0.00000329       0.00205204      -0.00081331
H        1.63810522       5.13205363       8.93355635       0.00054288      -0.00335322      -0.00090087
H        1.55804587       5.80949955       3.73115809       0.00043813      -0.00218464       0.00129818
H        6.10461276       7.38901604      10.11475802      -0.01100908       0.00077055      -0.00059711
H        4.63340450       7.72431711       1.68653051       0.00022222       0.00181040      -0.00215481
H        0.12370950       5.44233474       8.08462392      -0.00084329      -0.00198013      -0.00312251
H        1.82884430       4.71238908       2.40039510      -0.00024974      -0.00091133      -0.00046671
H        6.33972228       8.50087061       8.78945926      -0.00483173       0.00499199      -0.00556465
H        2.68085060       0.32350507       2.40039510       0.00029970      -0.00083747      -0.00049191
H        7.19054560       4.06537885       8.79848850      -0.00015976       0.00153657      -0.00068007
H        8.89568040       3.33543310       1.68653064      -0.00002192       0.00179525      -0.00219887
H        4.34801179       1.05236281       8.09358995      -0.00847611      -0.01614007       0.01332472
H        2.95164913       1.42061563       3.73115809      -0.00078771      -0.00182878       0.00153737
H        7.46134412       2.96826829      10.12925149      -0.00073491       0.00316240       0.00221319
H        7.38128477       3.64571412       2.53546307       0.00002095       0.00224245      -0.00070485
H        2.84660426       0.69715604       8.94796588      -0.02672156       0.00885823       0.00182417
Pb       4.53083798       4.28292590      12.55414681       0.00059901       0.00177148      -0.00064704
Pb       0.02114307       0.10595802       6.15605340      -0.00232604      -0.00077733      -0.00656626
Pb       8.99824692       8.67180982      12.55414681       0.00034475      -0.00037934       0.00795024
Pb       4.48855201       4.49484194       6.15605340       0.00131702      -0.00042594       0.00120767
I        7.17846837       6.23686150       6.43993604       0.00038965      -0.00123824      -0.00104650
I        8.66456556       8.72915928       2.96947351       0.00025739      -0.00009622      -0.00007110
I        6.36795414       1.71737739      12.30292209       0.00195926       0.00270398       0.00249232
I        1.84092144       2.54090660       0.04184264      -0.00034573       0.00016447       0.00008371
I        1.85825933       2.67150644       5.90482868       0.00088456      -0.00227711       0.00040187
I        2.65143567       7.06039036       5.90482881      -0.00141397      -0.00166241      -0.00083330
I        7.16113084       6.10626131      12.30292209      -0.00058211       0.00840856      -0.00619419
I        6.35061653       1.84797758       6.43993604      -0.00852383      -0.00571219       0.01003097
I        4.15487048       4.43749221       9.36756705       0.00153331       0.00207114      -0.00038718
I        0.35482443       0.04860838       9.36756692      -0.01605522      -0.00361113       0.00391864
I        2.66877355       6.92979043       0.04184264      -0.00112611       0.00052604      -0.00027770
I        4.86451933       4.34027536       2.96947351       0.00000851      -0.00022864       0.00010722
48
Lattice="9.01938999 0.0 0.0 0.0 8.77776784 0.0 0.0 0.0 12.79618681" Properties=species:S:1:pos:R:3:forces:R:3 config_id=O-FAPI3_small_rotation_05 phase=O-FAPI3 mode=small_rotation seed=100293489 source=O-FAPI3/CONTCAR energy=-227.28182497 stress="-0.0003704339972853011 4.377561692604122e-05 0.00011510896963901074 4.377561692604122e-05 -0.00014537865986566267 9.58179628930958e-06 0.00011510896963901074 9.58179628930958e-06 0.00034102699596701044" pbc="T T T"
C        4.58144027       0.35721995       3.16826701      -0.00051944       0.00102201       0.00129741
C        0.08820747       4.01663011       9.54115500       0.02563843      -0.01117098      -0.01610780
C        8.94764462       4.74610387       3.16826714       0.00076369      -0.00013998       0.00071360
C        4.43794981       8.42054789       9.56636054      -0.00409908       0.00169291       0.00137377
N        5.14641595       8.21104206       2.42775923       0.00076698       0.00123894      -0.00367746
N        0.62329387       4.93715690       8.77464498       0.03281989      -0.01471365       0.03542413
N        1.18184368       5.12533408       3.07055866       0.00082487      -0.00287388       0.00214189
N        5.69153868       8.04131768       9.46865219       0.00374503       0.00009520      -0.00036329
N        3.32785131       0.73645025       3.07055866      -0.00161435      -0.00326414       0.00164212
N        7.83722937       3.68344456       9.54091840       0.05002492       0.01758689      -0.03027019
N        8.38266904       3.82215805       2.42775936      -0.00068835       0.00196136      -0.00269566
N        3.87297414       0.56672578       8.82585276       0.00004726      -0.00236770      -0.00026563
H        5.19802156       0.84618876       3.92887722      -0.00039711      -0.00044600       0.00368664
H        0.74736397       3.48926445      10.23771005      -0.00990768       0.00714441      -0.00270499
H        8.33106343       5.23507259       3.92887735       0.00196558      -0.00158637       0.00105731
H        3.82136852       7.93157926      10.32697088       0.00050256       0.00022527       0.00091215
H        6.14780021       8.03459813       2.53546294      -0.00023004       0.00243167      -0.00032075
H        1.63592216       5.07624924       8.80185262      -0.01315301       0.01629576       0.03568538
H        1.55804587       5.80949955       3.73115809       0.00061370      -0.00195709       0.00139384
H        6.06774095       7.35715221      10.12925149      -0.00119811       0.00628857       0.00415906
H        4.63340450       7.72431711       1.68653051      -0.00085763       0.00112463      -0.00245652
H        0.06880478       5.45824444       8.08870641      -0.00695339      -0.00614179      -0.03829465
H        1.82884430       4.71238908       2.40039510      -0.00036882      -0.00066079      -0.00082331
H        6.33853939       8.45426268       8.79848837      -0.00022464       0.00496569      -0.00105154
H        2.68085060       0.32350507       2.40039510       0.00016904      -0.00086916      -0.00102955
H        7.15248909       4.13383394       8.93549881      -0.01701218      -0.00605360       0.00125251
H        8.89568040       3.33543310       1.68653064       0.00039431       0.00199002      -0.00227102
H        4.38598549       1.05345073       8.08462392       0.00400143      -0.00040839      -0.00477690
H        2.95164913       1.42061563       3.73115809       0.00026399      -0.00229090       0.00145309
H        7.49227585       2.99777528      10.21683768      -0.03080406      -0.01740914       0.00718854
H        7.38128477       3.64571412       2.53546307       0.00012421       0.00184887      -0.00012061
H        2.87158987       0.74316971       8.93355635       0.00093030      -0.00616894      -0.00108316
Pb       4.53083798       4.28292590      12.55414681      -0.01272544       0.00536735       0.01445197
Pb       0.02114307       0.10595802       6.15605340      -0.01093105       0.00443701      -0.00136030
Pb       8.99824692       8.67180982      12.55414681       0.00717266      -0.00197697       0.00342321
Pb       4.48855201       4.49484194       6.15605340       0.01670399      -0.01209954      -0.00475174
I        7.17846837       6.23686150       6.43993604      -0.01777309       0.01553556      -0.00919957
I        8.66456556       8.72915928       2.96947351       0.00039490      -0.00048647      -0.00116200
I        6.36795414       1.71737739      12.30292209      -0.00770737      -0.00928286       0.01805212
I        1.84092144       2.54090660       0.04184264      -0.00226136       0.00164846      -0.00667593
I        1.85825933       2.67150644       5.90482868       0.00747104      -0.00416652      -0.00619614
I        2.65143567       7.06039036       5.90482881       0.00118751      -0.00281612       0.00072507
I        7.16113084       6.10626131      12.30292209      -0.00800106       0.01191952       0.00919290
I        6.35061653       1.84797758       6.43993604       0.00613038       0.00273901       0.00532236
I        4.15487048       4.43749221       9.36756705      -0.01443325      -0.00145419      -0.01387724
I        0.35482443       0.04860838       9.36756692      -0.00187634       0.00193566       0.00081048
I        2.66877355       6.92979043       0.04184264       0.00109132       0.00107137       0.00223414
I        4.86451933       4.34027536       2.96947351      -0.00001115       0.00023904      -0.00205775
48
Lattice="9.01938999 0.0 0.0 0.0 8.77776784 0.0 0.0 0.0 12.79618681" Properties=species:S:1:pos:R:3:forces:R:3 config_id=O-FAPI3_small_rotation_06 phase=O-FAPI3 mode=small_rotation seed=1277882832 source=O-FAPI3/CONTCAR energy=-227.24479011 stress="-0.0003649628027327161 -0.00017107057139751768 -0.0001616174188528017 -0.00017107057139751768 0.0001676471036419707 0.00020027248920895002 -0.0001616174188528017 0.00020027248920895002 0.0007738456197051007" pbc="T T T"
C        4.58144027       0.35721995       3.16826701       0.00950769      -0.00297965       0.00205278
C        0.08219884       3.98374517       9.51879456       0.01168586      -0.05028825       0.01128370
C        8.96286872       4.83209659       3.10545680      -0.00202568       0.02015737      -0.00113021
C        4.43794981       8.42054789       9.56636054      -0.00324916       0.00006269       0.00100864
N        5.14641595       8.21104206       2.42775923       0.00240693      -0.00019571       0.00910682
N        0.61312695       5.04412349       8.95760115      -0.02475240       0.05351059      -0.01646341
N        1.23951150       5.02692617       3.02067221       0.00391487       0.10714694       0.08904820
N        5.69153868       8.04131768       9.46865219       0.00491661       0.00708510      -0.00023266
N        3.32785131       0.73645025       3.07055866      -0.00584629       0.00001228      -0.00429160
N        7.85236282       3.60404939       9.37697404      -0.01539602      -0.05456027       0.08115941
N        8.31208465       3.84869649       2.53045311       0.27813605      -0.09359527      -0.07911782
N        3.87297414       0.56672578       8.82585276      -0.00652489      -0.00135430       0.00289705
H        5.19802156       0.84618876       3.92887722      -0.00221409       0.00003657       0.00376605
H        0.72563265       3.37112447      10.15791866      -0.01180687       0.02102502      -0.01182453
H        8.38484605       5.54149604       3.70581742       0.01505303      -0.03770646      -0.01781591
H        3.82136852       7.93157926      10.32697088       0.00364163      -0.00023248       0.00861846
H        6.14780021       8.03459813       2.53546294      -0.01645370       0.01095781      -0.00648505
H        1.61385388       5.21762950       9.07568705      -0.00868463      -0.00503006      -0.00971923
H        1.67482649       5.78387602       3.55314739      -0.05192531      -0.07305274      -0.01266807
H        6.06774095       7.35715221      10.12925149      -0.00418044       0.00401428       0.01105773
H        4.63340450       7.72431711       1.68653051      -0.00362428       0.00270266      -0.01470859
H        0.07373947       5.65300152       8.33484068       0.04814695      -0.04938085       0.00171989
H        1.85389953       4.40661010       2.49532655       0.00285837      -0.00078009      -0.03722531
H        6.33853939       8.45426268       8.79848837      -0.01079272      -0.00555284      -0.01059102
H        2.68085060       0.32350507       2.40039510       0.00728039      -0.00060372      -0.01014827
H        7.18204401       4.12410124       8.81264096      -0.01384766       0.00170150      -0.00522139
H        8.78702516       3.15814914       1.94132012      -0.06813889       0.10171987       0.03315111
H        4.38598549       1.05345073       8.08462392      -0.00097781      -0.00152984      -0.00985245
H        2.95164913       1.42061563       3.73115809       0.00437036      -0.01347919       0.01564563
H        7.50416846       2.79822783       9.90177342       0.04061819       0.10709319      -0.02522782
H        7.29240265       3.82200163       2.60143995      -0.10662207      -0.05654045       0.03004525
H        2.87158987       0.74316971       8.93355635       0.02012529      -0.00313163      -0.00514814
Pb       4.53083798       4.28292590      12.55414681      -0.00726890      -0.02487483      -0.03344752
Pb       0.02114307       0.10595802       6.15605340       0.00598959      -0.01955136      -0.01044873
Pb       8.99824692       8.67180982      12.55414681       0.00006606       0.01839859       0.00527933
Pb       4.48855201       4.49484194       6.15605340      -0.00375330       0.02870605       0.03548526
I        7.17846837       6.23686150       6.43993604       0.02097439      -0.00226721       0.00633138
I        8.66456556       8.72915928       2.96947351       0.01438569       0.00608599      -0.00477977
I        6.36795414       1.71737739      12.30292209       0.00998331      -0.01269317      -0.00546188
I        1.84092144       2.54090660       0.04184264      -0.03412902       0.00388343       0.03257534
I        1.85825933       2.67150644       5.90482868      -0.00792313       0.00135868       0.00720236
I        2.65143567       7.06039036       5.90482881      -0.00384008      -0.00297045      -0.02193392
I        7.16113084       6.10626131      12.30292209       0.00863948      -0.01205389      -0.01875247
I        6.35061653       1.84797758       6.43993604      -0.01056360      -0.02157168      -0.01015725
I        4.15487048       4.43749221       9.36756705      -0.01233158       0.00081340      -0.00296643
I        0.35482443       0.04860838       9.36756692      -0.00880209       0.00920776      -0.00130810
I        2.66877355       6.92979043       0.04184264       0.00128361       0.01795274      -0.00832471
I        4.86451933       4.34027536       2.96947351      -0.06830976       0.02234387       0.00801786
48
Lattice="9.01938999 0.0 0.0 0.0 8.77776784 0.0 0.0 0.0 12.79618681" Properties=species:S:1:pos:R:3:forces:R:3 config_id=O-FAPI3_small_rotation_07 phase=O-FAPI3 mode=small_rotation seed=4105054636 source=O-FAPI3/CONTCAR energy=-227.16781314 stress="-0.0009512930848029511 -0.00010469010583630157 0.00046108694909749123 -0.00010469010583630157 -0.00020849105876554806 0.0008259806895317294 0.00046108694909749123 0.0008259806895317294 0.0004686416030868599" pbc="T T T"
C        4.56264720       0.35320825       3.18521646      -0.02712751      -0.00925570       0.00874199
C        0.07174528       4.03166406       9.56636042       0.00110812       0.00286658      -0.00159147
C        9.01878993       4.77283762       3.19817234       0.08965449      -0.00853932       0.01007022
C        4.37214019       8.45512747       9.52194690      -0.09306476      -0.02186374       0.03411411
N        5.17898595       8.23177286       2.45529509      -0.08403200      -0.01539685      -0.04384794
N        0.63672086       4.95560970       8.82585276       0.00808662      -0.01025607      -0.00113508
N        1.26294342       4.99332312       2.91587464       0.09522176       0.15086486       0.16139584
N        5.51875134       7.81535143       9.49336175      -0.00129437       0.07368484       0.04632144
N        3.31103782       0.71909142       3.02884756      -0.02896603       0.02621165       0.02643909
N        7.83754631       3.65243376       9.46865219      -0.00790286       0.00818426       0.00110321
N        8.24183587       3.93190569       2.55754699       0.40493860      -0.06299329      -0.13981443
N        4.10118761       0.76390166       8.83840045      -0.44076582      -0.12255934       0.27505185
H        5.13090954       0.83173616       3.98888289       0.00243263      -0.00404883       0.00028253
H        0.68832647       3.54269525      10.32697075      -0.00699567      -0.00070335       0.00442093
H        8.58471420       5.32953436       4.03450820      -0.01518564      -0.02255940      -0.00716541
H        3.58672594       8.05303749      10.16943370       0.02079734      -0.02176547      -0.01759796
H        6.17547874       8.06524842       2.61269497       0.03762251      -0.00081034      -0.02180497
H        1.63810522       5.13205363       8.93355635      -0.02044200       0.00762146      -0.00529670
H        1.81316301       5.62048331       3.50742393      -0.12003150      -0.03621806      -0.04979189
H        5.66631740       7.01060936      10.10705280       0.04853133       0.11771461      -0.07674195
H        4.71306718       7.75631357       1.67660387       0.01407558       0.01278509       0.03180789
H        0.12370950       5.44233474       8.08462392       0.00718463       0.00300632      -0.00038651
H        1.74945536       4.50761569       2.16377940      -0.02669185      -0.05332460      -0.05804414
H        6.30766719       8.12910554       8.92995870       0.04943439      -0.02482722       0.02419091
H        2.70652520       0.31405563       2.31557109       0.01064335      -0.00953684      -0.00737606
H        7.19054560       4.06537885       8.79848850       0.01325959      -0.00202007      -0.00346480
H        8.57733931       3.39022455       1.75534956      -0.06649940       0.07066024       0.12154603
H        4.78347109       1.18528139       8.20088150       0.03469861       0.08973554      -0.14660702
H        2.89072784       1.38281531       3.68368500       0.02678856      -0.00838007      -0.00463402
H        7.46134412       2.96826829      10.12925149       0.00257735      -0.00560934       0.00684167
H        7.25254840       3.88106679       2.81098084      -0.14765934      -0.05920019      -0.05184328
H        3.15501689       1.14960784       8.87706105       0.19443040      -0.07261878      -0.01705165
Pb       4.53083798       4.28292590      12.55414681       0.02645875      -0.00780850       0.03056626
Pb       0.02114307       0.10595802       6.15605340       0.04338526      -0.00887510       0.04404356
Pb       8.99824692       8.67180982      12.55414681      -0.02853872      -0.02025423      -0.05211562
Pb       4.48855201       4.49484194       6.15605340      -0.03309891       0.02193603      -0.03790644
I        7.17846837       6.23686150       6.43993604      -0.01050929      -0.00702425       0.00759909
I        8.66456556       8.72915928       2.96947351       0.03421591      -0.00099866       0.01630836
I        6.36795414       1.71737739      12.30292209      -0.00814526      -0.00714135      -0.02350158
I        1.84092144       2.54090660       0.04184264      -0.03226436       0.03355402       0.01624934
I        1.85825933       2.67150644       5.90482868       0.00758260       0.00127974      -0.00390982
I        2.65143567       7.06039036       5.90482881       0.00690776      -0.04573188      -0.02241641
I        7.16113084       6.10626131      12.30292209       0.00282383      -0.05395608       0.05028399
I        6.35061653       1.84797758       6.43993604       0.14214853       0.08431092      -0.14930361
I        4.15487048       4.43749221       9.36756705      -0.02952415      -0.04735568       0.01019517
I        0.35482443       0.04860838       9.36756692       0.05311702       0.01203783      -0.01525773
I        2.66877355       6.92979043       0.04184264       0.04372182       0.02672893      -0.02453713
I        4.86451933       4.34027536       2.96947351      -0.19310788       0.02844972       0.05557011
48
Lattice="9.01938999 0.0 0.0 0.0 8.77776784 0.0 0.0 0.0 12.79618681" Properties=species:S:1:pos:R:3:forces:R:3 config_id=O-FAPI3_small_rotation_08 phase=O-FAPI3 mode=small_rotation seed=1368788174 source=O-FAPI3/CONTCAR energy=-227.28214606 stress="-0.0002735968770915672 -2.7100239409510176e-05 -3.8203440997308556e-05 -2.7100239409510176e-05 -0.00019476531859776342 -0.00010705763507793161 -3.8203440997308556e-05 -0.00010705763507793161 0.00040429546380258856" pbc="T T T"
C        4.58894143       0.32536973       3.18067163       0.00710362      -0.01901134       0.01297225
C        0.07174528       4.03166406       9.56636042      -0.00131506       0.00095577       0.00003738
C        8.94764462       4.74610387       3.16826714       0.00282885      -0.00006382      -0.00061606
C        4.43794981       8.42054789       9.56636054       0.00094206       0.00066327      -0.00025408
N        5.10751721       8.19225992       2.39161781       0.12300227       0.04254472       0.04880647
N        0.63672086       4.95560970       8.82585276       0.00045238      -0.00261764      -0.00184917
N        1.18184368       5.12533408       3.07055866       0.00046895      -0.00403885       0.00390704
N        5.69153868       8.04131768       9.46865219       0.00091617       0.00211401       0.00187869
N        3.36039039       0.78185816       3.09624099       0.01301437      -0.03948619      -0.02329177
N        7.83754631       3.65243376       9.46865219      -0.00027063       0.00230836       0.00228234
N        8.38266904       3.82215805       2.42775936       0.00048293       0.00288165      -0.00459692
N        3.87297414       0.56672578       8.82585276      -0.00030817      -0.00190178      -0.00192158
H        5.22461478       0.73287436       3.97291542      -0.00412895       0.01182560       0.00219550
H        0.68832647       3.54269525      10.32697075      -0.00213344       0.00145768      -0.00058306
H        8.33106343       5.23507259       3.92887735       0.00197697      -0.00138746       0.00054926
H        3.82136852       7.93157926      10.32697088       0.00088968       0.00050290       0.00114735
H        6.09587712       7.95196115       2.49604083      -0.05269379       0.02613190      -0.01317389
H        1.63810522       5.13205363       8.93355635       0.00099324      -0.00185112      -0.00098375
H        1.55804587       5.80949955       3.73115809       0.00105841       0.00080232      -0.00278415
H        6.06774095       7.35715221      10.12925149       0.00060375       0.00206721       0.00101138
H        4.57516061       7.77984948       1.61959711      -0.01930304      -0.04037847      -0.02698316
H        0.12370950       5.44233474       8.08462392       0.00005774      -0.00153560      -0.00191725
H        1.82884430       4.71238908       2.40039510       0.00050626       0.00060209       0.00173177
H        6.33853939       8.45426268       8.79848837       0.00011322       0.00133694      -0.00051927
H        2.69777639       0.44666154       2.39850280      -0.00549500       0.00840799       0.00536684
H        7.19054560       4.06537885       8.79848850       0.00002544       0.00113984      -0.00041189
H        8.89568040       3.33543310       1.68653064      -0.00303922       0.00214148       0.00207949
H        4.38598549       1.05345073       8.08462392       0.00054709      -0.00145571      -0.00168006
H        3.01728927       1.44740634       3.79289687      -0.02531752       0.01085203       0.00510895
H        7.46134412       2.96826829      10.12925149      -0.00142321       0.00126340       0.00140590
H        7.38128477       3.64571412       2.53546307      -0.00202744      -0.00076873       0.00007747
H        2.87158987       0.74316971       8.93355635      -0.00073006      -0.00257924      -0.00095339
Pb       4.53083798       4.28292590      12.55414681       0.00715232       0.00470856       0.00735344
Pb       0.02114307       0.10595802       6.15605340       0.00149865      -0.00304640      -0.01738126
Pb       8.99824692       8.67180982      12.55414681      -0.00559857      -0.00355195       0.01702028
Pb       4.48855201       4.49484194       6.15605340       0.00013797       0.00181270      -0.00581683
I        7.17846837       6.23686150       6.43993604      -0.00181602      -0.00044791      -0.00010372
I        8.66456556       8.72915928       2.96947351      -0.02069876      -0.00609559      -0.00277716
I        6.36795414       1.71737739      12.30292209      -0.00087916       0.00176074      -0.00106535
I        1.84092144       2.54090660       0.04184264       0.00341980      -0.00417154       0.00330999
I        1.85825933       2.67150644       5.90482868      -0.00094392       0.00883343       0.01637938
I        2.65143567       7.06039036       5.90482881       0.00186084      -0.00094588       0.00153157
I        7.16113084       6.10626131      12.30292209       0.00008141       0.00065485      -0.00048042
I        6.35061653       1.84797758       6.43993604      -0.00108878      -0.00097094       0.00252152
I        4.15487048       4.43749221       9.36756705      -0.00036104      -0.00001763       0.00134620
I        0.35482443       0.04860838       9.36756692       0.00056793       0.00062423       0.00138207
I        2.66877355       6.92979043       0.04184264      -0.02600362      -0.00971030      -0.03261245
I        4.86451933       4.34027536       2.96947351       0.00487309       0.00764039       0.00135414
48
Lattice="9.01938999 0.0 0.0 0.0 8.77776784 0.0 0.0 0.0 12.79618681" Properties=species:S:1:pos:R:3:forces:R:3 config_id=O-FAPI3_small_rotation_09 phase=O-FAPI3 mode=small_rotation seed=3547136855 source=O-FAPI3/CONTCAR energy=-227.24091649 stress="-0.0004101793843876317 -8.649844730027407e-05 0.0004971819958290581 -8.649844730027407e-05 -0.0001816483565055901 0.0003888580334475943 0.0004971819958290581 0.0003888580334475943 0.0001615855434656958" pbc="T T T"
C        4.58281970       0.35419074       3.16907624       0.01779410      -0.00517231      -0.03188854
C        0.07174528       4.03166406       9.56636042      -0.00075514      -0.00094122      -0.00027054
C        8.94752214       4.74368173       3.16972296      -0.00664997      -0.00642835       0.00216610
C        4.42270036       8.42742228       9.55767078      -0.01275152      -0.02076536       0.02402234
N        5.18438622       8.37610482       2.28136689      -0.08399347       0.03074020      -0.00255546
N        0.63672086       4.95560970       8.82585276       0.00435947      -0.00497130      -0.00515742
N        1.17926387       5.13027359       3.06940380       0.00377049       0.00489124      -0.00084696
N        5.63099701       7.93227569       9.41732566       0.01584789       0.01950884       0.03672566
N        3.28887366       0.57406681       3.21604298       0.05678051      -0.00804641      -0.06189359
N        7.83754631       3.65243376       9.46865219      -0.00417349       0.00730972       0.00261253
N        8.38535880       3.81924190       2.42769307      -0.00250849       0.00370873       0.00444321
N        3.94642417       0.67009445       8.88455284      -0.15905124      -0.01088636       0.05694827
H        5.20356036       0.83422282       3.93199232      -0.00428452      -0.00633314       0.00619608
H        0.68832647       3.54269525      10.32697075      -0.00283352      -0.00049331       0.00719155
H        8.33064836       5.22646529       3.93403805      -0.00057689      -0.00091200      -0.00541394
H        3.76722170       7.95521700      10.29602074       0.00399919      -0.00601648      -0.00440834
H        6.20542230       8.32188385       2.28832558       0.02155699      -0.05282550       0.05408324
H        1.63810522       5.13205363       8.93355635      -0.00902022       0.00315764      -0.00118040
H        1.55374280       5.81416713       3.73126276      -0.00022601      -0.01373297      -0.00172523
H        5.94276558       7.17376884      10.02844748       0.00014662       0.06699830      -0.02022645
H        4.66752846       7.90976247       1.52977876      -0.00497862      -0.00209882      -0.00720992
H        0.12370950       5.44233474       8.08462392       0.00265015       0.00122461      -0.00059755
H        1.82642025       4.72335892       2.39571118       0.00509103      -0.00809748       0.00473883
H        6.30994999       8.32025399       8.76406573       0.01319631      -0.00795249       0.00813601
H        2.63725818       0.15512712       2.55412183      -0.00734965       0.00446756      -0.00757958
H        7.19054560       4.06537885       8.79848850       0.00576847      -0.00319538      -0.00296291
H        8.89871425       3.33805283       1.68309576       0.00613842       0.00041622      -0.00178841
H        4.49881256       1.14915324       8.16700717       0.00710557       0.02134762      -0.03343462
H        2.89551858       1.12709058       3.98118253      -0.00963514       0.09011347      -0.01936643
H        7.46134412       2.96826829      10.12925149       0.00226710      -0.00246024       0.00151558
H        7.38532510       3.63680855       2.53793683      -0.00354668       0.01353515      -0.00224690
H        2.96881023       0.93814404       9.01843102       0.08204127      -0.04069707      -0.02974925
Pb       4.53083798       4.28292590      12.55414681      -0.00253328       0.01000541       0.05787525
Pb       0.02114307       0.10595802       6.15605340      -0.01248428       0.00170194       0.06792211
Pb       8.99824692       8.67180982      12.55414681       0.02597934      -0.00109842      -0.05418152
Pb       4.48855201       4.49484194       6.15605340       0.00258802      -0.00722425      -0.05579116
I        7.17846837       6.23686150       6.43993604       0.00850212      -0.00828828      -0.00029388
I        8.66456556       8.72915928       2.96947351       0.01467164       0.01025213      -0.00548303
I        6.36795414       1.71737739      12.30292209       0.01403780       0.00483730      -0.06038882
I        1.84092144       2.54090660       0.04184264       0.01787171      -0.01035839       0.00314201
I        1.85825933       2.67150644       5.90482868      -0.01499656      -0.01442301       0.02725169
I        2.65143567       7.06039036       5.90482881      -0.01947540      -0.04422337       0.07863885
I        7.16113084       6.10626131      12.30292209      -0.00619982      -0.01019023      -0.00045654
I        6.35061653       1.84797758       6.43993604       0.01747650       0.01148066      -0.01735517
I        4.15487048       4.43749221       9.36756705      -0.00572609      -0.00822120       0.00084237
I        0.35482443       0.04860838       9.36756692       0.03000144       0.00840709      -0.00858979
I        2.66877355       6.92979043       0.04184264      -0.00285750       0.00089849      -0.00533029
I        4.86451933       4.34027536       2.96947351      -0.00303463      -0.00894899       0.00392095
48
Lattice="9.01938999 0.0 0.0 0.0 8.77776784 0.0 0.0 0.0 12.79618681" Properties=species:S:1:pos:R:3:forces:R:3 config_id=O-FAPI3_small_rotation_10 phase=O-FAPI3 mode=small_rotation seed=4285567503 source=O-FAPI3/CONTCAR energy=-227.25530314 stress="-0.0006464549828987244 -7.825664060520039e-05 0.00018368733270683363 -7.825664060520039e-05 7.394489375387596e-05 0.0001416534713174614 0.00018368733270683363 0.0001416534713174614 0.0008457745621848984" pbc="T T T"
C        4.58144027       0.35721995       3.16826701      -0.01187886       0.00405209      -0.00137546
C        0.07174528       4.03166406       9.56636042       0.00124661       0.00123125      -0.00114312
C        0.00154268       4.70936918       3.23374049       0.11103053      -0.01191953       0.07658238
C        4.43794981       8.42054789       9.56636054      -0.00179241       0.00483115      -0.00245157
N        5.14641595       8.21104206       2.42775923      -0.00091763       0.00063696      -0.00893434
N        0.63672086       4.95560970       8.82585276      -0.00061662      -0.00263801      -0.00100194
N        1.18658121       5.15057411       2.87895905       0.08295222       0.04902099       0.11348283
N        5.69153868       8.04131768       9.46865219       0.00147229       0.00041837       0.00518198
N        3.32785131       0.73645025       3.07055866       0.00618685      -0.00759388       0.00766151
N        7.83754631       3.65243376       9.46865219      -0.00283145       0.00170535       0.00114166
N        8.31660661       3.82764951       2.56462149       0.10832780      -0.02991827      -0.09732704
N        3.87297414       0.56672578       8.82585276       0.00268006      -0.00409027       0.00167013
H        5.19802156       0.84618876       3.92887722      -0.00376287      -0.00363097       0.00022706
H        0.68832647       3.54269525      10.32697075       0.00099912      -0.00140100       0.00356223
H        8.59288306       5.10417483       4.16039722      -0.01973394       0.00419661      -0.00827171
H        3.82136852       7.93157926      10.32697088       0.00354376       0.00290416      -0.00513926
H        6.14780021       8.03459813       2.53546294       0.00421309      -0.00560680       0.00077031
H        1.63810522       5.13205363       8.93355635       0.00130040      -0.00262551      -0.00243699
H        1.69401037       5.79206488       3.49296808      -0.09779211      -0.04680064      -0.02702239
H        6.06774095       7.35715221      10.12925149       0.00096663       0.00299571      -0.00359254
H        4.63340450       7.72431711       1.68653051       0.01014976       0.00536065       0.00755673
H        0.12370950       5.44233474       8.08462392      -0.00040733       0.00051967      -0.00200062
H        1.66403398       4.82509834       2.03969913      -0.01447870      -0.02119666      -0.02617557
H        6.33853939       8.45426268       8.79848837       0.00061139      -0.00034658       0.00035517
H        2.68085060       0.32350507       2.40039510      -0.00136982       0.00937615       0.00229724
H        7.19054560       4.06537885       8.79848850      -0.00061091       0.00259515      -0.00028305
H        8.64868774       3.42885164       1.68134115      -0.05140878      -0.00354795       0.12435437
H        4.38598549       1.05345073       8.08462392      -0.00272398      -0.00400659      -0.00054619
H        2.95164913       1.42061563       3.73115809      -0.00305734       0.00468431      -0.00860367
H        7.46134412       2.96826829      10.12925149      -0.00036047       0.00163307       0.00079282
H        7.37418913       3.59859673       2.88848427      -0.01336857       0.01413791      -0.12071796
H        2.87158987       0.74316971       8.93355635      -0.00143031      -0.00183298      -0.00113207
Pb       4.53083798       4.28292590      12.55414681       0.01552978      -0.03988144       0.02151132
Pb       0.02114307       0.10595802       6.15605340       0.01694156      -0.02269553      -0.01452334
Pb       8.99824692       8.67180982      12.55414681      -0.01748316       0.03214045       0.01251538
Pb       4.48855201       4.49484194       6.15605340      -0.02189564       0.02268064      -0.03499479
I        7.17846837       6.23686150       6.43993604       0.00035198      -0.00349767       0.00672968
I        8.66456556       8.72915928       2.96947351      -0.00245640       0.00452166      -0.00243649
I        6.36795414       1.71737739      12.30292209       0.00881597       0.00341428       0.00188440
I        1.84092144       2.54090660       0.04184264      -0.03683125       0.03146196       0.01168126
I        1.85825933       2.67150644       5.90482868      -0.01091209       0.01541326      -0.00847815
I        2.65143567       7.06039036       5.90482881      -0.01756085      -0.03460548      -0.04029007
I        7.16113084       6.10626131      12.30292209       0.01690672      -0.00669743       0.01248673
I        6.35061653       1.84797758       6.43993604       0.00458010       0.00210499      -0.00642880
I        4.15487048       4.43749221       9.36756705       0.00035090       0.00124371       0.00557348
I        0.35482443       0.04860838       9.36756692       0.00069685      -0.00049466       0.00404141
I        2.66877355       6.92979043       0.04184264       0.02296772       0.02540624      -0.03784184
I        4.86451933       4.34027536       2.96947351      -0.08714060       0.00634108       0.04108887
48
Lattice="9.01938999 0.0 0.0 0.0 8.77776784 0.0 0.0 0.0 12.79618681" Properties=species:S:1:pos:R:3:forces:R:3 config_id=O-FAPI3_small_rotation_11 phase=O-FAPI3 mode=small_rotation seed=1939842013 source=O-FAPI3/CONTCAR energy=-227.25143977 stress="-3.969348895394892e-05 5.744873493038553e-05 0.00040247318655668653 5.744873493038553e-05 -0.00041103231157572017 -0.0001807120552385981 0.00040247318655668653 -0.0001807120552385981 0.00034101880086552814" pbc="T T T"
C        4.58287661       0.35489218       3.16858167      -0.00429728       0.00167483      -0.00107510
C        0.09890889       4.00550016       9.52119192       0.04057757      -0.02120678      -0.02175498
C        8.94829293       4.70218642       3.19297312       0.00780678      -0.00870641       0.05540271
C        4.44130556       8.42287944       9.57057433      -0.00150250       0.00796708       0.00181304
N        5.14279340       8.21074528       2.42172736       0.01480210       0.00873287      -0.00320293
N        0.60825098       4.93254041       8.74505290       0.07068492      -0.02443410       0.06840596
N        1.10130955       5.26396883       3.00666346       0.02708327      -0.04533257       0.03358637
N        5.69396561       8.04345393       9.46228442       0.00953899      -0.00448073       0.00235279
N        3.33026662       0.73869349       3.07631771       0.00184795      -0.01500680       0.00201478
N        7.84333116       3.69736417       9.58720131       0.08856820       0.02520853      -0.04933093
N        8.46286386       3.72018242       2.47099550      -0.21113869       0.03080871       0.06322010
N        3.86773594       0.56263622       8.82869070       0.01238292      -0.00278504      -0.00294874
H        5.20314268       0.83789719       3.93000597      -0.00399083       0.00044993       0.00616879
H        0.78577764       3.44963090      10.16695623      -0.01646883       0.01101139      -0.00711659
H        8.33385033       5.07946690       4.01632623       0.00177662       0.01897032      -0.00240740
H        3.83336197       7.93991831      10.34190045       0.00143739       0.00077927      -0.00463616
H        6.14388986       8.03049355       2.52573771      -0.01061377      -0.00574227       0.00038912
H        1.62345502       5.05110866       8.71667723      -0.03226363       0.02838063       0.05455428
H        1.42871097       5.98264567       3.65652036       0.00073556      -0.05393881      -0.01552091
H        6.07776248       7.36495082      10.12435362      -0.00561512       0.00757674       0.00478182
H        4.62615688       7.72954717       1.67940879       0.00574362      -0.00297360       0.00189276
H        0.02633238       5.47984214       8.10369996      -0.00801432      -0.00792497      -0.06390016
H        1.74235331       4.96452484       2.27341802       0.00752340       0.01494274      -0.00000448
H        6.33335973       8.45115596       8.78169133      -0.00355411       0.00795033      -0.00269285
H        2.68007854       0.33133949       2.40581710       0.00327973       0.00873189       0.00007336
H        7.13454637       4.17472280       9.03221866      -0.03312227      -0.01203576       0.00195202
H        8.97652498       3.32946150       1.67538798       0.01856360      -0.05472731      -0.02135601
H        4.37232923       1.04346435       8.07789645       0.00272852      -0.00074503       0.00137358
H        2.95811928       1.42063476       3.74149779      -0.00305641       0.00890092      -0.00278610
H        7.52347410       3.00340789      10.26699413      -0.05074574      -0.02319981       0.00851990
H        7.51046895       3.39590683       2.65345735       0.10997668       0.06210267      -0.06310356
H        2.86749001       0.73948551       8.94588867      -0.00252098      -0.00852385      -0.00680155
Pb       4.53083798       4.28292590      12.55414681       0.00812228      -0.01284864       0.06488036
Pb       0.02114307       0.10595802       6.15605340      -0.00387048       0.00327244       0.00653557
Pb       8.99824692       8.67180982      12.55414681      -0.01087300       0.00942594      -0.00577061
Pb       4.48855201       4.49484194       6.15605340       0.00913074      -0.00803276      -0.05967545
I        7.17846837       6.23686150       6.43993604      -0.02825848       0.03103480      -0.01581620
I        8.66456556       8.72915928       2.96947351      -0.01455717       0.02103447      -0.00062204
I        6.36795414       1.71737739      12.30292209      -0.00990633      -0.02603728       0.03078099
I        1.84092144       2.54090660       0.04184264       0.01534473      -0.00827599      -0.05080816
I        1.85825933       2.67150644       5.90482868      -0.00262827       0.00871921      -0.02250773
I        2.65143567       7.06039036       5.90482881      -0.01211109       0.01156692       0.00444717
I        7.16113084       6.10626131      12.30292209      -0.00001686       0.01826051       0.02382398
I        6.35061653       1.84797758       6.43993604       0.01295454      -0.00129496       0.00359685
I        4.15487048       4.43749221       9.36756705      -0.02475089      -0.00140375      -0.01694254
I        0.35482443       0.04860838       9.36756692      -0.00733224       0.00143005       0.00770687
I        2.66877355       6.92979043       0.04184264       0.00444803       0.00965467      -0.00951827
I        4.86451933       4.34027536       2.96947351       0.02615116      -0.00893062       0.00202628
48
Lattice="9.01938999 0.0 0.0 0.0 8.77776784 0.0 0.0 0.0 12.79618681" Properties=species:S:1:pos:R:3:forces:R:3 config_id=O-FAPI3_small_rotation_12 phase=O-FAPI3 mode=small_rotation seed=1052125641 source=O-FAPI3/CONTCAR energy=-227.26092898 stress="-0.0007584989346512877 9.608978685703714e-05 1.0990754559386466e-05 9.608978685703714e-05 -0.00015204142716697917 -0.00010688058218855769 1.0990754559386466e-05 -0.00010688058218855769 -5.533961040807618e-05" pbc="T T T"
C        4.58144027       0.35721995       3.16826701       0.00116137       0.00183719       0.00226781
C        0.10249671       4.03046571       9.53724858       0.04881581      -0.00658326      -0.02104455
C        8.93989823       4.75290682       3.15709312      -0.01239351       0.00526742      -0.00882286
C        4.45188720       8.42000411       9.57695425       0.00571903       0.01168118      -0.01489166
N        5.14641595       8.21104206       2.42775923       0.00130106       0.00140865      -0.00484760
N        0.59573233       4.90473894       8.69250613       0.12900710      -0.06393551       0.09692330
N        1.18441331       5.10639201       3.10769600      -0.02269597      -0.01089460      -0.01487995
N        5.73264581       8.13803824       9.50624099       0.00346816      -0.01684468      -0.01052862
N        3.32785131       0.73645025       3.07055866      -0.00282188      -0.00317444       0.00085611
N        7.85282110       3.70426464       9.62620409       0.10090835       0.04377335      -0.07828840
N        8.38656181       3.83542134       2.39995094      -0.01047043       0.00850888       0.01095223
N        3.82009138       0.47037802       8.77930778       0.14118201       0.00105377      -0.04874661
H        5.19802156       0.84618876       3.92887722       0.00181375       0.00069966       0.00461506
H        0.79851609       3.53880995      10.22399638      -0.01275121       0.00353097      -0.00231089
H        8.30327875       5.25921101       3.88932420       0.00445556      -0.00369417       0.00116723
H        3.87083068       7.93035160      10.36461189      -0.00547225       0.00381316       0.00432575
H        6.14780021       8.03459813       2.53546294       0.00033902       0.00394900       0.00061349
H        1.60857718       5.03994123       8.65551005      -0.05031701       0.02045795       0.05769615
H        1.54753214       5.78737404       3.77882196       0.01456686       0.01079408       0.00306799
H        6.15760203       7.52828866      10.20882177      -0.01655225      -0.03975335      -0.00663949
H        4.63340450       7.72431711       1.68653051      -0.00426736      -0.00067005      -0.00260537
H        0.00479741       5.39017478       8.01085364      -0.03154449       0.02439373      -0.07719408
H        1.84932571       4.67610012       2.46660845       0.00764608       0.00196520      -0.00007668
H        6.34944554       8.56006076       8.81363151      -0.00746091       0.01484493      -0.00833171
H        2.68085060       0.32350507       2.40039510      -0.00073315      -0.00317470      -0.00145644
H        7.13620017       4.12419981       9.03598227      -0.03773953      -0.00877385       0.00866326
H        8.91898325       3.33355712       1.68290036       0.00660785       0.00312849      -0.01780412
H        4.29794858       0.95061725       8.01085160      -0.00238034      -0.01326525       0.02758328
H        2.95164913       1.42061563       3.73115809       0.00097379      -0.00319027       0.00206248
H        7.54482922       3.05854219      10.35708402      -0.06386396      -0.04939124       0.00470291
H        7.37830134       3.67971559       2.46828437       0.00152311      -0.00818464       0.02086241
H        2.80695611       0.57159543       8.87319648      -0.06109174       0.02658031       0.02036332
Pb       4.53083798       4.28292590      12.55414681      -0.04229936       0.02136746      -0.00410575
Pb       0.02114307       0.10595802       6.15605340      -0.04167426       0.00369605      -0.00639222
Pb       8.99824692       8.67180982      12.55414681       0.03638903      -0.00380798       0.02034143
Pb       4.48855201       4.49484194       6.15605340       0.04708404      -0.02680914       0.02676965
I        7.17846837       6.23686150       6.43993604      -0.05754864       0.04255051      -0.04370046
I        8.66456556       8.72915928       2.96947351       0.00250661      -0.00164921      -0.00458169
I        6.36795414       1.71737739      12.30292209      -0.00856845      -0.00351143       0.07292752
I        1.84092144       2.54090660       0.04184264       0.00044958      -0.00575408      -0.00819612
I        1.85825933       2.67150644       5.90482868       0.01918386      -0.01990939      -0.01602856
I        2.65143567       7.06039036       5.90482881      -0.00152241      -0.00668263      -0.00810650
I        7.16113084       6.10626131      12.30292209      -0.01416915       0.05115781       0.02363242
I        6.35061653       1.84797758       6.43993604       0.00086731      -0.00340772       0.02257898
I        4.15487048       4.43749221       9.36756705      -0.02737623       0.00409121      -0.02761909
I        0.35482443       0.04860838       9.36756692      -0.04226484      -0.00809988       0.00505676
I        2.66877355       6.92979043       0.04184264      -0.00430933      -0.00073300       0.01128553
I        4.86451933       4.34027536       2.96947351       0.00631930       0.00134352      -0.01211563
48
Lattice="9.01938999 0.0 0.0 0.0 8.77776784 0.0 0.0 0.0 12.79618681" Properties=species:S:1:pos:R:3:forces:R:3 config_id=O-FAPI3_small_rotation_13 phase=O-FAPI3 mode=small_rotation seed=1182904147 source=O-FAPI3/CONTCAR energy=-227.21766335 stress="-0.0007780770071264294 -3.209283504232245e-05 -0.00041290314152111243 -3.209283504232245e-05 -0.00019015938445529965 -0.00017655313173822092 -0.00041290314152111243 -0.00017655313173822092 -0.0003115870145144987" pbc="T T T"
C        4.58033729       0.35233837       3.17226966      -0.00656270      -0.00094736       0.00284108
C        0.10049864       4.07101593       9.56418954       0.04841182       0.02800892       0.00019579
C        8.94764462       4.74610387       3.16826714      -0.00123265      -0.00027682      -0.00013723
C        4.44097843       8.44829503       9.58493728      -0.01273291       0.01712665      -0.02990969
N        5.14382639       8.20737032       2.42912522       0.01299369       0.00554357      -0.00409538
N        0.56450351       4.95235131       8.71027364       0.21126134      -0.09399697       0.12268850
N        1.18184368       5.12533408       3.07055866       0.00344735      -0.00133488       0.00369852
N        5.73763921       8.24714554       9.64023152      -0.05384854      -0.00354764      -0.07017122
N        3.33135237       0.74420172       3.06583789      -0.00208352      -0.00891687       0.00296598
N        7.88560523       3.62277290       9.58587281       0.06584401       0.05475706      -0.06842285
N        8.38266904       3.82215805       2.42775936       0.00011440       0.00291005      -0.00441730
N        3.82417418       0.33747928       8.63838978       0.12005071      -0.04510985      -0.01805949
H        5.19404067       0.82882440       3.94306141       0.00200618       0.00225563       0.00179626
H        0.79091924       3.68289683      10.31948664      -0.00897230      -0.01282012      -0.00327313
H        8.33106343       5.23507259       3.92887735      -0.00085792       0.00001142       0.00326757
H        3.83152959       8.03199587      10.39305730      -0.00177987       0.00065555       0.00776917
H        6.14242601       8.02056599       2.54490922      -0.00236989       0.00432580      -0.00478833
H        1.55939670       5.18721997       8.73323409      -0.07504183      -0.02559349       0.02117765
H        1.55804587       5.80949955       3.73115809      -0.00265492      -0.00358410      -0.00522373
H        6.14303103       7.76902948      10.44835563      -0.01204957      -0.11241272      -0.05855237
H        4.63351607       7.73198318       1.67873047      -0.00352331      -0.00583090       0.00218105
H        8.99803938       5.34510928       7.96729427      -0.04463977       0.06543934      -0.07218153
H        1.82884430       4.71238908       2.40039510       0.00143661      -0.00170472       0.00031232
H        6.37941968       8.61196967       8.93789681       0.00964287      -0.00133819      -0.00261952
H        2.68706370       0.34323109       2.38586183      -0.00020727      -0.00067587      -0.00111090
H        7.17491346       3.94179867       8.92906783      -0.03269336      -0.00631951       0.01847236
H        8.89568040       3.33543310       1.68653064       0.00290422       0.00025880       0.00049291
H        4.32999041       0.74006502       7.84367185      -0.00274135       0.01921678       0.02119921
H        2.95515659       1.42609506       3.72878606      -0.00273955       0.00266475       0.00193490
H        7.59123822       2.98224162      10.32686531      -0.06186871      -0.02832446      -0.00305132
H        7.38128477       3.64571412       2.53546307      -0.00171833       0.00201860       0.00178014
H        2.80267532       0.38135083       8.64926948      -0.02821315       0.05837776       0.05492802
Pb       4.53083798       4.28292590      12.55414681      -0.02641297       0.02844572      -0.04909155
Pb       0.02114307       0.10595802       6.15605340      -0.05649808       0.00137777      -0.01341963
Pb       8.99824692       8.67180982      12.55414681       0.05250497      -0.00727984       0.04219499
Pb       4.48855201       4.49484194       6.15605340       0.02793975      -0.02943242       0.06125669
I        7.17846837       6.23686150       6.43993604      -0.08891605       0.05576746      -0.06152844
I        8.66456556       8.72915928       2.96947351       0.00084076      -0.00098397      -0.00491059
I        6.36795414       1.71737739      12.30292209       0.02249130       0.03956359       0.14373953
I        1.84092144       2.54090660       0.04184264      -0.00914685      -0.00113978       0.00423137
I        1.85825933       2.67150644       5.90482868       0.00376535      -0.01702986      -0.01949774
I        2.65143567       7.06039036       5.90482881      -0.02720839      -0.02737182      -0.06127637
I        7.16113084       6.10626131      12.30292209       0.01486699       0.04426828       0.04767498
I        6.35061653       1.84797758       6.43993604       0.01804035      -0.00196355       0.01111110
I        4.15487048       4.43749221       9.36756705      -0.03348613       0.01751520      -0.01732751
I        0.35482443       0.04860838       9.36756692      -0.01581864      -0.01739284      -0.00843860
I        2.66877355       6.92979043       0.04184264      -0.00309644       0.00429878       0.00576169
I        4.86451933       4.34027536       2.96947351       0.00055234       0.00052107      -0.00216737
48
Lattice="9.01938999 0.0 0.0 0.0 8.77776784 0.0 0.0 0.0 12.79618681" Properties=species:S:1:pos:R:3:forces:R:3 config_id=O-FAPI3_small_rotation_14 phase=O-FAPI3 mode=small_rotation seed=4165865055 source=O-FAPI3/CONTCAR energy=-227.25055938 stress="9.286302026159238e-05 -0.00013739035830524584 -0.00022573252867677846 -0.00013739035830524584 -0.0005077541760619356 6.092677844172922e-05 -0.00022573252867677846 6.092677844172922e-05 0.00022291630358559783" pbc="T T T"
C        4.60865836       0.34318878       3.15299041       0.03687636      -0.00674994      -0.01052695
C        0.08846939       4.05811735       9.56808880       0.01726504      -0.00891186       0.03888675
C        8.94463593       4.75697312       3.15836443      -0.00648303       0.00769274       0.00024927
C        4.43979066       8.44802423       9.58388403       0.00633979       0.02301820      -0.00319569
N        5.08852057       8.20020985       2.35100373       0.16445426       0.06110470       0.10209869
N        0.53594785       5.07707970       8.87332009       0.22999259      -0.03308812       0.09063013
N        1.17909989       5.13449236       3.05748108       0.00493782       0.00828872       0.01433059
N        5.69272283       8.06077203       9.51285994      -0.01297222       0.03320224      -0.03071389
N        3.36290878       0.75900928       3.16000810       0.05911980      -0.04670722      -0.04722505
N        7.92411559       3.50892683       9.41980543      -0.01890878       0.03837447       0.03533231
N        8.38793483       3.80389546       2.44917339       0.00056877      -0.00592460      -0.00001706
N        3.87024839       0.52425394       8.76685620      -0.02160523      -0.03667001       0.00372595
H        5.29523101       0.79628346       3.87487270      -0.01281740       0.00487015      -0.00362611
H        0.74762184       3.63592664      10.33298355      -0.00475152      -0.01446660      -0.00510372
H        8.32031376       5.27394888       3.89372046       0.00378165      -0.00417081      -0.00325132
H        3.82794934       8.02978010      10.38918709       0.00467510      -0.00663518       0.00616496
H        6.08959547       7.99372664       2.37777464      -0.06737840       0.00912398       0.01931119
H        1.49874410       5.38963539       9.01766453      -0.11143492      -0.05863420      -0.04293828
H        1.54814104       5.84451020       3.69441537      -0.00489838      -0.02227944      -0.00307762
H        6.07300927       7.43851861      10.22992677       0.01387394      -0.04816872       0.00633676
H        4.50671102       7.74603682       1.64056277      -0.02710465      -0.03553257      -0.06858571
H        8.99845896       5.51104438       8.13098425      -0.02033150       0.04644446      -0.04701699
H        1.83288905       4.69705344       2.40982397       0.00388263      -0.00466972       0.00133124
H        6.33554414       8.41141085       8.80427967      -0.00854632      -0.00997986      -0.00123449
H        2.65510665       0.38051185       2.53230702      -0.02168510       0.01193535       0.00921884
H        7.24324553       3.84855411       8.74207242      -0.01815896      -0.01336813       0.01180473
H        8.90850940       3.28971875       1.73214738      -0.00399033       0.00944529      -0.00558146
H        4.37864281       0.94206946       7.98170188       0.00288846       0.02514769       0.00361453
H        3.05811157       1.43690260       3.86254716      -0.05413313       0.02011198       0.00654815
H        7.63144369       2.75658399      10.04775885      -0.00878282       0.07129016      -0.02876531
H        7.38587122       3.62987446       2.55447462      -0.00046011       0.00332968      -0.00038741
H        2.86956700       0.71028310       8.86449277       0.01508026       0.00554961      -0.00053786
Pb       4.53083798       4.28292590      12.55414681       0.01375629      -0.01550761      -0.06369340
Pb       0.02114307       0.10595802       6.15605340       0.00574454      -0.00876934      -0.02050318
Pb       8.99824692       8.67180982      12.55414681      -0.00111183       0.01517666       0.02796620
Pb       4.48855201       4.49484194       6.15605340      -0.02628836       0.01369900       0.05769248
I        7.17846837       6.23686150       6.43993604      -0.03555377       0.02818018      -0.03804267
I        8.66456556       8.72915928       2.96947351      -0.03268058      -0.00569071      -0.01282396
I        6.36795414       1.71737739      12.30292209       0.02113989      -0.01324217       0.02050195
I        1.84092144       2.54090660       0.04184264       0.00063781      -0.01152089       0.01353874
I        1.85825933       2.67150644       5.90482868      -0.02374817       0.02493617       0.04177749
I        2.65143567       7.06039036       5.90482881      -0.01246886      -0.00073654      -0.00523777
I        7.16113084       6.10626131      12.30292209       0.02164189      -0.00731280      -0.00219246
I        6.35061653       1.84797758       6.43993604       0.00304243      -0.01383964      -0.02678781
I        4.15487048       4.43749221       9.36756705      -0.03797329       0.00913466      -0.00074164
I        0.35482443       0.04860838       9.36756692       0.01274680      -0.01817452       0.00312405
I        2.66877355       6.92979043       0.04184264      -0.05626883      -0.02317293      -0.04895099
I        4.86451933       4.34027536       2.96947351       0.00809036       0.00386804       0.00657378
48
Lattice="9.01938999 0.0 0.0 0.0 8.77776784 0.0 0.0 0.0 12.79618681" Properties=species:S:1:pos:R:3:forces:R:3 config_id=O-FAPI3_small_rotation_15 phase=O-FAPI3 mode=small_rotation seed=3197297964 source=O-FAPI3/CONTCAR energy=-227.28622018 stress="-0.000406059601390983 2.4533250260744286e-06 -1.961849872975003e-06 2.4533250260744286e-06 -6.894643734399449e-05 -1.4201892415980012e-05 -1.961849872975003e-06 -1.4201892415980012e-05 0.00048307145414064453" pbc="T T T"
C        4.58144027       0.35721995       3.16826701      -0.00049290      -0.00048656       0.00025485
C        0.07174528       4.03166406       9.56636042      -0.00045599       0.00048324       0.00031221
C        8.94764462       4.74610387       3.16826714       0.00045042      -0.00050205       0.00021815
C        4.43990413       8.41819316       9.56642580       0.00285946      -0.00018649      -0.00025087
N        5.14641595       8.21104206       2.42775923       0.00022683       0.00194146      -0.00209075
N        0.63672086       4.95560970       8.82585276       0.00023424      -0.00178186      -0.00194148
N        1.18184368       5.12533408       3.07055866       0.00113468      -0.00242157       0.00175308
N        5.69550459       8.04687550       9.46425759       0.00411672      -0.00221352       0.00546245
N        3.32785131       0.73645025       3.07055866      -0.00108359      -0.00246642       0.00174824
N        7.83754631       3.65243376       9.46865219      -0.00100099       0.00228513       0.00162322
N        8.38266904       3.82215805       2.42775936      -0.00019504       0.00190721      -0.00207377
N        3.86736344       0.56313436       8.83019899       0.01612354       0.00244770      -0.00940992
H        5.19802156       0.84618876       3.92887722      -0.00148408      -0.00109698       0.00130557
H        0.68832647       3.54269525      10.32697075      -0.00142678       0.00108869       0.00129547
H        8.33106343       5.23507259       3.92887735       0.00145010      -0.00106267       0.00136929
H        3.82832987       7.92321668      10.32719264       0.00095172       0.00211263       0.00125150
H        6.14780021       8.03459813       2.53546294       0.00009824       0.00217853      -0.00088489
H        1.63810522       5.13205363       8.93355635       0.00013218      -0.00242277      -0.00092089
H        1.55804587       5.80949955       3.73115809       0.00064717      -0.00202186       0.00141624
H        6.07760897       7.36303402      10.12179784      -0.00314499       0.00294403       0.00071724
H        4.63340450       7.72431711       1.68653051       0.00016791       0.00181557      -0.00219457
H        0.12370950       5.44233474       8.08462392      -0.00005301      -0.00185376      -0.00244000
H        1.82884430       4.71238908       2.40039510      -0.00025787      -0.00090235      -0.00048003
H        6.33819990       8.46574418       8.79362761      -0.00163069       0.00205249      -0.00183868
H        2.68085060       0.32350507       2.40039510       0.00027188      -0.00089994      -0.00048426
H        7.19054560       4.06537885       8.79848850       0.00022591       0.00097706      -0.00060630
H        8.89568040       3.33543310       1.68653064      -0.00012435       0.00184257      -0.00218052
H        4.37543542       1.05518030       8.08908108      -0.00271727      -0.00597820       0.00253424
H        2.95164913       1.42061563       3.73115809      -0.00071661      -0.00192811       0.00149231
H        7.46134412       2.96826829      10.12925149      -0.00072414       0.00218343       0.00169870
H        7.38128477       3.64571412       2.53546307      -0.00007957       0.00222624      -0.00085760
H        2.86521839       0.73317175       8.94108447      -0.00719903       0.00032174      -0.00088837
Pb       4.53083798       4.28292590      12.55414681       0.00119465       0.00084896       0.00037383
Pb       0.02114307       0.10595802       6.15605340       0.00061116      -0.00024604      -0.00135879
Pb       8.99824692       8.67180982      12.55414681      -0.00106575      -0.00003040       0.00192078
Pb       4.48855201       4.49484194       6.15605340      -0.00062495      -0.00042967       0.00015084
I        7.17846837       6.23686150       6.43993604       0.00006605      -0.00094521      -0.00059752
I        8.66456556       8.72915928       2.96947351       0.00003302      -0.00014742       0.00039879
I        6.36795414       1.71737739      12.30292209       0.00066313       0.00138962       0.00039335
I        1.84092144       2.54090660       0.04184264       0.00022093       0.00043111      -0.00014220
I        1.85825933       2.67150644       5.90482868       0.00065615      -0.00152670       0.00034240
I        2.65143567       7.06039036       5.90482881      -0.00051991      -0.00134794       0.00033035
I        7.16113084       6.10626131      12.30292209      -0.00077820       0.00325905      -0.00191504
I        6.35061653       1.84797758       6.43993604      -0.00255840      -0.00213236       0.00310463
I        4.15487048       4.43749221       9.36756705       0.00039751       0.00071718       0.00024219
I        0.35482443       0.04860838       9.36756692      -0.00407758      -0.00072086       0.00158447
I        2.66877355       6.92979043       0.04184264      -0.00055777       0.00047509      -0.00014773
I        4.86451933       4.34027536       2.96947351       0.00003586      -0.00017702       0.00040974
48
Lattice="9.01938999 0.0 0.0 0.0 8.77776784 0.0 0.0 0.0 12.79618681" Properties=species:S:1:pos:R:3:forces:R:3 config_id=O-FAPI3_small_rotation_16 phase=O-FAPI3 mode=small_rotation seed=1210808760 source=O-FAPI3/CONTCAR energy=-227.19547253 stress="-0.001227394866752009 0.0002541509623306569 -8.515498118545509e-05 0.0002541509623306569 0.0001392148388038693 0.00015038360744503508 -8.515498118545509e-05 0.00015038360744503508 5.8437851847600755e-05" pbc="T T T"
C        4.58144027       0.35721995       3.16826701       0.01631732      -0.00279748       0.00541484
C        0.05450931       3.98197373       9.54269592      -0.00266549      -0.01423016      -0.02536565
C        8.95918069       4.79263227       3.14258762      -0.00808723       0.02143116      -0.02921685
C        4.42554418       8.40851006       9.54722564      -0.02703702      -0.02350783       0.01391074
N        5.14641595       8.21104206       2.42775923      -0.00432169       0.00173451       0.00017204
N        0.71963169       4.81827863       8.78149222      -0.24168436       0.04188411      -0.06463701
N        1.24747237       4.89660318       3.20588383      -0.05466974       0.02677654      -0.02640287
N        5.66331520       7.98413588       9.43463289       0.01316081      -0.00869987       0.02292067
N        3.32785131       0.73645025       3.07055866      -0.01045993       0.00811882      -0.00525809
N        7.76928585       3.83119774       9.53278962       0.02011880      -0.04026738       0.01186643
N        8.30713030       4.01214906       2.31379255       0.20048849      -0.02733959      -0.03777939
N        3.91164441       0.63402519       8.87599155      -0.06612025       0.00854340       0.02701092
H        5.19802156       0.84618876       3.92887722       0.00314641       0.00098799       0.00310970
H        0.62760767       3.36658944      10.24316097      -0.00695456       0.02238414      -0.00380018
H        8.37115687       5.39955541       3.83804643       0.00888292      -0.02287053      -0.00521485
H        3.77718578       7.88813282      10.25900496       0.00047963       0.00110864      -0.00059692
H        6.14780021       8.03459813       2.53546294       0.00120815       0.01526369       0.00136809
H        1.74152804       4.81321886       8.81621032       0.07969692       0.07536494       0.05074519
H        1.67566818       5.48320227       3.92598937      -0.00966264       0.07215514      -0.02486318
H        6.00001128       7.23417138      10.04306623      -0.01145571       0.07141116      -0.00619110
H        4.63340450       7.72431711       1.68653051      -0.01262398      -0.00112114      -0.00812369
H        0.24918987       5.41268712       8.09238775       0.02703285      -0.06524856       0.02287444
H        1.86994873       4.35723884       2.60599885       0.00267322       0.01057135      -0.02954943
H        6.33745237       8.42032405       8.80731173       0.01356901       0.00488887       0.00343121
H        2.68085060       0.32350507       2.40039510      -0.00334506      -0.01204983       0.00033549
H        7.15933932       4.37393336       8.92315356       0.01021193      -0.00349826      -0.03550121
H        8.79281128       3.42941078       1.62529270      -0.01789255       0.05797681       0.00470973
H        4.45614462       1.15513081       8.18211077       0.00634926      -0.00281995      -0.02779429
H        2.95164913       1.42061563       3.73115809       0.00749797      -0.02197323       0.00581762
H        7.32616448       3.20064969      10.20513966       0.02201266      -0.04133198      -0.00812312
H        7.28558237       4.05260570       2.29629492      -0.05127565      -0.08611079       0.07038554
H        2.91708575       0.84470093       8.98540778       0.03828839      -0.03009619      -0.00770285
Pb       4.53083798       4.28292590      12.55414681      -0.08066434       0.01939755       0.04457782
Pb       0.02114307       0.10595802       6.15605340      -0.03308772      -0.00651134       0.00447241
Pb       8.99824692       8.67180982      12.55414681       0.03441021       0.00232486      -0.00125901
Pb       4.48855201       4.49484194       6.15605340       0.08494247      -0.01388220       0.00186823
I        7.17846837       6.23686150       6.43993604       0.02561628      -0.01551570       0.02154708
I        8.66456556       8.72915928       2.96947351       0.00770052      -0.00457267      -0.00306574
I        6.36795414       1.71737739      12.30292209      -0.01153860       0.02809270      -0.02860191
I        1.84092144       2.54090660       0.04184264      -0.01324453       0.00433968       0.01575727
I        1.85825933       2.67150644       5.90482868       0.04969973      -0.05928677       0.04969017
I        2.65143567       7.06039036       5.90482881       0.01487944      -0.03481075       0.01633279
I        7.16113084       6.10626131      12.30292209      -0.05191276       0.03343365      -0.00428287
I        6.35061653       1.84797758       6.43993604       0.00596541       0.01044533       0.00845826
I        4.15487048       4.43749221       9.36756705       0.07458643      -0.02258670      -0.00422577
I        0.35482443       0.04860838       9.36756692       0.01298707       0.00797569      -0.01131012
I        2.66877355       6.92979043       0.04184264      -0.00380863      -0.00602246       0.00267525
I        4.86451933       4.34027536       2.96947351      -0.05940984       0.02054064      -0.01058582
48
Lattice="9.01938999 0.0 0.0 0.0 8.77776784 0.0 0.0 0.0 12.79618681" Properties=species:S:1:pos:R:3:forces:R:3 config_id=O-FAPI3_small_rotation_17 phase=O-FAPI3 mode=small_rotation seed=3269417070 source=O-FAPI3/CONTCAR energy=-227.2241616 stress="-0.0002924900125967436 0.0001644624297840709 -0.00028892016272766724 0.0001644624297840709 -0.00027708948204370156 3.3505038897144795e-05 -0.00028892016272766724 3.3505038897144795e-05 4.2884522909647994e-05" pbc="T T T"
C        4.61014493       0.32833126       3.16047157       0.04762819      -0.01548408       0.00896241
C        0.07151546       4.03276725       9.56726114      -0.00632864      -0.00054660      -0.00155323
C        8.94153335       4.71986028       3.17883513      -0.02239265      -0.02053674      -0.03118113
C        4.44299634       8.40593606       9.56057820       0.01266107      -0.02883046       0.02473811
N        5.06180757       8.16229595       2.36897828       0.22111710       0.07333035       0.12264695
N        0.63625194       4.95609582       8.82580183       0.00840877      -0.00469525      -0.00250543
N        1.20966183       4.97206670       3.23830118      -0.06548069      -0.02080667      -0.08033184
N        5.66588537       7.97273435       9.35630794       0.04635570      -0.03075336       0.07485564
N        3.38830738       0.80932161       3.13578786       0.03769018      -0.04534118      -0.03550618
N        7.83820536       3.65102537       9.46794750       0.00073792       0.01057246       0.00296357
N        8.35985350       3.99753311       2.25087127       0.03735260       0.05743737       0.01852956
N        3.89447916       0.64758851       8.94321619      -0.02140330       0.03213498      -0.01845449
H        5.30034113       0.74366153       3.90136337      -0.00936751       0.01253652      -0.00612025
H        0.68749750       3.54662251      10.33016365      -0.00296126      -0.00024493       0.00284924
H        8.30874964       5.14034915       3.96659436       0.00530241      -0.00073101       0.00608085
H        3.83961926       7.87884102      10.30616377      -0.00205449       0.00457743      -0.00138555
H        6.04954307       7.90322470       2.42154809      -0.08472095       0.03769909       0.00429368
H        1.63709919       5.13461262       8.93506962      -0.00917799       0.00285100      -0.00372107
H        1.58860789       5.49296174       4.03270049       0.01648123       0.10431131      -0.02739925
H        6.03585975       7.20924753       9.92745499      -0.04496188       0.08693215      -0.02637551
H        4.47583287       7.74034461       1.64227848      -0.03889404      -0.05574189      -0.07429914
H        0.12380547       5.44022965       8.08248823       0.00264452       0.00123061      -0.00024058
H        1.87175089       4.60787738       2.55473937       0.00968506       0.00820306       0.00013544
H        6.29990943       8.41394376       8.69177764       0.00051913       0.00690749      -0.00185898
H        2.67836396       0.46948883       2.48868136      -0.03003653       0.00686808       0.01913579
H        7.19176556       4.06129236       8.79560130       0.00604606      -0.00552599      -0.00565836
H        8.88843178       3.58725427       1.47512765       0.00544254      -0.02504856      -0.00682941
H        4.39547597       1.17601066       8.22260942      -0.02076919      -0.01596601       0.01831724
H        3.10122588       1.50149179       3.83183861      -0.04951444      -0.01128445      -0.00706957
H        7.46196006       2.96764393      10.12933352      -0.00289460      -0.00668121       0.00596432
H        7.34068381       3.91517123       2.25442298       0.00235597      -0.04457195       0.04843292
H        2.91187209       0.86504920       9.12403987       0.02534161      -0.02400703      -0.04173240
Pb       4.53083798       4.28292590      12.55414681      -0.02227483       0.00938212       0.00719868
Pb       0.02114307       0.10595802       6.15605340       0.00793254       0.00043995      -0.04258740
Pb       8.99824692       8.67180982      12.55414681      -0.01147492       0.00153860       0.03716010
Pb       4.48855201       4.49484194       6.15605340       0.02549876      -0.00288338       0.01210002
I        7.17846837       6.23686150       6.43993604       0.00902738      -0.02295076      -0.01105921
I        8.66456556       8.72915928       2.96947351      -0.03679744      -0.01551167      -0.00818663
I        6.36795414       1.71737739      12.30292209      -0.01351013      -0.00291088      -0.02778112
I        1.84092144       2.54090660       0.04184264       0.03058265      -0.00235596      -0.01219146
I        1.85825933       2.67150644       5.90482868       0.02786529      -0.01746066       0.10879815
I        2.65143567       7.06039036       5.90482881       0.03349992      -0.01539851       0.05299178
I        7.16113084       6.10626131      12.30292209      -0.03707819       0.01411325      -0.06191798
I        6.35061653       1.84797758       6.43993604      -0.02475191      -0.00253977       0.01944358
I        4.15487048       4.43749221       9.36756705       0.00179713       0.00100421      -0.00328816
I        0.35482443       0.04860838       9.36756692       0.00498441       0.00347070       0.00856972
I        2.66877355       6.92979043       0.04184264      -0.07487504      -0.05368688      -0.05668511
I        4.86451933       4.34027536       2.96947351       0.00476247       0.01695511      -0.00824832
48
Lattice="9.01938999 0.0 0.0 0.0 8.77776784 0.0 0.0 0.0 12.79618681" Properties=species:S:1:pos:R:3:forces:R:3 config_id=O-FAPI3_small_rotation_18 phase=O-FAPI3 mode=small_rotation seed=4045225119 source=O-FAPI3/CONTCAR energy=-227.22448115 stress="0.00034383319719453494 0.00017309949876906854 7.314661721969374e-06 0.00017309949876906854 -0.0003409596313590148 0.00016994938414719877 7.314661721969374e-06 0.00016994938414719877 0.0006877413798797083" pbc="T T T"
C        4.59267167       0.37075834       3.14910562       0.01422997       0.02312278       0.01311820
C        0.04954378       4.07351277       9.60537880      -0.03806851       0.02974559       0.03005657
C        8.94918162       4.74570343       3.16978297      -0.00396892      -0.01200609      -0.01634946
C        4.40883341       8.41775603       9.53776606      -0.01893317      -0.07208856       0.03787606
N        5.10266207       8.12734657       2.50232363       0.06931117      -0.01073598       0.02731906
N        0.64685063       4.94610558       8.82882813       0.01880723      -0.02100069      -0.02384441
N        1.19733764       5.08326487       3.10476555      -0.00926262      -0.00601697      -0.01563022
N        5.57227826       7.84511078       9.32962866       0.04711594       0.02678117       0.10633918
N        3.36212310       0.80876194       3.01217132      -0.01754426       0.01376469       0.04469873
N        7.84595599       3.62692469       9.43294852      -0.03206397       0.02757363       0.00717291
N        8.36584301       3.86459715       2.39222742       0.03812320       0.00903604       0.00142454
N        4.01687426       0.76539616       8.98908617      -0.23073625       0.00074230       0.07924921
H        5.23795428       0.89512560       3.86075173      -0.00795525      -0.00571342      -0.01143049
H        0.60885004       3.69183567      10.46519862      -0.00132146      -0.01242425       0.00475763
H        8.33640778       5.23332406       3.93432532       0.00535793      -0.00250029       0.00036444
H        3.71787914       7.91984558      10.22512206       0.00919570      -0.00098755      -0.01264999
H        6.09284083       7.90601752       2.62906116      -0.03889138       0.02567610      -0.02216010
H        1.62580710       5.18003274       9.00889812      -0.03859783      -0.01271103      -0.05101681
H        1.58515716       5.73386477       3.79201944       0.00520918       0.02756783       0.00669527
H        5.82166908       6.99947134       9.84799182      -0.03112888       0.14134107      -0.06762304
H        4.56096662       7.60124578       1.81001896       0.01094527       0.00758059      -0.01995455
H        0.18879369       5.33241821       7.99789584       0.01519199       0.02945422       0.03828853
H        1.84152502       4.66783401       2.43342922      -0.00890192       0.00431985      -0.00727539
H        6.27984165       8.24807405       8.71707059       0.02474592      -0.01229845       0.01490589
H        2.69100436       0.37035290       2.38316426      -0.01234589      -0.00125916       0.00643195
H        7.25065992       3.94047692       8.66772926       0.02584170      -0.01086534      -0.01428486
H        8.87485652       3.38229208       1.64537478      -0.00598782       0.00669059      -0.00015359
H        4.60567601       1.27611786       8.32427205      -0.02156170       0.01728424      -0.04034644
H        3.02689096       1.57335002       3.60295591       0.01338622      -0.07414436      -0.01808820
H        7.43484543       2.99384890      10.12302474       0.01867533      -0.02159145       0.01093172
H        7.35716837       3.72042547       2.47762661      -0.00581882      -0.01355278       0.00670937
H        3.06471052       1.09514118       9.16273925       0.14115079      -0.05939037      -0.05991595
Pb       4.53083798       4.28292590      12.55414681       0.04198508       0.01712583       0.01090413
Pb       0.02114307       0.10595802       6.15605340       0.06283541       0.01958045       0.03334205
Pb       8.99824692       8.67180982      12.55414681      -0.05338350      -0.03557954      -0.05324997
Pb       4.48855201       4.49484194       6.15605340      -0.03758589       0.00147096      -0.01840361
I        7.17846837       6.23686150       6.43993604       0.01636686      -0.04634402      -0.03107305
I        8.66456556       8.72915928       2.96947351      -0.02314583      -0.00620683       0.01115948
I        6.36795414       1.71737739      12.30292209      -0.02036129      -0.00557409      -0.02670069
I        1.84092144       2.54090660       0.04184264       0.00510875       0.02012283      -0.00808203
I        1.85825933       2.67150644       5.90482868       0.01311796       0.01924584       0.01122700
I        2.65143567       7.06039036       5.90482881       0.02957138       0.00556811       0.00982768
I        7.16113084       6.10626131      12.30292209      -0.01964865      -0.03182866       0.00132676
I        6.35061653       1.84797758       6.43993604       0.00528593       0.01935394      -0.02275441
I        4.15487048       4.43749221       9.36756705       0.00222709      -0.01169181       0.02269154
I        0.35482443       0.04860838       9.36756692       0.05013125       0.00530352       0.00048055
I        2.66877355       6.92979043       0.04184264       0.00357793      -0.01436059      -0.00704435
I        4.86451933       4.34027536       2.96947351      -0.01028140       0.00242010       0.01073316
48
Lattice="8.9349648 -0.03958665 0.01874014 -0.03852615 8.65825168 0.01612575 0.02658742 0.02350804 12.68135715" Properties=species:S:1:pos:R:3:forces:R:3 config_id=O-FAPI3_strain_rattle_01 phase=O-FAPI3 mode=strain_rattle seed=2022465068 source=O-FAPI3/CONTCAR energy=-227.04843571 stress="-0.01270218440076741 -0.0024387483684844944 0.0006920852517785036 -0.0024387483684844944 -0.009566424563321152 0.0008911169976298284 0.0006920852517785036 0.0008911169976298284 -0.0083516079789747" pbc="T T T"
C        4.54357116       0.33806837       3.15001120       0.09256966       0.14622301       0.17715663
C        0.07325511       3.99402939       9.48807007       0.07886299      -0.45815964       0.51358858
C        8.84964296       4.64803067       3.16714613      -0.30662519       0.18305118       0.31741689
C        4.37932710       8.30399161       9.50520500      -0.02250225      -0.11591963       0.12674670
N        5.06724893       8.08111445       2.43175078       0.19040320      -0.20091564      -0.10566513
N        0.62734844       4.90155469       8.75707882       0.43214638       0.68846613      -0.53910184
N        1.15466563       5.05600243       3.05487566       0.52156282       0.19621117      -0.05044037
N        5.62264331       7.92424334       9.41028143       0.02388958      -0.12052812       0.04907711
N        3.29984882       0.71745772       3.05127168      -0.14156007       0.08171269      -0.01249497
N        7.76782651       3.58569854       9.40667744      -0.43884953      -0.03387648      -0.17680876
N        8.29247244       3.73778441       2.43041220      -0.20673037      -0.38144529      -0.27827404
N        3.85257213       0.55822474       8.75574011      -0.20098808       0.15536959      -0.04064223
H        5.15381524       0.81907060       3.90597529       0.18635046       0.16961661       0.25741951
H        0.68779133       3.51040939      10.24223770       0.11501942      -0.14748289       0.19361191
H        8.23826748       5.13444524       3.92054800      -0.18424676       0.12288852       0.20426846
H        3.77224375       7.82578421      10.25681042      -0.30528968      -0.25645543       0.39479420
H        6.06025803       7.90287567       2.54024448       0.27249726      -0.07222898       0.02151277
H        1.61880879       5.07139893       8.86622068       0.40925396       0.15486306      -0.01844379
H        1.52571613       5.73041488       3.71158560       0.22344149       0.27760074       0.24380070
H        5.99969959       7.24895574      10.06447746       0.13277099      -0.26948739       0.28655756
H        4.55963565       7.60190656       1.69521358      -0.17261045      -0.21098836      -0.31037063
H        0.11546271       5.38254250       8.02232982      -0.08658902       0.17017418      -0.21907197
H        1.79603006       4.64460911       2.39131167       0.26854388      -0.12482721      -0.22265469
H        6.26038295       8.32749488       8.74823443       0.43053620       0.28400315      -0.43232637
H        2.65932431       0.31174368       2.38501906      -0.25079313      -0.16086677      -0.27088794
H        7.12367711       3.99462962       8.74194195      -0.17449133       0.10997850      -0.19353043
H        8.80127797       3.25407324       1.69600682       0.14192678      -0.17020031      -0.25646911
H        4.35710513       1.03470919       8.02312294       0.30409885       0.32317729      -0.47840526
H        2.92553777       1.39517243       3.70641830      -0.13177548       0.25045399       0.23110325
H        7.39952114       2.91371329      10.05931016      -0.30440635      -0.46676052       0.41074054
H        7.30145975       3.56833590       2.53474462      -0.47382704      -0.12504695       0.00115132
H        2.86001059       0.73685925       8.86072070      -0.36601523       0.04999128       0.06165277
Pb       4.49925828       4.22107023      12.45473438       0.09643978       0.01950673       0.04949073
Pb       0.02332588       0.04172855       6.05770381       0.03768166       0.24780217       0.24107573
Pb       0.00412023       8.60549270      12.50614237      -0.09788895      -0.16899847      -0.20266832
Pb       4.42747211       4.46828970       6.13103745      -0.02543327      -0.29306636      -0.03479993
I        7.07506672       6.13564217       6.38717334       0.05733702      -0.05798392       0.04031018
I        8.58732158       8.56990527       3.00085323      -0.07170210      -0.01075309      -0.03119348
I        6.35870658       1.68311408      12.22364721      -0.06821111      -0.00134109       0.03269860
I        1.79905445       2.44495466       0.01914781       0.14613729       0.25337300       0.05686865
I        1.82093332       2.63881341       5.85945880       0.00102560       0.02164554       0.01372013
I        2.67944792       6.97084637       5.86397500      -0.12101600       0.16932947       0.00985927
I        7.10772393       6.03678721      12.19868041      -0.06748171      -0.14705209       0.03492095
I        6.30828541       1.82029619       6.38767644       0.07812167      -0.05532831      -0.02548961
I        4.13963869       4.36198056       9.34193232      -0.05851297       0.00120550      -0.17925229
I        0.35923007       0.08170577       9.31082616       0.00915499      -0.02330578      -0.06730916
I        2.63636799       6.82166095       0.02485483      -0.01625520      -0.01186009       0.04578135
I        4.77298822       4.26503251       2.93750657       0.04402933       0.00823530       0.13097583
48
Lattice="8.89038681 -0.04213431 -0.03679029 -0.04100557 8.80528821 0.08066901 -0.05219593 0.11759888 12.5539793" Properties=species:S:1:pos:R:3:forces:R:3 config_id=O-FAPI3_strain_rattle_02 phase=O-FAPI3 mode=strain_rattle seed=441987521 source=O-FAPI3/CONTCAR energy=-227.0175223 stress="-0.015364611972497957 -0.002586385081521719 -0.0016037694700082345 -0.002586385081521719 -0.005994928308967621 0.003984572341851014 -0.0016037694700082345 0.003984572341851014 -0.010386042302683937" pbc="T T T"
C        4.50132033       0.36605446       3.09289284       0.63151608      -0.48933152      -0.27316876
C        0.01286370       4.13188540       9.42204633       0.25577318      -0.21647102       0.30840129
C        8.78457263       4.74830173       3.11541763      -0.71205230      -0.10209789       0.15786828
C        4.29611617       8.51413258       9.44457112       0.02079739      -0.23685805       0.22250362
N        5.02454644       8.23505547       2.43627473      -0.46371049       0.46156890       0.41228516
N        0.56846281       5.04928316       8.70174174       0.35820092       0.36849862      -0.15330527
N        1.12847191       5.16410109       3.05472064       0.89051480       0.30132713      -0.07248914
N        5.53394526       8.12695928       9.34011360       0.00947531      -0.06564826      -0.05890799
N        3.26428826       0.75143194       3.00563252      -0.40455385       0.38407288       0.23641734
N        7.66976161       3.71429004       9.29102548      -0.37985041      -0.20185774      -0.02913567
N        8.23501460       3.81729304       2.38273960       0.18110710      -0.15433589      -0.15301414
N        3.77893116       0.63152082       8.64820648      -0.30344381       0.28626953      -0.09273843
H        5.10369595       0.86066604       3.84108479       0.39409822       0.12897371       0.28376109
H        0.61980769       3.64549331      10.16125101       0.43062554      -0.33820861       0.51536637
H        8.17142354       5.24867397       3.86863968      -0.12097563      -0.02650880       0.01748058
H        3.68753546       8.03350142      10.18880590      -0.35153012      -0.33121186       0.48349028
H        6.01199297       8.05437016       2.53623360       0.55163813      -0.03046307       0.13533061
H        1.55426091       5.22259211       8.80494357       0.64882647       0.13781635       0.05705988
H        1.49340263       5.85472515       3.70756923       0.16997945       0.13542596       0.08338184
H        5.90526826       7.44496235       9.98038689       0.23349505      -0.48101686       0.45530935
H        4.52416976       7.74238907       1.70669557      -0.32494322      -0.17312779      -0.31752674
H        0.06353873       5.53311873       7.98110861      -0.40016483       0.43899384      -0.63219545
H        1.77088126       4.74068003       2.39080785       0.14605776       0.00380566      -0.04835842
H        6.17249653       8.53201757       8.68379061       0.47367731       0.32995557      -0.51484678
H        2.63120421       0.33405567       2.34699799      -0.49977508      -0.19300847      -0.38126105
H        7.03281939       4.12539338       8.63998088      -0.57122585       0.34810802      -0.56202027
H        8.74598566       3.31983354       1.64897528       0.05770703       0.00786850      -0.01417079
H        4.28535472       1.11056321       7.92338818       0.35461644       0.42118302      -0.59854202
H        2.88757615       1.44557079       3.66155018       0.07133058      -0.09749246      -0.08922581
H        7.29944169       3.03580800       9.93436785      -0.29437267      -0.51302712       0.48097593
H        7.24833794       3.64596372       2.49086781      -0.60464047      -0.16312207       0.02913269
H        2.79060597       0.81418575       8.75957766      -0.43928982       0.09846997       0.05377593
Pb       4.40277869       4.41694399      12.33259982       0.04850548      -0.04689926       0.04155301
Pb      -0.02224944       0.17346313       6.04494986       0.02430914       0.00714957      -0.07739049
Pb       8.79836489       8.79008612      12.32771723      -0.06268907       0.03943740       0.11744886
Pb       4.38440506       4.55690267       6.06953068      -0.01848813       0.02652567      -0.02128028
I        7.03274320       6.27718447       6.34117912       0.01389289       0.05561427      -0.01549092
I        8.45764838       8.76392178       2.95998116       0.06993493      -0.00524848      -0.01579877
I        6.19405714       1.80152710      12.02625091      -0.02304372       0.01334493       0.04819853
I        1.81176583       2.56412416       0.06941328      -0.03278560      -0.02624575       0.01226950
I        1.82392380       2.72763896       5.82100049      -0.10172752      -0.05627042      -0.01283293
I        2.56832018       7.13023908       5.86551901      -0.02853652       0.01591321       0.00693681
I        7.00858614       6.22405198      12.07984469       0.04418990      -0.04664749       0.02496581
I        6.19505248       1.88449465       6.30209016       0.09917330      -0.00226588      -0.01458145
I        4.04467760       4.48005210       9.22922956      -0.02982784       0.01441192      -0.07300554
I        0.32668687       0.13959482       9.18587508      -0.01123159       0.00121515      -0.00299046
I        2.59940497       6.94819049       0.07789095      -0.00586613      -0.03838148       0.00327058
I        4.76463726       4.35694383       2.93501704       0.00528224       0.00979645       0.03709421
48
Lattice="9.05511577 -0.08839538 0.02804131 -0.08602734 8.9523299 -0.08329016 0.03978339 -0.12141998 12.81510189" Properties=species:S:1:pos:R:3:forces:R:3 config_id=O-FAPI3_strain_rattle_03 phase=O-FAPI3 mode=strain_rattle seed=169275482 source=O-FAPI3/CONTCAR energy=-227.09055695 stress="0.006228231276410348 -0.004745967823574423 0.0011189474410785263 -0.004745967823574423 0.007294176246414493 -0.0035393457602499053 0.0011189474410785263 -0.0035393457602499053 0.005115761716649811" pbc="T T T"
C        4.60593653       0.28936016       3.18380442      -0.36899086      -0.13349336      -0.28502983
C        0.06225861       4.02036504       9.54246878       0.37827681       0.29678200      -0.15432688
C        8.94642173       4.72273371       3.15573401       0.01518452       0.04742730       0.05440479
C        4.40274399       8.45373850       9.51439837      -0.12414644       0.67817025      -0.65362545
N        5.09387571       8.30085937       2.36943549      -0.09850231       0.38251131       0.33080593
N        0.61811460       4.96417445       8.79385593      -0.40894835      -0.18050381       0.02726953
N        1.14584002       5.18654220       3.03013877       0.07504974      -0.04360467      -0.07096145
N        5.66471123       8.05560782       9.42404142      -0.36425432      -0.06655515       0.28552752
N        3.34336165       0.68934519       3.07845579       0.66445992      -0.16071525       0.13658558
N        7.86223286       3.55841072       9.47235845      -0.45313546      -0.04120366      -0.10688048
N        8.38596126       3.79297712       2.42114222      -0.03610447      -0.09246819      -0.08788865
N        3.91020033       0.45629230       8.84556253       0.71223335      -0.93834139       0.72218599
H        5.22253265       0.77479289       3.94281619       0.01827709       0.05548398       0.07951618
H        0.68843900       3.50841208      10.31076009      -0.29057633       0.35610620      -0.47832738
H        8.32497082       5.22025208       3.91091187       0.05391148      -0.03330185      -0.04974615
H        3.79087735       7.95387144      10.27885578      -0.02106265       0.16391487      -0.16532539
H        6.10129056       8.11007039       2.48208595      -0.35611430       0.13447099       0.01588820
H        1.62207103       5.13329116       8.90315779      -0.06565472       0.03588918      -0.06771289
H        1.51888092       5.87435828       3.68639242       0.05727449       0.04295771       0.06851239
H        6.05116267       7.34788119      10.09327871      -0.41611261       0.63994007      -0.56218001
H        4.58129793       7.81651616       1.63013456      -0.04354877      -0.06211867      -0.09963317
H        0.09599653       5.47264007       8.04531804       0.34287056      -0.41668444       0.58179716
H        1.79736697       4.76540307       2.36491445      -0.09353373       0.04284597       0.07882182
H        6.30814406       8.47678302       8.75098017      -0.00079045      -0.09745154       0.10393264
H        2.69576174       0.28088786       2.40920842      -0.02341237      -0.06472175      -0.06495552
H        7.20653873       3.99226800       8.79527427       0.40611718      -0.34205422       0.50788539
H        8.90347037       3.29857828       1.68503120      -0.06479778       0.04671299       0.05792206
H        4.41816905       0.95470219       8.10021455      -0.00082361      -0.20672752       0.21325063
H        2.96101791       1.38453519       3.73237022       0.19272291      -0.15288410      -0.10195008
H        7.49329958       2.85805810      10.13925651       0.05059909       0.30063079      -0.31154676
H        7.38267462       3.62181647       2.52756606       0.02356744      -0.01923797      -0.03884847
H        2.90345518       0.64503733       8.94863778       0.24784972      -0.18940160       0.09730124
Pb       4.52934395       4.19970606      12.57548651       0.11311321      -0.05426262      -0.10334177
Pb       0.04620789       0.07304658       6.13384696       0.03541621      -0.01430579       0.16587478
Pb      -0.03967621       8.70783045      12.53101088      -0.07784148       0.01463780      -0.18609999
Pb       4.49513001       4.48379053       6.13072730      -0.02560901       0.04335404       0.06536515
I        7.13269181       6.26739662       6.42314483       0.12122576       0.01638460       0.00089349
I        8.63942901       8.80198799       2.91366137      -0.01562256      -0.01280198      -0.00105814
I        6.43601471       1.56899679      12.29544301       0.00765189       0.09909193       0.04286177
I        1.83689253       2.58048254      -0.00617123      -0.05138087      -0.03958484       0.03352055
I        1.86108393       2.70733317       5.96222298      -0.08379002      -0.16601833      -0.08608408
I        2.60918593       7.08142957       5.89589608      -0.00415625      -0.03391293      -0.04822092
I        7.15597386       6.05174995      12.29561722       0.00678364       0.06890312      -0.01619716
I        6.38024637       1.70434353       6.43188536       0.01348104       0.09782588      -0.00594092
I        4.16443162       4.42645728       9.32233103       0.02323221      -0.01855847       0.10064626
I        0.40574869      -0.07061438       9.37436385      -0.05416459       0.02177333       0.01877316
I        2.59839409       7.01881808      -0.03260043       0.01124337      -0.02361165       0.02170318
I        4.86774414       4.31082082       2.94870220      -0.02746735       0.01871143      -0.06536386
48
Lattice="9.05588471 0.05314848 0.0045513 0.05172467 8.6614973 -0.01183207 0.00645712 -0.01724873 12.92334318" Properties=species:S:1:pos:R:3:forces:R:3 config_id=O-FAPI3_strain_rattle_04 phase=O-FAPI3 mode=strain_rattle seed=2271020152 source=O-FAPI3/CONTCAR energy=-227.21890532 stress="0.001741795488568897 0.002981578833433943 0.00023596461531889557 0.002981578833433943 -0.0022160249337723954 -0.0004379116577357562 0.00023596461531889557 -0.0004379116577357562 0.002896681426847095" pbc="T T T"
C        4.60368167       0.37521453       3.20158058      -0.13768789       0.33236453       0.31030965
C        0.10062024       3.96578824       9.65602352      -0.22480882      -0.03007954      -0.05284639
C        9.01341511       4.73169187       3.19786792       0.27050760       0.07080369      -0.01683342
C        4.51035386       8.32226550       9.65231086       0.01736960      -0.20444850       0.22840943
N        5.21684985       8.12933210       2.44341280       0.28223080      -0.45130192      -0.42717773
N        0.67295271       4.88182268       8.90719706       0.01727554      -0.04111863       0.01903560
N        1.21837717       5.06026902       3.09475859      -0.32038384      -0.08160199       0.07954194
N        5.76673107       7.95557731       9.55477533       0.22753415       0.02862628      -0.09013068
N        3.34720575       0.74216622       3.10175753      -0.15583336      -0.08680945      -0.14594745
N        7.89555966       3.63747442       9.56177427       0.27458371       0.10231103       0.03007048
N        8.44033530       3.81765360       2.45096202      -0.07911419       0.01179527       0.00975421
N        3.89643834       0.57014428       8.91474615      -0.17483780       0.32104594      -0.30484728
H        5.22602295       0.86031449       3.96940103      -0.17205782      -0.05652824      -0.12443477
H        0.71719874       3.48590438      10.42516232      -0.06942981       0.01239938      -0.03661034
H        8.39760423       5.20952510       3.96506610       0.03347261       0.03519115       0.02853701
H        3.88878021       7.83511517      10.42082739       0.16878431       0.08587991      -0.15914452
H        6.22130059       7.96098102       2.55292992      -0.06519355      -0.05428829      -0.08389982
H        1.67948299       5.06168510       9.01623837      -0.20557915      -0.05937218      -0.00423108
H        1.60046648       5.73669840       3.76119004      -0.06417941      -0.04869825      -0.03093109
H        6.14075733       7.28180070      10.22305111       0.08492011      -0.05379113       0.03264135
H        4.69852047       7.64703046       1.69521567       0.17097621       0.08206862       0.15504824
H        0.16035966       5.36007667       8.15768762       0.05254566      -0.03281193       0.05259904
H        1.86522419       4.65750983       2.41881870      -0.01687178      -0.02999740      -0.02071969
H        6.41844489       8.36776835       8.87772192      -0.20049818      -0.10793898       0.19191086
H        2.69481559       0.33178171       2.42516467       0.20311929       0.08912795       0.17301444
H        7.24803620       4.04204040       8.88406801       0.07668488      -0.01900836       0.04763427
H        8.95218028       3.34139799       1.70328263      -0.01207026      -0.02262666      -0.03110807
H        4.41401956       1.05444421       8.16575446      -0.16362368      -0.10847265       0.18019095
H        2.97384628       1.41416183       3.76780931      -0.13177403       0.13860244       0.12178444
H        7.51413704       2.95926412      10.22967038       0.07201355       0.08250455      -0.06478164
H        7.43391380       3.63750083       2.55946852       0.20071034       0.05962403      -0.00344088
H        2.89209630       0.73820500       9.02277684       0.05061773       0.04513348      -0.07372543
Pb       4.58812548       4.23505681      12.67779003       0.00263479       0.02505921      -0.00239032
Pb       0.03483349       0.10520059       6.22492574       0.00482260       0.03975565      -0.00389257
Pb       9.10765251       8.59765449      12.68221026      -0.04238101      -0.01284443      -0.01721949
Pb       4.56531958       4.49034424       6.22028136      -0.03178380      -0.08682961       0.00688020
I        7.25473631       6.20716909       6.49135465      -0.03120725      -0.07086752       0.00705850
I        8.76750004       8.65912062       2.99887986      -0.01978434       0.01065903      -0.06758934
I        6.41263152       1.72804547      12.40972636       0.05505766      -0.11286905       0.00340267
I        1.87807360       2.52595831       0.00981362      -0.04616365      -0.03233003       0.02688881
I        1.87362656       2.62831111       5.99224289       0.08693631       0.10433016      -0.01214816
I        2.75460932       7.00184348       5.97063723      -0.09118565       0.07554014      -0.03249113
I        7.23060087       6.03045139      12.45220078       0.02262301       0.06231629      -0.00989704
I        6.37932935       1.86848416       6.49438948       0.03959086      -0.09475051       0.02762282
I        4.20391320       4.40263747       9.48435931       0.00358769      -0.00060191      -0.04141558
I        0.34880730       0.04905656       9.43381778       0.01009751      -0.02316584       0.08534748
I        2.70190683       6.83051425       0.01600471       0.01118840       0.09651192       0.04426635
I        4.89386842       4.28313346       3.01515940       0.01656435       0.01150235      -0.00409481
48
Lattice="8.96355621 -0.0559265 0.02918748 -0.05442827 8.74671751 0.04787291 0.0414095 0.0697889 13.01901866" Properties=species:S:1:pos:R:3:forces:R:3 config_id=O-FAPI3_strain_rattle_05 phase=O-FAPI3 mode=strain_rattle seed=1128934061 source=O-FAPI3/CONTCAR energy=-227.14354375 stress="-0.0045046017750504435 -0.002838415690855149 0.0013072841550728488 -0.002838415690855149 0.0004721489130344949 0.002001619333578033 0.0013072841550728488 0.002001619333578033 0.00636941540496607" pbc="T T T"
C        4.56111701       0.34482756       3.24021313       0.43067864      -0.31256993      -0.16558154
C        0.07725954       4.06913145       9.75516870       0.36587872      -0.14875136       0.30132650
C        8.87307860       4.69111281       3.27827910      -0.72402164      -0.26833112       0.01517733
C        4.38922131       8.41541661       9.79323468      -0.27646022       0.24391227      -0.15954699
N        5.07149974       8.16332580       2.53147232      -0.41992178       0.29245330       0.09091519
N        0.63061224       4.98226686       9.00863330      -0.01425235       0.43459422      -0.45440171
N        1.15268352       5.11662202       3.15580665       0.86935232       0.27694788       0.05491522
N        5.63708524       8.02922187       9.69581328       0.20501243      -0.19383525       0.20338925
N        3.31262060       0.72995661       3.13881485      -0.38201030       0.20383076       0.10597458
N        7.79702233       3.64255638       9.67882148      -0.73158574      -0.13585854      -0.16009182
N        8.31493321       3.76989994       2.51800878       0.30321598       0.05292259      -0.02663862
N        3.87404589       0.58884108       8.99516962       0.38649342      -0.24588373       0.11615698
H        5.17331085       0.83239174       4.01873063      -0.08260679      -0.19615395      -0.23140498
H        0.69551718       3.58221736      10.52835278      -0.13891215       0.13677704      -0.20135800
H        8.25974375       5.18632337       4.05280599       0.08029844      -0.22874179      -0.27700150
H        3.78195027       7.93614916      10.56242814      -0.12422966      -0.01425426       0.06540142
H        6.06812763       7.98188415       2.64332984       0.12223627      -0.02018281       0.03862932
H        1.62505207       5.15246477       9.12241529       0.31736561       0.13316142      -0.04954883
H        1.52445230       5.79963745       3.83285849      -0.00148601      -0.22829500      -0.27307877
H        6.01733872       7.34874667      10.36540227      -0.08221707       0.14802335      -0.15837075
H        4.56228340       7.67746104       1.77302122       0.10849260       0.22763494       0.30569121
H        0.11535993       5.46640862       8.25549114       0.16835716      -0.17345312       0.25735583
H        1.79607077       4.69747092       2.47381450      -0.10898623       0.20237120       0.24343339
H        6.27535150       8.43303927       9.01832518       0.15368562       0.03976314      -0.10946527
H        2.67001694       0.31882904       2.45263521       0.10124511       0.15322756       0.21480057
H        7.14929757       4.05439758       8.99714602       0.16636326      -0.13258450       0.21109472
H        8.82538817       3.27767312       1.76287796      -0.11697885       0.27352686       0.32833221
H        4.37846479       1.06662069       8.24534776       0.09181071       0.00861050      -0.04139069
H        2.93664272       1.41763738       3.81343185       0.11855613      -0.32134159      -0.34349074
H        7.42952905       2.96674661      10.34597563      -0.18542088      -0.10598840       0.05137822
H        7.32119055       3.60087684       2.62338517      -0.34005411      -0.07592685       0.01265858
H        2.87811507       0.77145755       9.10247050      -0.21614311       0.00008654       0.08625635
Pb       4.54990303       4.31499265      12.79387518      -0.11966954       0.07375790      -0.03786172
Pb       0.05199993       0.17654933       6.23640319      -0.10392868      -0.11375896       0.04809081
Pb       8.91588990       8.69676142      12.84484430       0.10566152      -0.04252278      -0.03254630
Pb       4.46163185       4.51680853       6.26667387       0.04466250      -0.09107186       0.05787412
I        7.09292219       6.18153714       6.65763048       0.09869298       0.06038717      -0.00881664
I        8.61640611       8.59950399       3.13644228      -0.03841184       0.02992483       0.00649279
I        6.34404368       1.75654582      12.51976670      -0.00614591      -0.09399067       0.02770328
I        1.76166207       2.58243518       0.07754681       0.00435033      -0.05380268       0.00413172
I        1.83085813       2.67440291       6.07623824       0.03342174       0.04929148      -0.06953719
I        2.60312029       6.99858894       6.07247423      -0.07745056       0.12681981      -0.01659037
I        7.15392300       6.06427326      12.57971461       0.02922588       0.07378719      -0.04079916
I        6.32333174       1.83656105       6.54994692       0.02966924      -0.04443365       0.00077995
I        4.09239507       4.40706913       9.53011610       0.09337458      -0.00004957       0.10714063
I        0.47128106       0.09038906       9.59610437      -0.18570047      -0.01461406      -0.03323919
I        2.59241295       6.88099086       0.10821318       0.02334553       0.04945377      -0.00693193
I        4.78103659       4.35818422       3.05672084       0.02514723      -0.03486927      -0.05740744
48
Lattice="8.86486559 -0.02953918 -0.00711929 -0.02874785 8.82526494 -0.05941308 -0.01010044 -0.08661209 12.98225133" Properties=species:S:1:pos:R:3:forces:R:3 config_id=O-FAPI3_strain_rattle_06 phase=O-FAPI3 mode=strain_rattle seed=1824129788 source=O-FAPI3/CONTCAR energy=-227.09503072 stress="-0.012451017915889439 -0.0016349117107276668 -0.00031484291647454303 -0.0016349117107276668 0.0009332125438538918 -0.0026201469710024124 -0.00031484291647454303 -0.0026201469710024124 0.005715480834708233" pbc="T T T"
C        4.49927816       0.32270365       3.20830143       0.72792339      -0.30964231      -0.03903429
C        0.04976107       3.98849396       9.67811595       1.21889263       0.53383085      -0.09176258
C        8.77630473       4.72103647       3.17514864      -0.86420639      -0.17982969       0.15866902
C        4.32678782       8.38682669       9.64496316      -1.06734190       0.60571639      -0.21020552
N        5.02943706       8.22218517       2.40342098      -0.48254305       0.12150050       0.00756968
N        0.60261574       4.92060099       8.92014110      -0.74503159      -0.23419947       0.00794131
N        1.14238624       5.12841364       3.07958236       1.09257992       0.40175638      -0.00546994
N        5.56021875       8.00210020       9.54741142       1.02746684      -0.48936909       0.13250810
N        3.26600139       0.70875292       3.10759498      -0.75178584       0.38039976       0.11434435
N        7.68383390       3.58243939       9.57542405      -1.31625169      -0.53865076       0.07862478
N        8.22461908       3.79895364       2.43057318       0.36834302      -0.13197452      -0.23328997
N        3.79779794       0.49736955       8.94729316       0.81924762      -0.40913526       0.16389429
H        5.10309411       0.80715069       3.97617507       0.19431530      -0.01782028       0.06239643
H        0.65677974       3.48971171      10.45260898       0.04166135       0.25934321      -0.25575293
H        8.16808531       5.20952212       3.94399565      -0.09215125      -0.08511843      -0.05327203
H        3.72177113       7.89208332      10.42042956      -0.07424570       0.22459300      -0.20462224
H        6.01415799       8.04077788       2.51309463       0.64280887      -0.11083455       0.08708015
H        1.58618103       5.09399106       9.02742606       0.73389221       0.15396668       0.07098465
H        1.50938103       5.81057776       3.74485953       0.15920291       0.03164294      -0.03141985
H        5.93169501       7.30852925      10.22195013      -0.07193942       0.35106680      -0.39141082
H        4.52739390       7.73952374       1.65511371      -0.11004502       0.02329862      -0.02637564
H        0.09738454       5.41665695       8.16524482       0.07943919      -0.30076704       0.35858247
H        1.78018355       4.71565126       2.40195856       0.12395150       0.04961289       0.01841038
H        6.19531130       8.41969675       8.86419725       0.07794889      -0.14680344       0.14092650
H        2.63196681       0.30022831       2.43099258      -0.25648671      -0.03716854      -0.12711827
H        7.04709446       4.00427399       8.89323141      -0.03536832      -0.20245590       0.20413121
H        8.73102042       3.31293191       1.68145604       0.01170295       0.08584510       0.08865873
H        4.30101116       0.99006512       8.19158701      -0.02642694      -0.25553363       0.28932818
H        2.89348235       1.39338114       3.77346606      -0.04222104      -0.06343279      -0.09243538
H        7.31579625       2.89133262      10.25055666      -0.01290545       0.29565743      -0.35179794
H        7.24088385       3.62410556       2.54182767      -0.72664675      -0.18320396       0.04422313
H        2.81290697       0.67731884       9.05615897      -0.62481313       0.10563647       0.09110093
Pb       4.42861452       4.20490939      12.70377297       0.01609439       0.00966499       0.01116460
Pb       0.00373694       0.00102122       6.25413955       0.01562263       0.12120760      -0.04057638
Pb       8.81398479       8.61731391      12.66001117      -0.06845535      -0.02473403       0.02014435
Pb       4.37276730       4.46018476       6.22115501      -0.01543870      -0.10719968      -0.02624983
I        7.01934766       6.20458785       6.48299011       0.06204980      -0.02345818       0.02514381
I        8.46911548       8.74249532       2.94353550       0.09221469      -0.00484879       0.02138156
I        6.21815943       1.61718168      12.45954608      -0.02557885       0.03708906      -0.02344109
I        1.79072439       2.52879768       0.00826206      -0.03042358       0.02911271       0.01626768
I        1.80463430       2.62413945       5.96944385      -0.03975749      -0.01962956      -0.01600257
I        2.61281966       7.04347367       5.94132905       0.01034423       0.01219113      -0.01996207
I        7.00635404       6.01235034      12.42537298       0.03925574       0.05565524      -0.02182186
I        6.24659668       1.78768214       6.50380164      -0.03736114       0.01735067       0.02631596
I        4.07612506       4.36719826       9.49610781       0.02647461       0.00474949      -0.06066958
I        0.33837038      -0.03114019       9.49930490      -0.05898436       0.00305270       0.01179914
I        2.56393409       6.96695893      -0.01964299       0.09090670      -0.06581961       0.00916856
I        4.77942253       4.31207228       2.97432068      -0.09592975       0.02768890       0.06193086
48
Lattice="8.88826982 -0.08008194 -0.05175928 -0.07793661 8.65360683 0.06150143 -0.07343306 0.08965648 12.70012543" Properties=species:S:1:pos:R:3:forces:R:3 config_id=O-FAPI3_strain_rattle_07 phase=O-FAPI3 mode=strain_rattle seed=3850387983 source=O-FAPI3/CONTCAR energy=-226.8586388 stress="-0.017815455942521267 -0.005051068168726084 -0.002134756658908301 -0.005051068168726084 -0.011036192814479496 0.0033085276624203754 -0.002134756658908301 0.0033085276624203754 -0.008889085401139316" pbc="T T T"
C        4.49348385       0.33368757       3.12069423       0.47780007      -0.33624240      -0.21234458
C       -0.01999248       4.04102609       9.52238158       0.41370197      -0.39420203       0.55512169
C        8.75724581       4.62172405       3.12638888      -0.65338626       0.29365903       0.58267570
C        4.24376966       8.32906248       9.52807622       0.11648452      -0.39034944       0.36972090
N        4.98476264       8.06621311       2.43753106      -0.37045026       0.34489978       0.27718060
N        0.53281565       4.94169787       8.79066436       0.44504909       0.69238358      -0.50438255
N        1.10153446       5.06385697       3.07663632       1.16722654       0.23148234      -0.26520675
N        5.48306222       7.94338143       9.42125036      -0.05591297      -0.02111282      -0.03835560
N        3.25531263       0.71799953       3.03357038      -0.25835163       0.41914630       0.27990588
N        7.63684038       3.59752390       9.37818442      -0.80649924      -0.23954274      -0.11019943
N        8.21293673       3.71067536       2.38820869      -0.15130206      -0.73661800      -0.68523457
N        3.76098992       0.58616020       8.74134186      -0.45546403       0.44862596      -0.24976974
H        5.09239515       0.81559462       3.87548212       0.43031527       0.19534241       0.38372092
H        0.58760171       3.55882840      10.27031767       0.32930732      -0.26852335       0.41296168
H        8.14092185       5.11458009       3.88825347       0.00289219      -0.06238491      -0.06955065
H        3.63612858       7.85781404      10.28308903      -0.28003253      -0.28532213       0.42417773
H        5.97253774       7.88412844       2.53744337       0.54508896      -0.03738793       0.13271203
H        1.51745760       5.10750948       8.89304905       0.76223189       0.20669342       0.01226406
H        1.46240200       5.73963320       3.73491132       0.37064008       0.36360739       0.26287579
H        5.85607907       7.27018168      10.06993802       0.24205021      -0.43941992       0.41381303
H        4.48778437       7.58573441       1.70140053      -0.34109323      -0.23286751      -0.38328048
H        0.02719434       5.42089975       8.06135418      -0.29488690       0.33759356      -0.48007293
H        1.74664158       4.64631292       2.40489748       0.00451704       0.06452055       0.07564233
H        6.12083647       8.34004521       8.75529786       0.41711425       0.28139167      -0.45151078
H        2.62523008       0.31194457       2.36925738      -0.57627460      -0.25004234      -0.47156240
H        6.99942487       4.00567703       8.71965790      -0.45317688       0.25352865      -0.45634753
H        8.72706537       3.22108674       1.64619016      -0.08121168       0.05666542       0.09433512
H        4.26647543       1.05625208       8.00614368       0.29185669       0.37086721      -0.54567258
H        2.87471394       1.40045617       3.69616318       0.04976148      -0.05641247      -0.04906579
H        7.26839093       2.93100465      10.03118988      -0.38030460      -0.57896596       0.52379060
H        7.22705872       3.54637300       2.49961423      -0.67977457      -0.25180929      -0.03508009
H        2.77197867       0.76975413       8.85521978      -0.38364864       0.09314440       0.02286139
Pb       4.36618925       4.28839495      12.44952893      -0.01471502      -0.07701870       0.09671522
Pb      -0.01803785       0.05677446       6.13933543       0.04303624       0.29376812      -0.09321726
Pb       8.71910074       8.52826077      12.49057783       0.03729164       0.22827293      -0.01372857
Pb       4.30445987       4.43870518       6.15039358      -0.02889311      -0.09740348      -0.21804163
I        6.97706931       6.18952803       6.41349359      -0.21167818      -0.33029874      -0.03196940
I        8.46136003       8.51880908       2.93182444      -0.00321303       0.01711363       0.05001531
I        6.23755067       1.73129915      12.16538073      -0.20697189       0.10974774       0.04911195
I        1.81739847       2.48372937       0.02129796      -0.00508865       0.05793059       0.04443757
I        1.67867482       2.66662327       5.86614939       0.13721169       0.15765391      -0.01027286
I        2.54681554       7.03581197       5.82810901       0.01683116       0.00234574       0.08115053
I        6.95875019       6.06602093      12.22220415      -0.10866332      -0.25656453      -0.01736070
I        6.18771943       1.85164510       6.32121073       0.06158659      -0.06758278       0.03598487
I        4.02523424       4.43386685       9.21151895      -0.02354078      -0.03195451       0.46729713
I        0.12937731       8.69221408       9.33557556       0.16263458       0.07075941       0.06531972
I        2.41033035       6.88097945      12.72806757       0.26476416      -0.14172590       0.01992133
I        4.72052518       4.29395433       3.01033052       0.03514045      -0.00739183      -0.34148621
48
Lattice="8.93096893 -0.05042321 -0.03115764 -0.04907242 8.8489256 -0.05295465 -0.04420466 -0.07719703 12.64717142" Properties=species:S:1:pos:R:3:forces:R:3 config_id=O-FAPI3_strain_rattle_08 phase=O-FAPI3 mode=strain_rattle seed=2874504269 source=O-FAPI3/CONTCAR energy=-227.15975922 stress="-0.009051291007329123 -0.0028404653712445437 -0.001323950114152109 -0.0028404653712445437 -0.0016325101465367734 -0.0026588201854255895 -0.001323950114152109 -0.0026588201854255895 -0.004767289942220083" pbc="T T T"
C        4.52358451       0.31538952       3.11338989       0.12565517      -0.20366851      -0.16590006
C        0.01545560       4.00623392       9.43038718       0.67943721       0.29889012      -0.05627402
C        8.82244882       4.71544290       3.07182957      -0.20768205       0.24543039       0.33352705
C        4.31432009       8.40628722       9.38882686      -0.37213372       0.31839133      -0.18574280
N        5.04167250       8.23418816       2.33217317      -0.10163066       0.26345542       0.31077871
N        0.57228523       4.93897845       8.69097725      -0.28973528      -0.15964590       0.11478841
N        1.13099689       5.14175181       2.99979820       0.44107366       0.07059554      -0.16730205
N        5.55807711       8.01756397       9.29021362       0.24217677      -0.20291145       0.09707742
N        3.28050247       0.70529176       3.01886210       0.07436681       0.14415933       0.15555762
N        7.70758269       3.58110384       9.30927753      -0.69458981      -0.32367330       0.06292380
N        8.27073539       3.79163289       2.34747093      -0.21125834      -0.44880187      -0.31417778
N        3.80134829       0.49642326       8.70627488       0.41270184      -0.29462608       0.21995837
H        5.12876003       0.80028655       3.86006272       0.37820815       0.25877782       0.41966784
H        0.62609823       3.50526561      10.18295985       0.16554286       0.02175369       0.03710667
H        8.20655110       5.20723389       3.82276237      -0.10808122       0.09375358       0.13911581
H        3.70388948       7.91221312      10.14565950      -0.14680406      -0.00393411       0.06101795
H        6.03385411       8.05006585       2.43622780       0.32252796      -0.00532865       0.10339038
H        1.56249409       5.11060471       8.79290284       0.48202395       0.08968898       0.04918441
H        1.49740409       5.82537508       3.64727771       0.25135673       0.35405232       0.31626395
H        5.93213411       7.32176381       9.94594790      -0.05435320       0.10486336      -0.10419100
H        4.53897197       7.75085724       1.60428481      -0.36711009      -0.33429405      -0.50707531
H        0.06414268       5.43698887       7.95721612      -0.10487829       0.00607317      -0.04879866
H        1.77627835       4.72588513       2.33769504       0.14781241      -0.07726370      -0.13151273
H        6.19874150       8.43428244       8.62312777       0.17989480       0.03904048      -0.10590228
H        2.64446827       0.29665907       2.36122909      -0.48775613      -0.29602801      -0.47555498
H        7.06693133       4.00505656       8.64666195      -0.20343516       0.01520470      -0.08581501
H        8.78399911       3.30256596       1.61603816       0.07812991      -0.11725699      -0.17265205
H        4.30916991       0.98869758       7.96896934       0.10759286       0.01171847      -0.06184140
H        2.90188146       1.39312129       3.66894081       0.00095180       0.12208700       0.14419589
H        7.33661138       2.88951002       9.96761100      -0.04313634       0.04450968      -0.06573862
H        7.27978248       3.61870712       2.45844416      -0.41417027      -0.13584890      -0.00868800
H        2.80842256       0.67924607       8.81511907      -0.28822707       0.02039906       0.06954286
Pb       4.39598326       4.19192353      12.35976698       0.13227493       0.06961590      -0.00055977
Pb      -0.00885832       0.06842859       6.06988184       0.03344602       0.05475427       0.07427674
Pb       8.83175722       8.64494071      12.33880663      -0.07672543      -0.13987769      -0.07210277
Pb       4.40820078       4.49002097       6.03872662      -0.02984733      -0.02489834       0.00492134
I        7.07511914       6.21649657       6.31078214      -0.01174390       0.00280128      -0.00322791
I        8.48388409       8.70429038       2.86511086       0.08244618       0.01480110      -0.07081555
I        6.21558378       1.60088746      12.11306706       0.06541264      -0.01346069       0.01797087
I        1.78936640       2.55183075       0.00487265      -0.02840363      -0.02282621       0.03414623
I        1.82439012       2.64572514       5.78436256      -0.06167235      -0.02843408       0.01398935
I        2.54549269       7.04999399       5.81851741       0.06771565      -0.01954552      -0.01334211
I        7.02250650       6.01194130      12.12956826       0.02648342       0.07476924      -0.02782858
I        6.26191784       1.77243204       6.30270519      -0.02255685       0.06839981       0.04163640
I        4.05989875       4.39112924       9.19963668       0.01389808      -0.01397422       0.08401534
I        0.35662501       0.00106490       9.25511517      -0.07986466      -0.00250056       0.07175154
I        2.63191627       6.93568298      -0.01799853      -0.12880164       0.05390974      -0.02696711
I        4.77151215       4.31451113       2.91505103       0.02346771       0.00690304      -0.10479438
48
Lattice="8.96488053 -0.02511884 0.05933967 -0.02444593 8.81858764 -0.0032926 0.08418768 -0.00479993 12.68572154" Properties=species:S:1:pos:R:3:forces:R:3 config_id=O-FAPI3_strain_rattle_09 phase=O-FAPI3 mode=strain_rattle seed=3251871765 source=O-FAPI3/CONTCAR energy=-227.22095433 stress="-0.005972131402855133 -0.0013957825816253479 0.0024602864683119464 -0.0013957825816253479 -0.0015935228656158906 -0.00014863875611983965 0.0024602864683119464 -0.00014863875611983965 -0.0034280789138325693" pbc="T T T"
C        4.57360151       0.34493349       3.17092426       0.04291529       0.05733299       0.07611806
C        0.12302182       4.04662454       9.48273689       0.14276620      -0.15514623       0.22032782
C        8.90119536       4.74206751       3.19800388      -0.28821495      -0.15482354      -0.05481522
C        4.45061585       8.44375847       9.50981651      -0.22668390       0.28981131      -0.22369997
N        5.10841805       8.23398303       2.43758007      -0.01197626      -0.10819046      -0.08684904
N        0.67713786       4.97357120       8.75199226       0.06443751       0.30592347      -0.27199901
N        1.18062872       5.14472554       3.04990448       0.20493357       0.18571070       0.10908345
N        5.69704187       8.05931014       9.42134141       0.00596969      -0.18428044       0.20521351
N        3.32588974       0.72945521       3.06566963      -0.08939348      -0.00372554      -0.08611096
N        7.84230288       3.64403973       9.43710655      -0.34077118      -0.01221837      -0.13695477
N        8.33733554       3.81567622       2.46051820       0.07562574       0.13166972       0.14070638
N        3.90605553       0.55526447       8.77493027       0.22352863      -0.35671979       0.33135196
H        5.19009881       0.83417370       3.92884152       0.03129192       0.03601393       0.05149687
H        0.74224257       3.55337938      10.24102111      -0.03172596       0.02441814      -0.03859372
H        8.29198291       5.23474196       3.94780801      -0.24865351       0.10955894       0.21220682
H        3.84412685       7.95394782      10.25998760      -0.30496628      -0.14842724       0.27737443
H        6.10495036       8.05388934       2.55100842       0.13239840      -0.04697583       0.00547655
H        1.67268747       5.14800642       8.86528812       0.20880522       0.09602957      -0.02587818
H        1.55699807       5.83077711       3.70701962       0.02413036       0.03357713       0.03606523
H        6.07722208       7.37066754      10.07896969      -0.07407213       0.05706703      -0.02993601
H        4.59498592       7.74670141       1.69955754      -0.03673725      -0.04823752      -0.06426049
H        0.16099478       5.46426644       8.01360446       0.04650257      -0.02484917       0.04531022
H        1.82046009       4.72830969       2.38993782       0.31836066      -0.13731666      -0.26397532
H        6.33457324       8.47262498       8.76106469       0.38988137       0.19170222      -0.34189398
H        2.67954019       0.31664296       2.39718957      -0.03206916      -0.03719288      -0.05001213
H        7.19365324       4.06095842       8.76831657       0.03967161      -0.03714503       0.04342568
H        8.84372536       3.32553714       1.72924600       0.20499028      -0.14428859      -0.24089188
H        4.40973430       1.04310217       8.04329280       0.27586334       0.19449763      -0.31950469
H        2.95440194       1.41760213       3.71783461      -0.07753624       0.13720032       0.11689112
H        7.47462586       2.95749256      10.08978468      -0.14673309      -0.18218301       0.13155220
H        7.34320321       3.64116019       2.56077010      -0.31591020      -0.02925948       0.06557373
H        2.91094041       0.73527736       8.87504967      -0.26026464      -0.01993633       0.09640975
Pb       4.59389960       4.24880913      12.45618986      -0.02096943       0.12500135       0.04051039
Pb       0.07305732       0.09676543       6.07345695      -0.04139492       0.04564745       0.08123846
Pb       9.00189221       8.70350493      12.50754437       0.07204476      -0.09201798      -0.05141793
Pb       4.48760115       4.53013703       6.12743976       0.00321241      -0.08588070      -0.01131806
I        7.13885269       6.24827980       6.44231354       0.06639586       0.02899685       0.00930031
I        8.57613133       8.73679034       2.98844126       0.03714107       0.00462220       0.04760061
I        6.40415169       1.69480311      12.25478675      -0.03191387       0.01180047      -0.00316711
I        1.84061069       2.54161107       0.03775161      -0.03150856      -0.01464048       0.00773982
I        1.87079077       2.66921054       5.86002809      -0.01232484       0.01137424       0.00830096
I        2.67173486       7.09134920       5.82667368      -0.01506395       0.00734293       0.02867680
I        7.18105621       6.12116589      12.22671405       0.01317210       0.00606360       0.00401193
I        6.36749179       1.86156986       6.40317850       0.01380769      -0.00161479       0.00013589
I        4.17416247       4.45108250       9.29215450      -0.00297222      -0.00924747       0.11664339
I        0.42278169       0.06114854       9.29433780      -0.03208401      -0.00918273      -0.05692968
I        2.62725928       6.95823876       0.06442777       0.00620618      -0.03968470      -0.00563561
I        4.82277627       4.35563725       2.99543101       0.02988763      -0.00817724      -0.14489859
48
Lattice="8.93826149 0.03486773 0.04971372 0.03393365 8.62115594 0.07678114 0.07053094 0.11193116 12.92573636" Properties=species:S:1:pos:R:3:forces:R:3 config_id=O-FAPI3_strain_rattle_10 phase=O-FAPI3 mode=strain_rattle seed=3301168938 source=O-FAPI3/CONTCAR energy=-227.10125286 stress="-0.011153314521015386 0.0020077227867635605 0.0021884431244847684 0.0020077227867635605 -0.006402975325452958 0.003667449751617297 0.0021884431244847684 0.003667449751617297 0.00014800911267922055" pbc="T T T"
C        4.55907473       0.39627125       3.22871978       0.56033213       0.06734935       0.30373313
C        0.13941435       4.04368807       9.69887230      -0.07226306      -0.42857065       0.43857946
C        8.90297233       4.72372837       3.29117643      -0.60158948      -0.34316357      -0.14752715
C        4.48331214       8.37114511       9.76132896      -0.22976069      -0.27905109       0.37312624
N        5.14524872       8.10567311       2.55252829      -0.11300013      -0.39134162      -0.45958687
N        0.69879830       4.94685552       8.96206373       0.31876414       0.59456045      -0.49742929
N        1.20795148       5.06531619       3.15299186       0.56588524       0.34402015       0.20513976
N        5.72362049       8.00267261       9.66622380       0.51748754      -0.18261258      -0.04133376
N        3.31768917       0.76303448       3.12642981      -0.94084528       0.20758638      -0.13823800
N        7.83335818       3.70039081       9.63966175      -0.23386202       0.02206832      -0.14054808
N        8.33542522       3.80760597       2.53197566       0.40376558       0.26173393       0.13972332
N        3.88897498       0.64878846       8.94151097      -0.29883809       0.47498502      -0.37203154
H        5.17619260       0.88555278       4.00470610      -0.14692724      -0.19151559      -0.26192776
H        0.75275156       3.57248024      10.46630450       0.03499518      -0.11273182       0.13579085
H        8.29801990       5.20824258       4.06036572      -0.14849861      -0.03704008       0.02266430
H        3.87457904       7.89517021      10.52196413      -0.18371971      -0.15900646       0.24486215
H        6.13753718       7.93719060       2.66529851       0.40146256      -0.16074006      -0.03793498
H        1.69245106       5.12496468       9.07792061       0.29194205       0.10802080      -0.01468232
H        1.58705580       5.74450762       3.82833738      -0.08297886      -0.21254390      -0.23247495
H        6.09743511       7.33794670      10.32960009       0.22926981      -0.32647332       0.30033216
H        4.63088459       7.61916533       1.79671017       0.19914809       0.23483835       0.33344169
H        0.18819748       5.41642953       8.21476047      -0.04897659       0.12601475      -0.16898688
H        1.84384215       4.65637805       2.47599757       0.19358330      -0.00772585      -0.08164095
H        6.36270403       8.40488903       8.99645351       0.26711316       0.16211761      -0.27098668
H        2.67121792       0.34909374       2.44230315       0.17997460       0.18881094       0.26849720
H        7.19007971       4.09760489       8.96275922      -0.08478383       0.08955634      -0.12604103
H        8.83785492       3.32506465       1.78181285       0.09470661       0.04219686       0.01434633
H        4.39516790       1.12232885       8.19986302       0.16740965       0.19178488      -0.28468966
H        2.95115692       1.43931713       3.79762817      -0.17241187       0.04040534      -0.02687736
H        7.46153614       3.03275621      10.29889088      -0.24382199      -0.37039949       0.32407183
H        7.34295984       3.63138103       2.63370688      -0.37868743      -0.03355938       0.09092282
H        2.89787382       0.81915519       9.04632885      -0.47616813       0.12237554       0.01852854
Pb       4.56421707       4.31031063      12.75524875      -0.02416643       0.06814368      -0.04382918
Pb       0.05203198       0.15303741       6.21738212      -0.02747045      -0.00811914      -0.00191970
Pb       8.99781072       8.65167685      12.79558862       0.07873179      -0.00707301       0.02174194
Pb       4.48082631       4.48235720       6.26511299       0.09839850      -0.01946290       0.07214627
I        7.20264769       6.20680243       6.57302630      -0.02803264      -0.05483663       0.02866984
I        8.63637401       8.62729861       3.13570479       0.01547063       0.01674269      -0.00108531
I        6.39595837       1.78322374      12.44600287      -0.15973224       0.06895990       0.02175563
I        1.83630337       2.49419699       0.07971935      -0.02235751       0.03125168       0.00274976
I        1.90494709       2.69311529       6.00060731      -0.04479989       0.01827589      -0.00039714
I        2.71355636       7.00795825       6.05108275      -0.04090767       0.09234256      -0.03409246
I        7.17155755       6.14099886      12.48961529       0.00887977      -0.10832072       0.03117950
I        6.32541835       1.88388797       6.56732761       0.03120833      -0.03284322      -0.02212765
I        4.16141156       4.45539976       9.52462293       0.06079849      -0.01143500       0.08692645
I        0.40402276       0.13773661       9.47092936      -0.02020452      -0.02222062      -0.01701361
I        2.66140385       6.84598048       0.09884388       0.14386266      -0.08089378       0.06587657
I        4.86322968       4.30646543       3.10136432      -0.03838545       0.00753903      -0.12140346
48
Lattice="8.88664302 0.07208094 0.06346989 0.07014995 8.81044046 0.05877341 0.09004739 0.08567959 12.88382242" Properties=species:S:1:pos:R:3:forces:R:3 config_id=O-FAPI3_strain_rattle_11 phase=O-FAPI3 mode=strain_rattle seed=1362190370 source=O-FAPI3/CONTCAR energy=-227.0508197 stress="-0.012373883074202452 0.004411569984382087 0.0027680233829561075 0.004411569984382087 -0.0006189484399696467 0.002587330932297674 0.0027680233829561075 0.002587330932297674 0.002076467667053353" pbc="T T T"
C        4.53916092       0.41637724       3.22459678       0.98473017      -0.16385413       0.21711598
C        0.17022843       4.11129769       9.65937606       0.32638199       0.06636840       0.06538267
C        8.87617864       4.85649120       3.28470881      -0.89182418      -0.74413468      -0.44283031
C        4.50724634       8.55141156       9.71948809      -0.85869899       0.15385913       0.15124602
N        5.15337630       8.29898979       2.53558027      -0.42055848      -0.27070836      -0.37494250
N        0.72906171       5.03823939       8.92395923      -0.21661736       0.03530787      -0.07513474
N        1.22701755       5.17441621       3.13422205       0.56546080       0.52813426       0.36956702
N        5.73866664       8.18013396       9.62739293       1.03199066      -0.42695407       0.04193495
N        3.30636537       0.78634648       3.11993691      -1.37611867       0.33368542      -0.13915713
N        7.81801446       3.79206414       9.61310778      -0.35501598      -0.17232045       0.02969883
N        8.30692339       3.91963288       2.52896737       0.75587932       0.79637472       0.59665775
N        3.88260898       0.65888257       8.91734620       0.14264737       0.10623058      -0.10571043
H        5.15592756       0.91718650       3.99802899      -0.12413179      -0.28220849      -0.34201153
H        0.77917954       3.63052925      10.42626041       0.10531542      -0.02579683       0.07722933
H        8.27793244       5.34744521       4.04946319      -0.30218770      -0.03774309       0.08283478
H        3.90118459       8.06078814      10.47769462      -0.23800835      -0.04106805       0.14034995
H        6.13937005       8.13061309       2.64988697       0.65932049      -0.21234044      -0.00538029
H        1.71787575       5.22406407       9.04062864       0.39476678       0.08173007       0.04623995
H        1.60779917       5.86855799       3.80657398      -0.24333409      -0.43951738      -0.44304703
H        6.10851296       7.50085160      10.29058277       0.15845858      -0.11448627       0.07854473
H        4.63880947       7.80139023       1.78240614       0.19511437       0.31217958       0.41682793
H        0.22227456       5.51771318       8.17730291      -0.06892919       0.02199415      -0.06196803
H        1.85647951       4.76061761       2.46125684       0.39606773      -0.05241397      -0.20708377
H        6.37472901       8.59529948       8.95995738       0.29951684       0.08838953      -0.19467619
H        2.66087104       0.36220634       2.43786575       0.17926307       0.26350457       0.33294567
H        7.17912046       4.19688838       8.93656642      -0.15932769       0.04038767      -0.10140623
H        8.80327841       3.43023306       1.78301341       0.24448326       0.01582136      -0.07169531
H        4.38674359       1.14655601       8.17791005       0.18048899       0.07137439      -0.15046547
H        2.94581648       1.47447513       3.78699413      -0.19955355      -0.01808716      -0.11503823
H        7.44653017       3.10676873      10.27100292      -0.06003060      -0.06242183       0.00851408
H        7.31962527       3.73525050       2.62918049      -0.52835922      -0.00085181       0.16784685
H        2.89813106       0.82870157       9.01992202      -0.74873505       0.15702698       0.07570942
Pb       4.59949724       4.36785459      12.68700065      -0.16313281       0.16420280      -0.00199039
Pb       0.12113695       0.10539759       6.22819013      -0.24139159       0.27298288      -0.02845254
Pb       8.95906691       8.85604670      12.77237696       0.27059784      -0.10201147       0.06858701
Pb       4.53345577       4.60800391       6.24409005      -0.01131853      -0.19882792       0.01812527
I        7.16932777       6.37615339       6.57805537      -0.04605982      -0.07125233      -0.00362091
I        8.59002816       8.85889420       3.13279157       0.08123901      -0.00418623       0.01565834
I        6.37408630       1.81782139      12.45987702      -0.18025250       0.07503507      -0.05510944
I        1.77699915       2.54675169       0.10588940       0.11129561       0.01319964      -0.08741248
I        1.85324570       2.74695277       5.94842763       0.07621174       0.03629297       0.02628228
I        2.66700362       7.17308979       6.05216908       0.35047698      -0.26364887      -0.07890589
I        7.17160589       6.28142531      12.44818934      -0.01903435      -0.09167935       0.00933919
I        6.29726255       1.87363041       6.56344975      -0.10295484       0.20741960      -0.06606227
I        4.18840878       4.52033630       9.45876518       0.04719532       0.01081188      -0.02775952
I        0.40818903       0.11962497       9.45780669      -0.02932485      -0.01449941      -0.01541867
I        2.69330866       6.98420093       0.10742707       0.06297196      -0.05410556       0.02387741
I        4.82333938       4.38270446       2.98242218      -0.03497416       0.01280465       0.13476391
48
Lattice="9.12183575 -0.04263624 -0.08527485 -0.04149405 8.79446057 -0.02014023 -0.120983 -0.02936033 12.94780035" Properties=species:S:1:pos:R:3:forces:R:3 config_id=O-FAPI3_strain_rattle_12 phase=O-FAPI3 mode=strain_rattle seed=326179776 source=O-FAPI3/CONTCAR energy=-227.12210604 stress="0.010402078574632014 -0.00229265139829957 -0.003451401498568166 -0.00229265139829957 0.004655981477419896 -0.0008745459843873913 -0.003451401498568166 -0.0008745459843873913 0.0071324005553732766" pbc="T T T"
C        4.60183468       0.32897255       3.16167033      -0.28341977      -0.26599828      -0.40632257
C       -0.03694443       4.01704232       9.66977707      -0.05761503       0.21181901      -0.24034888
C        8.99688506       4.70556302       3.11031957       0.40217312       0.34366169       0.21349835
C        4.35810613       8.39363270       9.61842631       0.40409907      -0.04763773      -0.09040196
N        5.14310239       8.19675863       2.38902686      -0.16860754       0.52690811       0.44639932
N        0.53708192       4.94177336       8.91303405      -0.15388403      -0.31701212       0.21172690
N        1.14200822       5.12244890       3.08400592      -0.15193955      -0.28997094      -0.23453539
N        5.62865023       8.00797956       9.50857820      -0.42012120       0.28599166      -0.10866618
N        3.33313808       0.71507415       3.07378637       0.62812620      -0.09739911       0.19968505
N        7.81978008       3.60060472       9.49835864       0.17086064       0.01501717       0.10991906
N        8.43686114       3.78422992       2.36849959      -0.22331776      -0.39657325      -0.39639912
N        3.83084085       0.52924474       8.89250664       0.05622716      -0.03799137      -0.03192051
H        5.21591662       0.81421135       3.92434105       0.02014271       0.01798085       0.03425678
H        0.58176029       3.52248376      10.43469175      -0.10458208       0.12182679      -0.16663586
H        8.36379778       5.19663111       3.88464936       0.43178160      -0.21633370      -0.39690283
H        3.72964164       7.90490369      10.39500007       0.37162453       0.20848335      -0.36694883
H        6.15567655       8.01499832       2.48894383      -0.40768023       0.16872638       0.03790192
H        1.54798802       5.11357200       9.01214120      -0.29279024      -0.09064299      -0.00048826
H        1.51300358       5.80462136       3.74730573       0.07316098       0.02217568       0.00032563
H        6.00611402       7.31921892      10.17501745      -0.10338145       0.19400993      -0.16991015
H        4.63357282       7.71323390       1.64498291      -0.04534220      -0.01112026      -0.03151658
H        0.02295078       5.43354982       8.16675643       0.09636248      -0.15621779       0.20968977
H        1.80464593       4.70719778       2.40073239      -0.54250155       0.26403712       0.48772083
H        6.28738391       8.42018904       8.82340943      -0.48223449      -0.22949983       0.43107607
H        2.68707668       0.30593982       2.40274711      -0.02263307      -0.04303483      -0.04785507
H        7.16981456       4.01893126       8.82542428       0.14818929      -0.10064023       0.16090900
H        8.96500834       3.29585500       1.61475499      -0.40876539       0.28640714       0.46137028
H        4.35438639       1.01617092       8.13652837      -0.31628873      -0.27479201       0.41835146
H        2.94318296       1.40080327       3.74419986       0.28001595      -0.30771041      -0.24261145
H        7.43629331       2.91540082      10.17191159       0.18431859       0.30563831      -0.26423949
H        7.42391854       3.61193705       2.48735195       0.41890981      -0.00088448      -0.15615762
H        2.81623009       0.71051081       9.01054919       0.52742722      -0.09260434      -0.07841988
Pb       4.39258766       4.24212492      12.61594455       0.14790167       0.02830442       0.05890558
Pb      -0.00006719       0.08961562       6.21968494      -0.01835418       0.01675981       0.02389515
Pb       8.94297198       8.64491873      12.60602500      -0.08963254      -0.09741282      -0.04683478
Pb       4.48321548       4.46773417       6.17665935      -0.01510417      -0.02814258      -0.05942752
I        7.13865107       6.18338320       6.44625785       0.12225028       0.08456612      -0.01135814
I        8.70121461       8.67157275       2.88298151       0.00861125       0.00882448       0.04345174
I        6.32029366       1.67258162      12.37390867       0.02676815       0.04136406      -0.00239337
I        1.85100927       2.52446136       0.01726509      -0.00157446       0.07525791       0.04047615
I        1.84831621       2.65345673       5.89517557      -0.08807255      -0.07651189       0.02047450
I        2.60787737       7.06174641       5.96259521      -0.07787097       0.00568028      -0.01036542
I        7.10642697       6.06770338      12.36321830      -0.07187449      -0.02182278      -0.00137706
I        6.31850679       1.79929802       6.44260193       0.06382214      -0.03215590       0.02394054
I        4.10046912       4.42565748       9.43619222      -0.01856130      -0.01701980      -0.07581242
I        0.29101370       0.05751214       9.47382735      -0.01755941      -0.00187969      -0.04293596
I        2.65369327       6.92100052      -0.01405518      -0.01387561       0.00869085      -0.01160848
I        4.86761781       4.31469944       2.92611739       0.01481114       0.00887802       0.05841973
48
Lattice="8.83934077 -0.01550847 -0.04277198 -0.01509301 8.94802907 0.04036088 -0.0606824 0.0588379 12.65231452" Properties=species:S:1:pos:R:3:forces:R:3 config_id=O-FAPI3_strain_rattle_13 phase=O-FAPI3 mode=strain_rattle seed=3994126595 source=O-FAPI3/CONTCAR energy=-227.07692589 stress="-0.015825888438778548 -0.0009395087223582087 -0.0017909712654321614 -0.0009395087223582087 0.0002515713840579841 0.001843597435921342 -0.0017909712654321614 0.001843597435921342 -0.003665476298778857" pbc="T T T"
C        4.47434459       0.37083925       3.11256131       1.07532001      -0.70955886      -0.31657264
C        0.01801495       4.15372926       9.47699995       0.89618882       0.43660640      -0.10480314
C        8.74584225       4.83734628       3.11203635      -1.00478613      -0.42128612      -0.03901436
C        4.28951279       8.62023619       9.47647499      -0.67608413       0.23210005       0.02600184
N        5.01804929       8.37262456       2.41381259      -0.72257281       0.61681874       0.46224242
N        0.57363520       5.09122019       8.74638723      -0.46695399      -0.27537158       0.21790124
N        1.13487709       5.23683607       3.05399735       1.04650363       0.42136991      -0.01291724
N        5.51919236       8.23104534       9.37217667       0.68836011      -0.32146630       0.00592263
N        3.24559164       0.75913165       3.02364006      -0.83431452       0.56011285       0.25547945
N        7.62990691       3.75334084       9.34181938      -0.81236390      -0.48499938       0.15392656
N        8.19724531       3.89304533       2.37828524       0.58587884       0.15942108       0.04069212
N        3.75283140       0.61164105       8.71085975       0.35320741      -0.05276128       0.01322630
H        5.07416965       0.87172968       3.86394404       0.39971663       0.02152080       0.17973247
H        0.61952144       3.65771315      10.22388617       0.43006982      -0.13511400       0.30581709
H        8.13712179       5.34035699       3.86926702      -0.16708007      -0.09774479      -0.03229248
H        3.68247376       8.12634064      10.22920915      -0.26624546      -0.06431329       0.17677912
H        5.99923609       8.19153156       2.51474526       0.78713092      -0.08657694       0.16303836
H        1.55421532       5.26985997       8.84894238       0.84143916       0.13329154       0.13138509
H        1.49926025       5.93666283       3.70853123       0.09008501      -0.04765911      -0.09463924
H        5.88592840       7.53599983      10.02041873       0.12790663      -0.13163904       0.08959438
H        4.51963079       7.87393255       1.68111260      -0.29412560      -0.06211048      -0.18253214
H        0.07354298       5.58486004       8.01816311      -0.33897687       0.19831980      -0.34443502
H        1.77285010       4.81168727       2.38640171       0.19249909       0.04691309      -0.01966418
H        6.15574537       8.64780622       8.70837829       0.33799131       0.10844595      -0.23219927
H        2.61539476       0.33620766       2.36218087      -0.49327638      -0.11689065      -0.29654651
H        6.99828995       4.17232679       8.68415757      -0.54158876       0.20265334      -0.39972448
H        8.70436768       3.39258912       1.64071962       0.06542683       0.09282374       0.06718639
H        4.25827996       1.10351661       7.97777000       0.19457563       0.10023934      -0.19080593
H        2.87259027       1.46025205       3.68174201       0.07846378      -0.21666357      -0.22425727
H        7.25925833       3.05958905       9.99362951      -0.07073721      -0.05207531       0.03069256
H        7.21564377       3.71539601       2.48871549      -0.76549155      -0.16469565       0.07757475
H        2.77062308       0.79372451       8.82291248      -0.70683276       0.14459932       0.09040192
Pb       4.36086808       4.40057482      12.40488524       0.04178645       0.03018069       0.04058711
Pb      -0.00014608       0.14335400       6.08412672       0.01289404      -0.01096939       0.02949982
Pb       8.73694835       8.87813308      12.42282779      -0.00727671      -0.03716017      -0.04369723
Pb       4.36540583       4.59675209       6.09648240       0.00912106       0.03063442      -0.04592076
I        6.99454301       6.39768940       6.33640416       0.01504335       0.04944946       0.00282338
I        8.47604660       8.89746948       2.92489882       0.02252315       0.00402338       0.04591947
I        6.17499758       1.79642967      12.13113055      -0.07716277       0.06958282      -0.00433070
I        1.80588527       2.57753392       0.04828016      -0.06870517      -0.05575766       0.00929577
I        1.79665958       2.75839639       5.83536420      -0.07546632      -0.08678639      -0.01520349
I        2.55740002       7.20865651       5.85350841       0.04721883      -0.03756356       0.00521021
I        6.95332800       6.25081042      12.15205662       0.07487424       0.07491310      -0.00041714
I        6.19916378       1.90897395       6.34019685      -0.01794288       0.05063917       0.00272605
I        4.00165508       4.57466926       9.26497747       0.07458894      -0.01403703      -0.01548448
I        0.31799654       0.10228597       9.26781858      -0.05614235      -0.00600237      -0.01742225
I        2.60634044       7.07635913       0.06567321       0.01992040      -0.09974150      -0.02929597
I        4.75187082       4.42708245       2.92927752      -0.04460776       0.00428544       0.03851943
48
Lattice="9.06971334 0.08366819 0.00356089 0.08142678 8.9473369 -0.04385934 0.00505199 -0.06393793 12.72964859" Properties=species:S:1:pos:R:3:forces:R:3 config_id=O-FAPI3_strain_rattle_14 phase=O-FAPI3 mode=strain_rattle seed=229437633 source=O-FAPI3/CONTCAR energy=-227.15369584 stress="0.00684960532286404 0.004333464232260005 -1.6389010836326392e-05 0.004333464232260005 0.006395149003537376 -0.0018921609269808664 -1.6389010836326392e-05 -0.0018921609269808664 0.002365514969321914" pbc="T T T"
C        4.61156684       0.39078968       3.15181638      -0.07160927       0.07745150       0.04693959
C        0.11332207       4.06241370       9.49650035      -0.13030417       0.45056611      -0.50697421
C        9.04284565       4.90496114       3.13161063       0.35432079      -0.23903000      -0.38742540
C        4.54460106       8.57658507       9.47629461      -0.14610063       0.16297654      -0.10706593
N        5.25225823       8.40527309       2.37613946       0.07030395      -0.10844925      -0.09620282
N        0.68972852       5.01314918       8.75544966      -0.40806105      -0.71916045       0.57749124
N        1.23719506       5.21996624       3.02944937      -0.77465030      -0.13225117       0.17948332
N        5.80162778       8.20214599       9.38148412       0.15049182       0.01862079      -0.05419571
N        3.35446287       0.76620527       3.05222629      -0.03710600      -0.10703444      -0.10959362
N        7.91889560       3.74838494       9.40426104       0.54845651       0.05313241       0.18511035
N        8.46585449       3.96162558       2.39934694       0.13306850       0.54698118       0.50012238
N        3.90332495       0.56950177       8.77865702       0.17870962      -0.13865235       0.06638850
H        5.23642451       0.89112361       3.90627175      -0.11917130      -0.06361738      -0.10823966
H        0.72910784       3.56591819      10.25584226      -0.00020733       0.07078654      -0.06679185
H        8.42766046       5.39385557       3.88557915      -0.08790426       0.08233550       0.12795259
H        3.92034397       8.06865033      10.23514965       0.16662689       0.20343999      -0.26755987
H        6.25763543       8.23417177       2.48456011      -0.11888388      -0.00794378      -0.05192796
H        1.69837936       5.20175282       8.86210693      -0.35710474      -0.17424391       0.05881566
H        1.62210370       5.91753748       3.68334378      -0.22924912      -0.20869031      -0.14072239
H        6.17384323       7.50495286      10.04221546      -0.03772005       0.18548275      -0.17029412
H        4.73157672       7.90809029       1.64099447       0.10455578       0.06846027       0.11500192
H        0.17807728       5.50822149       8.01544056      -0.02382308      -0.08776386       0.08480152
H        1.88371033       4.80839442       2.36508933       0.11050048      -0.10154781      -0.14029014
H        6.45580450       8.63241872       8.71299715      -0.24451374      -0.19614655       0.28107693
H        2.69975698       0.34262950       2.38735538       0.18146949       0.08250801       0.14862672
H        7.27185106       4.16665398       8.73526333       0.02487244      -0.02725014       0.03602310
H        8.97692044       3.47396067       1.66460703       0.11926072      -0.09451491      -0.15953239
H        4.42342109       1.07409186       8.03905300      -0.17938321      -0.23555543       0.30773173
H        2.98276913       1.45679677       3.70582365      -0.04267228       0.05794077       0.04865125
H        7.53450857       3.04421214      10.06469533       0.32105166       0.41460213      -0.34516936
H        7.45728878       3.77194563       2.50697689       0.34535807       0.16605856       0.04521208
H        2.89803280       0.73952677       8.88452358       0.11491176      -0.00327493      -0.04060755
Pb       4.57572143       4.35556631      12.43643481       0.08466589       0.01539703       0.06483288
Pb       0.04654298       0.08697683       6.09931157      -0.02454215       0.06524815       0.03254129
Pb       9.13477107       8.89308214      12.43940087      -0.03719060      -0.09394431      -0.02138858
Pb       4.55710226       4.62341648       6.09704826       0.04206563      -0.06670867      -0.05546808
I        7.25741942       6.38239306       6.40683403       0.03103550       0.06368478      -0.04285438
I        8.74685584       8.97105251       2.90454445       0.05255134       0.00269018       0.01544328
I        6.43659627       1.72319858      12.22693131      -0.06821701       0.14032668      -0.02242141
I        1.87571035       2.60119558       0.04017736       0.06530548      -0.00028853      -0.04043862
I        1.89973494       2.73144167       5.88332422      -0.03016153      -0.11221600      -0.01028711
I        2.76507095       7.20934643       5.81409582      -0.00644837      -0.03792150      -0.00857173
I        7.28826430       6.24623274      12.20263271      -0.07597954       0.02471854       0.01114831
I        6.40700568       1.88169437       6.38063123      -0.02959720       0.05603282       0.03031024
I        4.21385381       4.51721555       9.28119961       0.00374414       0.01404974      -0.00215390
I        0.35408119       0.00988728       9.30532181       0.02603035      -0.00431532      -0.00756304
I        2.74525547       7.09099308       0.04218411       0.03611486      -0.04639354      -0.03312253
I        4.92183854       4.44870859       2.90272290       0.01512916      -0.01657639       0.03315750
48
Lattice="8.99338671 0.08360636 0.03952661 0.08136661 8.62994387 -0.03702949 0.05607806 -0.05398141 13.01420734" Properties=species:S:1:pos:R:3:forces:R:3 config_id=O-FAPI3_strain_rattle_15 phase=O-FAPI3 mode=strain_rattle seed=319534206 source=O-FAPI3/CONTCAR energy=-227.08870057 stress="-0.004457003589550818 0.00532389053695022 0.0016819292611163286 0.00532389053695022 -0.003998881113869266 -0.001662491310521063 0.0016819292611163286 -0.001662491310521063 0.003983236733796185" pbc="T T T"
C        4.58542771       0.38030683       3.24081849       0.10722358       0.51281047       0.61015039
C        0.15083410       3.92407675       9.71265801       0.12121607       0.09135875      -0.06002049
C        8.97972741       4.73575184       3.24143835       0.01841593      -0.07954096      -0.11243839
C        4.54513398       8.27952168       9.71327787      -0.52805939      -0.00081149       0.19585525
N        5.21833131       8.11022587       2.45703817       0.42566917      -0.81478250      -0.76444021
N        0.71950026       4.84082347       8.95811188      -0.16822423      -0.12094513       0.03161002
N        1.23940273       5.03702167       3.10643243      -0.15099010       0.10668484       0.19549712
N        5.79116518       7.91871047       9.62099830       0.86027937      -0.18895704      -0.04552104
N        3.33854002       0.74194250       3.13435185      -0.66609791      -0.00571731      -0.27182029
N        7.89030248       3.62363122       9.64891772      -0.09576952      -0.05796013       0.06236611
N        8.40457084       3.82525270       2.48973561       0.03696328       0.18254833       0.14917632
N        3.90573998       0.55585039       8.99080919       0.11998900       0.27659315      -0.37412635
H        5.20809722       0.86354785       4.01502729      -0.22569258      -0.10864532      -0.21042864
H        0.76443841       3.44584934      10.49099242      -0.09645936       0.09431102      -0.14441365
H        8.37278971       5.20756182       4.01024293      -0.13314905       0.09330574       0.17279773
H        3.92913107       7.78986348      10.48620806       0.09315209       0.15764708      -0.20466705
H        6.21566498       7.94558148       2.57170974       0.20831641      -0.16374730      -0.10260740
H        1.72010515       5.02312406       9.07129464      -0.01082651      -0.01612436       0.02629894
H        1.62375727       5.71036577       3.77704959      -0.08832320      -0.09105430      -0.07446981
H        6.16283591       7.24676732      10.29738771       0.11874499       0.01570050      -0.07121637
H        4.69903877       7.63006922       1.70298550       0.20346669       0.13519778       0.22916259
H        0.20923133       5.31772319       8.19995253       0.07437884      -0.13037145       0.17748212
H        1.87777324       4.63985554       2.42942812       0.20682260      -0.12090376      -0.21129003
H        6.43719148       8.33352575       8.94050967      -0.12317660      -0.15215490       0.20885487
H        2.68663987       0.33278129       2.45167671       0.27379915       0.14884530       0.24382257
H        7.24605802       4.02645168       8.96275838       0.10932327      -0.09084293       0.13737618
H        8.90834305       3.35460689       1.74017939       0.15454950      -0.11343272      -0.19521720
H        4.41853569       1.04226087       8.23714629      -0.15148139      -0.19201414       0.29378214
H        2.97265942       1.40831202       3.80167167      -0.31969216       0.30581589       0.24312365
H        7.51173796       2.94471356      10.32200979       0.09055150       0.18454555      -0.19688049
H        7.40491004       3.64204340       2.59563024      -0.03557513       0.05008780       0.06490568
H        2.90935031       0.71958606       9.09521502      -0.32766033       0.10872196      -0.02112729
Pb       4.63976642       4.19586818      12.79510247      -0.27564861       0.22205638      -0.01965552
Pb       0.03635684       0.06497589       6.25395506      -0.03212366      -0.04077069       0.11240863
Pb       9.05253456       8.56602589      12.82502840       0.23087436      -0.06421912      -0.12041189
Pb       4.50454359       4.44206322       6.25708067       0.09451306      -0.08590688       0.06733949
I        7.32182584       6.10918915       6.57825232      -0.12947121       0.02926832      -0.05539701
I        8.73775788       8.67802754       3.00337929      -0.02471135      -0.01502414       0.12310715
I        6.45347888       1.77865616      12.56996151       0.07286689      -0.29008915      -0.05238819
I        1.84821064       2.49547112       0.04460620       0.05723198       0.06561025      -0.02088843
I        1.87693719       2.60115331       5.97412216       0.08899495       0.11498278       0.02713398
I        2.76459097       6.95326608       5.98101555      -0.02339186       0.12229149      -0.04130398
I        7.24394879       6.01042444      12.46816691      -0.01906719      -0.01377554       0.04069565
I        6.43951264       1.90550585       6.61361832      -0.08022196      -0.12817907      -0.00879978
I        4.20392359       4.34514831       9.50360401       0.05351010       0.01022571       0.06112478
I        0.43343736      -0.03245441       9.56923085      -0.07790196       0.01671417      -0.08544338
I        2.76104561       6.87554902       0.01596433      -0.04538432       0.05803261       0.03928340
I        4.89012979       4.32392413       3.03336473       0.00824680      -0.01738552      -0.04838192
48
Lattice="8.94567041 -0.04358967 0.01551811 -0.04242194 8.89002957 0.08565678 0.02201619 0.12487003 12.93894798" Properties=species:S:1:pos:R:3:forces:R:3 config_id=O-FAPI3_strain_rattle_16 phase=O-FAPI3 mode=strain_rattle seed=476823344 source=O-FAPI3/CONTCAR energy=-227.15059771 stress="-0.003532722601565502 -0.002262298053126104 0.0007448468318081702 -0.002262298053126104 0.004560183624669204 0.003686954948231885 0.0007448468318081702 0.003686954948231885 0.0065369835223100525" pbc="T T T"
C        4.54771876       0.37056413       3.21498229       0.69106539      -0.61471085      -0.37188295
C        0.06813349       4.17623175       9.71255384       0.39374854       0.00484746       0.15207409
C        8.85702517       4.79447756       3.26532299      -0.93721576      -0.58706750      -0.25242172
C        4.37744007       8.60014508       9.76289454      -0.26172472       0.25144478      -0.16344462
N        5.06884595       8.31487470       2.54382563      -0.77273730       0.59635848       0.34161692
N        0.62275188       5.10203742       8.97377295      -0.11199922       0.16939958      -0.21346967
N        1.15269677       5.21513560       3.15686381       0.95127682       0.37061208       0.08477089
N        5.62244745       8.20905285       9.66255226       0.11800357      -0.17320786       0.15346640
N        3.30237507       0.75974950       3.11772769      -0.49594521       0.28538792       0.13991927
N        7.77212576       3.75366666       9.62341613      -0.57687378      -0.15207600      -0.06354373
N        8.29985865       3.85421939       2.50656543       0.75476408       0.39638840       0.17067015
N        3.85376476       0.64138220       8.93651263       0.30065111      -0.26997120       0.18191113
H        5.15820597       0.87022897       3.98991066      -0.03957449      -0.27752592      -0.30361360
H        0.68334687       3.68545182      10.47793926      -0.01628931       0.07746067      -0.08464580
H        8.24442909       5.30010204       4.03812967       0.06317903      -0.32114882      -0.35817668
H        3.76957017       8.11532506      10.52615826      -0.15500618      -0.02688322       0.09842568
H        6.06308349       8.13238561       2.65273205       0.21055925      -0.00209821       0.06599380
H        1.61528404       5.27694939       9.08612285       0.34476025       0.10987718      -0.00271114
H        1.52365417       5.91267932       3.83215686      -0.10071435      -0.42388115      -0.45142186
H        6.00001793       7.52076560      10.32449248      -0.06173800       0.11669040      -0.10956945
H        4.56110456       7.81717101       1.78869507       0.10877890       0.32667207       0.39485952
H        0.11030601       5.59023347       8.22814155       0.05389224      -0.08539560       0.10900128
H        1.79525184       4.78724273       2.47630705      -0.11928165       0.26145385       0.31815843
H        6.26101118       8.61761254       8.99005459       0.21289637       0.07051390      -0.13592030
H        2.66150527       0.33811021       2.43494456       0.07647295       0.21500103       0.25885851
H        7.12726453       4.16848020       8.94869223       0.02034613      -0.06707370       0.08677322
H        8.80975391       3.35155705       1.75320017      -0.15034667       0.37769748       0.46356260
H        4.35895545       1.12461951       8.19264653       0.11510573       0.03433732      -0.09063211
H        2.92707785       1.46092942       3.79172620       0.20133939      -0.50226238      -0.50423873
H        7.40344152       3.06901569      10.28406183      -0.12467398      -0.05758489       0.02187131
H        7.30769719       3.68140945       2.61202603      -0.39383017      -0.06519608       0.04573702
H        2.85989783       0.82597331       9.04541671      -0.24395147       0.00030071       0.06787121
Pb       4.49914932       4.43857591      12.75458441       0.00512441       0.04413670      -0.00165968
Pb       0.02967208       0.14866753       6.21457426       0.01533948       0.01918248       0.04981601
Pb       8.89297199       8.87115956      12.82114707       0.02310623      -0.01379737      -0.06870730
Pb       4.43964902       4.58224161       6.27928506      -0.01804507       0.01341464      -0.01089042
I        7.11926226       6.33281481       6.56576104      -0.00081216       0.01348290       0.00915839
I        8.58520405       8.82136464       3.08352383      -0.00190855      -0.00554518       0.04304737
I        6.31249884       1.85612631      12.49122704       0.01927852      -0.02352464      -0.01862858
I        1.83685017       2.58481488       0.09321044      -0.11204760      -0.07293894      -0.00230126
I        1.84330083       2.75136956       5.99347022      -0.00049759      -0.03640211      -0.02201300
I        2.59357338       7.20798958       6.03042133       0.05776664      -0.10590111      -0.00517448
I        7.11163533       6.26103581      12.52471375       0.05629636       0.08432188      -0.03170964
I        6.32948653       1.91801019       6.52537418      -0.05937306       0.03985083      -0.00587908
I        4.11888682       4.57629213       9.52343546       0.03578121      -0.01242724       0.00176763
I        0.34907304       0.13019956       9.46959619      -0.02045373       0.01201063      -0.01499156
I        2.60628154       7.01164669       0.10173863       0.01639261      -0.00231765       0.02150344
I        4.82705640       4.41109011       3.06140542      -0.07088522       0.00809426       0.00681304
48
Lattice="9.19282455 0.07978794 -0.06392182 0.07765049 8.66521078 0.05714884 -0.09068857 0.0833113 12.82846556" Properties=species:S:1:pos:R:3:forces:R:3 config_id=O-FAPI3_strain_rattle_17 phase=O-FAPI3 mode=strain_rattle seed=2934708372 source=O-FAPI3/CONTCAR energy=-227.06829961 stress="0.012697979408688173 0.004380603966431315 -0.0027016163098414875 0.004380603966431315 -0.0006590217060293782 0.00255769560409254 -0.0027016163098414875 0.00255769560409254 0.0012400023219712184" pbc="T T T"
C        4.65024321       0.41379541       3.14611540      -0.42336893       0.17322732       0.03492488
C        0.04099177       4.04288390       9.61623206      -0.97344209      -0.17481620      -0.19644319
C        9.13923089       4.78502541       3.14374598       0.78098961       0.17152453      -0.10279462
C        4.52997963       8.41411382       9.61386263       0.98508474      -0.92290330       0.62031354
N        5.30080796       8.16708493       2.45086897       0.31567501      -0.06618063      -0.05686924
N        0.63025287       4.95515857       8.87586786       0.39175763      -0.20614911       0.29894796
N        1.22814800       5.09005826       3.10329750      -0.91240568      -0.43073364      -0.07231039
N        5.80501156       8.05019991       9.50455440      -0.56262460       0.56265178      -0.40697268
N        3.37659614       0.77643712       3.05951399       0.38292793      -0.22065557      -0.04769657
N        7.95345970       3.73657868       9.46077089       1.29323247       0.36876965       0.14730319
N        8.56046597       3.86310822       2.39935885      -0.17883871       0.05419620       0.06437816
N        3.88991107       0.65118195       8.82435760      -0.92413694       0.92684907      -0.75542959
H        5.27761577       0.90690068       3.90745796      -0.23208070      -0.07510587      -0.15978980
H        0.65971314       3.57059163      10.37120775       0.03728331      -0.24813953       0.28734127
H        8.50972839       5.26722171       3.91382815       0.32685591      -0.06604730      -0.19221926
H        3.89182595       7.93091284      10.37757794       0.42852127       0.01493508      -0.17955762
H        6.31912374       8.00246327       2.55059864      -0.55415074       0.07661749      -0.07998809
H        1.65169049       5.13889970       8.97789492      -0.71303039      -0.22783757       0.00243212
H        1.61295475       5.77307960       3.76735146      -0.17652608      -0.13699159      -0.08049941
H        6.17771378       7.38243638      10.15969953       0.23330181      -0.42717215       0.42188371
H        4.77887927       7.67723714       1.70823738       0.18379074       0.10158369       0.17547567
H        0.11693569       5.42627824       8.13957392      -0.14546685       0.27876286      -0.36920100
H        1.88868638       4.68376880       2.42416950      -0.41924571       0.10720173       0.26642626
H        6.47285608       8.45921008       8.83080321      -0.51114135      -0.11449707       0.30394418
H        2.71825073       0.35870040       2.38955678       0.30482496       0.11771085       0.21090203
H        7.30242034       4.13414185       8.79619062      -0.07487784       0.21645898      -0.26115649
H        9.08428957       3.38233690       1.64945568      -0.22597301       0.10676996       0.19644884
H        4.42234607       1.13137800       8.08079208      -0.33537642      -0.03983570       0.17145645
H        2.99453047       1.45280240       3.72890036       0.07412739      -0.08037367      -0.04644252
H        7.55928941       3.06215918      10.12124843       0.20731248       0.00935579       0.08762390
H        7.53750182       3.68076953       2.51328245       0.81294062       0.17771060      -0.08243361
H        2.87006867       0.81720605       8.94057860       0.63573507       0.00656102      -0.20290351
Pb       4.60388844       4.39188406      12.63107480      -0.05079806      -0.09792272      -0.08268749
Pb      -0.02229326       0.17917349       6.12730959      -0.01770629      -0.03583209       0.14753582
Pb       9.17590194       8.72363633      12.59760883      -0.01629502       0.06009355      -0.08895822
Pb       4.56803217       4.53404492       6.18412944       0.05818527      -0.00995720       0.04545766
I        7.32528878       6.25923519       6.42002215      -0.04621076       0.00744547      -0.01552503
I        8.91966173       8.70546823       2.99861410      -0.08069956       0.00850662      -0.09999958
I        6.44062849       1.86048922      12.31191491       0.06788492      -0.11305097       0.00219092
I        1.87968402       2.53550922       0.04838244       0.00218709      -0.02699858       0.02054312
I        1.89589638       2.68396813       5.93435789       0.04309615       0.01161638       0.00081527
I        2.70205831       7.02035762       5.96604122      -0.07740916       0.09699795      -0.01067538
I        7.21899098       6.16073405      12.36700306       0.05661560       0.06211689       0.00894399
I        6.43532270       1.93067987       6.42525947       0.02334393      -0.08492062       0.01573503
I        4.20717520       4.47000866       9.38371839      -0.02476538       0.01333555      -0.00405199
I        0.26756485       0.10769579       9.40364572       0.07369011      -0.01233621       0.02152264
I        2.79140318       6.84805645       0.08768450      -0.05979255       0.11797595       0.00100669
I        4.99959430       4.36146017       2.96880392       0.01699881      -0.03051766       0.04105199
48
Lattice="9.01938999 0.0 0.0 0.0 8.77776784 0.0 0.0 0.0 12.79618681" Properties=species:S:1:pos:R:3:forces:R:3 config_id=O-FAPI3_wide_rotation_01 phase=O-FAPI3 mode=wide_rotation seed=818436192 source=O-FAPI3/CONTCAR energy=-226.96705913 stress="-0.0012203491391752559 -0.00022465259780178164 -0.0009380905953112258 -0.00022465259780178164 -0.00021661903905869303 -0.000490549243945128 -0.0009380905953112258 -0.000490549243945128 -0.000463980724939561" pbc="T T T"
C        4.15334142       8.64233873       2.63194069       0.06620429      -0.01649927       0.41624182
C        0.07174528       4.03166406       9.56636042       0.01106761       0.02101016      -0.01236026
C        8.94764462       4.74610387       3.16826714       0.02052323       0.00583850       0.00130538
C        4.43794981       8.42054789       9.56636054      -0.00651971       0.00434368      -0.00068400
N        3.53374369       1.01579946       2.74146888       0.17867022      -0.20734863       0.11518849
N        0.63672086       4.95560970       8.82585276      -0.01119713      -0.00763334       0.02057005
N        1.18184368       5.12533408       3.07055866      -0.00173344      -0.01705327      -0.00255307
N        5.69153868       8.04131768       9.46865219       0.00510845       0.00013829      -0.00269294
N        5.29672399       8.34634617       3.20632082      -0.05412586      -0.21194241       0.08987111
N        7.83754631       3.65243376       9.46865219      -0.00500429      -0.00845149       0.00169854
N        8.38266904       3.82215805       2.42775936      -0.02148434       0.00715654      -0.00789218
N        3.87297414       0.56672578       8.82585276       0.00755401      -0.00333787       0.00435697
H        3.68085779       7.86710471       2.02074337       0.03613095       0.09085210       0.04597103
H        0.68832647       3.54269525      10.32697075      -0.01135748       0.00925715      -0.01936235
H        8.33106343       5.23507259       3.92887735       0.01899117       0.00127069       0.00611174
H        3.82136852       7.93157926      10.32697088       0.00182806      -0.00148925       0.00355968
H        2.68043409       1.17181349       2.20015077       0.08453843       0.10370313       0.12712052
H        1.63810522       5.13205363       8.93355635      -0.00566574      -0.00302224      -0.00838181
H        1.55804587       5.80949955       3.73115809      -0.01028979       0.01030452       0.01636260
H        6.06774095       7.35715221      10.12925149       0.00330147       0.00023646       0.00842861
H        3.92626827       1.79109133       3.28400826      -0.20380780       0.01132627      -0.14422575
H        0.12370950       5.44233474       8.08462392       0.01629640      -0.01402634       0.00279522
H        1.82884430       4.71238908       2.40039510      -0.03338766       0.01475605      -0.00307598
H        6.33853939       8.45426268       8.79848837      -0.00010908       0.00134616       0.00370662
H        5.79654801       0.22574418       3.80344874       0.08941008      -0.02985103       0.04891933
H        7.19054560       4.06537885       8.79848850       0.00478225       0.00013126       0.00514262
H        8.89568040       3.33543310       1.68653064      -0.02738654      -0.00055257       0.01163186
H        4.38598549       1.05345073       8.08462392      -0.01236906      -0.00270280      -0.00667673
H        5.67900190       7.40176293       3.11898071      -0.07834980       0.29630664      -0.00917154
H        7.46134412       2.96826829      10.12925149      -0.00280692       0.00619865      -0.00087409
H        7.38128477       3.64571412       2.53546307       0.06109166      -0.01465383      -0.01598547
H        2.87158987       0.74316971       8.93355635      -0.00387617       0.00006110      -0.01065345
Pb       4.53083798       4.28292590      12.55414681       0.06102568       0.10838749      -0.15367609
Pb       0.02114307       0.10595802       6.15605340       0.12351846       0.09156253      -0.11270824
Pb       8.99824692       8.67180982      12.55414681      -0.05493478      -0.11843044       0.08593500
Pb       4.48855201       4.49484194       6.15605340      -0.13180614      -0.05480907       0.14309459
I        7.17846837       6.23686150       6.43993604      -0.02234367      -0.01189245      -0.02204448
I        8.66456556       8.72915928       2.96947351       0.19701935       0.03119011      -0.01345807
I        6.36795414       1.71737739      12.30292209      -0.03687424       0.00987206       0.03490331
I        1.84092144       2.54090660       0.04184264      -0.08034768       0.09229707      -0.09773968
I        1.85825933       2.67150644       5.90482868       0.03887960       0.00548857       0.01646993
I        2.65143567       7.06039036       5.90482881       0.02217756       0.00116027      -0.03355628
I        7.16113084       6.10626131      12.30292209      -0.01374576      -0.02040715      -0.00184268
I        6.35061653       1.84797758       6.43993604      -0.04370484      -0.03947037      -0.10937497
I        4.15487048       4.43749221       9.36756705       0.00690564      -0.00351077       0.01472221
I        0.35482443       0.04860838       9.36756692      -0.00073206       0.00087236       0.02111051
I        2.66877355       6.92979043       0.04184264      -0.24069921      -0.29015509      -0.47478568
I        4.86451933       4.34027536       2.96947351       0.05963458       0.15217186       0.01855806
48
Lattice="9.01938999 0.0 0.0 0.0 8.77776784 0.0 0.0 0.0 12.79618681" Properties=species:S:1:pos:R:3:forces:R:3 config_id=O-FAPI3_wide_rotation_02 phase=O-FAPI3 mode=wide_rotation seed=2236179492 source=O-FAPI3/CONTCAR energy=-226.02364674 stress="-0.0034928700664760073 0.0008497393185778786 0.0028501809105914025 0.0008497393185778786 -0.0010022054991654014 -0.004178707698691194 0.0028501809105914025 -0.004178707698691194 -0.005723594553153025" pbc="T T T"
C        4.44354868       0.30055577       2.48074517      -0.29745171       0.02667288       0.08879122
C        8.92283156       3.89421782       9.53401805      -0.22436572       0.15273621       0.00897162
C        8.94764462       4.74610387       3.16826714      -0.02041292      -0.00075478       0.01619450
C        4.43794981       8.42054789       9.56636054      -0.06859772      -0.00652639       0.03073244
N        5.39117784       0.28356360       3.38790294      -0.58056312      -0.20964529       0.01929162
N        0.66402806       4.00194841       8.47047361      -0.16152499       0.14486836       0.46242142
N        1.18184368       5.12533408       3.07055866       0.00960802       0.01697496       0.00874106
N        5.69153868       8.04131768       9.46865219       0.06073087      -0.00056288      -0.02959426
N        3.19885474       8.71352344       2.68691439       0.04897082       0.47656317       0.05924361
N        7.95177382       4.71986677       9.85055950       0.43803645      -0.79739630      -0.78762472
N        8.38266904       3.82215805       2.42775936       0.01961769       0.00317771      -0.01263940
N        3.87297414       0.56672578       8.82585276       0.01822221      -0.02848785      -0.02125551
H        4.70673746       0.64976066       1.47746142       0.03277984      -0.01444259       0.02470309
H        0.09440154       3.05706200      10.21261609      -0.03038697       0.04784844      -0.07017305
H        8.33106343       5.23507259       3.92887735      -0.00945500      -0.00186357      -0.00737535
H        3.82136852       7.93157926      10.32697088      -0.00943398      -0.01937045       0.01088358
H        6.34570033       0.52350379       3.11074124       0.09004041      -0.05421169       0.17544133
H        1.35022920       3.26908336       8.27672181      -0.06800890       0.35301927      -0.09199250
H        1.55804587       5.80949955       3.73115809      -0.02288316      -0.06030220      -0.03180309
H        6.06774095       7.35715221      10.12925149      -0.08497088       0.07097812       0.02900445
H        5.21942313       8.73136268       4.34243052       0.15610366       0.16829964      -0.19077629
H        0.53072724       4.75118207       7.78462960       0.07946247      -0.27341433       0.06445614
H        1.82884430       4.71238908       2.40039510       0.02553101      -0.00161874       0.00052641
H        6.33853939       8.45426268       8.79848837      -0.00471271       0.03918681      -0.00050822
H        2.86542845       8.39017646       3.59384681      -0.01151418      -0.05561893       0.16530192
H        7.71660008       5.53282571       9.28307037      -0.00774242      -0.08680961      -0.11149338
H        8.89568040       3.33543310       1.68653064       0.01822511      -0.00383697       0.00512349
H        4.38598549       1.05345073       8.08462392       0.02264134       0.02969462       0.00590119
H        2.50885165       0.04045190       1.93929385       0.27427209      -0.04334798       0.21853424
H        7.44878219       4.59738856      10.73260296       0.08056687      -0.16516063      -0.36502302
H        7.38128477       3.64571412       2.53546307      -0.03426511       0.02754904       0.00918930
H        2.87158987       0.74316971       8.93355635       0.03550947      -0.03697786       0.01787591
Pb       4.53083798       4.28292590      12.55414681      -0.18628352       0.08505798      -0.06494106
Pb       0.02114307       0.10595802       6.15605340      -0.14251126       0.06554925       0.00398599
Pb       8.99824692       8.67180982      12.55414681       0.11596037       0.00137725      -0.01349005
Pb       4.48855201       4.49484194       6.15605340       0.16925286      -0.17806886       0.11841260
I        7.17846837       6.23686150       6.43993604       0.09080971       0.04803688       0.02781017
I        8.66456556       8.72915928       2.96947351       0.34866561      -0.04706085      -0.04960680
I        6.36795414       1.71737739      12.30292209       0.09084495       0.06962228      -0.05448389
I        1.84092144       2.54090660       0.04184264      -0.03750992      -0.05222678      -0.02085348
I        1.85825933       2.67150644       5.90482868       0.30221948      -0.35285237      -0.62787456
I        2.65143567       7.06039036       5.90482881      -0.00689541       0.07721435       0.01347037
I        7.16113084       6.10626131      12.30292209      -0.46018404       0.88291044       1.39512319
I        6.35061653       1.84797758       6.43993604       0.08172296      -0.00596241       0.08806640
I        4.15487048       4.43749221       9.36756705       0.03180776       0.01168973      -0.00293140
I        0.35482443       0.04860838       9.36756692      -0.00716720      -0.04415730      -0.02756567
I        2.66877355       6.92979043       0.04184264      -0.15183912      -0.26446514      -0.48152944
I        4.86451933       4.34027536       2.96947351      -0.01292204       0.00611534      -0.00466214
48
Lattice="9.01938999 0.0 0.0 0.0 8.77776784 0.0 0.0 0.0 12.79618681" Properties=species:S:1:pos:R:3:forces:R:3 config_id=O-FAPI3_wide_rotation_03 phase=O-FAPI3 mode=wide_rotation seed=2640389311 source=O-FAPI3/CONTCAR energy=-225.66923638 stress="-0.004755598559536789 0.0025297373881140585 -0.0026286407349378794 0.0025297373881140585 -0.004032002668204207 0.004828118198440261 -0.0026286407349378794 0.004828118198440261 -0.005690627632206678" pbc="T T T"
C        4.43423364       0.47061642       2.58852950      -0.25724470       0.05898998       0.11883543
C        8.74833053       4.58390854       9.47807786      -0.02611782      -0.19517598      -0.61019349
C        8.94764462       4.74610387       3.16826714       0.01631276       0.00230666       0.00774825
C        4.43794981       8.42054789       9.56636054      -0.03694311      -0.00868649       0.02667857
N        5.43000550       8.56119125       3.09590419      -0.78719886      -0.22394816      -0.03820518
N        0.50120281       3.72446079      10.09951584      -0.11020394       0.25886389      -0.01710047
N        1.18184368       5.12533408       3.07055866      -0.01933478      -0.00084696       0.01027203
N        5.69153868       8.04131768       9.46865219       0.04901633      -0.00652683      -0.02971206
N        3.16808292       0.29271828       2.88863360       0.00132817       0.45357086      -0.12792509
N        8.26058555       4.41955160       8.26979830       1.24736299      -1.55225718       1.99768170
N        8.38266904       3.82215805       2.42775936       0.01346971       0.00126720      -0.00178661
N        3.87297414       0.56672578       8.82585276      -0.00198513      -0.02171068      -0.02934283
H        4.67510204       1.25524564       1.86456104       0.04018071      -0.10519491       0.02627372
H        8.49467047       5.51061603      10.00215874       0.02859820      -0.10857581      -0.02843891
H        8.33106343       5.23507259       3.92887735       0.00888045      -0.01220399      -0.02135247
H        3.82136852       7.93157926      10.32697088      -0.00018339      -0.02161749       0.01594598
H        6.37618677       8.73025975       2.74710663       0.13808900      -0.08022456       0.15583723
H        0.77478671       3.91417082      11.06629655       0.10404464      -0.18315372      -0.20093503
H        1.55804587       5.80949955       3.73115809      -0.01695263      -0.04914721      -0.01256102
H        6.06774095       7.35715221      10.12925149      -0.05153451       0.01247848       0.00912421
H        5.27622039       7.80184762       3.76616474       0.12892595       0.18604024      -0.16296681
H        0.76514236       2.83015099       9.67519531      -0.04762759       0.10620634       0.22216229
H        1.82884430       4.71238908       2.40039510       0.01236012       0.02459495      -0.00471756
H        6.33853939       8.45426268       8.79848837      -0.02590149       0.04380565       0.02217372
H        2.85736277       8.37278981       3.56311524      -0.01619557      -0.07124586       0.15970890
H        8.45866687       3.59404317       7.70628021       0.01562779      -0.06222141      -0.00404018
H        8.89568040       3.33543310       1.68653064      -0.02396856       0.01063832       0.01264395
H        4.38598549       1.05345073       8.08462392      -0.00302769       0.03194880       0.02339960
H        2.46032147       0.91606383       2.49301236       0.17308063      -0.17812629       0.02147433
H        7.71755749       5.16948160       7.83537058       0.13254227      -0.54226036       0.88031954
H        7.38128477       3.64571412       2.53546307      -0.01281700       0.00462703      -0.00755469
H        2.87158987       0.74316971       8.93355635       0.06699604      -0.01715506      -0.01130549
Pb       4.53083798       4.28292590      12.55414681       0.03806597       0.17957641      -0.28061589
Pb       0.02114307       0.10595802       6.15605340      -0.02672118       0.15385279      -0.02739812
Pb       8.99824692       8.67180982      12.55414681       0.02325082      -0.12368129       0.03846110
Pb       4.48855201       4.49484194       6.15605340      -0.07093566      -0.22773767       0.25299073
I        7.17846837       6.23686150       6.43993604      -1.39057454       2.50183912      -2.85385522
I        8.66456556       8.72915928       2.96947351       0.55850460       0.02159923      -0.01959974
I        6.36795414       1.71737739      12.30292209       0.05136881       0.01544382       0.03470764
I        1.84092144       2.54090660       0.04184264       0.22202964      -0.21047227       0.49809240
I        1.85825933       2.67150644       5.90482868      -0.09252587      -0.06123582       0.06484635
I        2.65143567       7.06039036       5.90482881       0.01580015       0.04507225      -0.06475961
I        7.16113084       6.10626131      12.30292209      -0.04296885       0.08390559       0.18078311
I        6.35061653       1.84797758       6.43993604       0.04638768      -0.08094826      -0.07391958
I        4.15487048       4.43749221       9.36756705      -0.00166682       0.00974537      -0.04104233
I        0.35482443       0.04860838       9.36756692      -0.00961974      -0.02271480      -0.05583162
I        2.66877355       6.92979043       0.04184264      -0.05787224      -0.07473545      -0.09123097
I        4.86451933       4.34027536       2.96947351      -0.00210179       0.03543151       0.03623020
48
Lattice="9.01938999 0.0 0.0 0.0 8.77776784 0.0 0.0 0.0 12.79618681" Properties=species:S:1:pos:R:3:forces:R:3 config_id=O-FAPI3_wide_rotation_04 phase=O-FAPI3 mode=wide_rotation seed=869899387 source=O-FAPI3/CONTCAR energy=-226.35236218 stress="0.000881702498751129 0.00023782855463821284 -0.0006430137518082052 0.00023782855463821284 -0.0032616499093531155 -0.0008758683916504196 -0.0006430137518082052 -0.0008758683916504196 -0.002787822411095814" pbc="T T T"
C        4.12570051       0.42912207       2.61142149       0.04279008       0.07577837       0.03643950
C        8.47796954       4.39916567       9.39343403      -0.08894032       0.26657295      -0.06227328
C        8.94764462       4.74610387       3.16826714      -0.07121524       0.00107333       0.03135469
C        4.43794981       8.42054789       9.56636054      -0.01575315      -0.00981812       0.01839021
N        3.64697934       7.99558472       2.76887217       0.35334802       0.37835621       0.68057803
N        8.49936615       3.09943334       9.21605674      -0.12499883       0.40113172      -0.09561252
N        1.18184368       5.12533408       3.07055866       0.06569677       0.00924872      -0.05062021
N        5.69153868       8.04131768       9.46865219       0.01934138       0.02956557       0.00241726
N        5.20746459       0.89169429       3.19508347       0.03810707      -0.27573208      -0.06380628
N        0.48710244       5.19806877       9.22389888      -0.09815124      -0.10569959       0.17448968
N        8.38266904       3.82215805       2.42775936       0.01166916       0.01488136       0.00106451
N        3.87297414       0.56672578       8.82585276      -0.02707111      -0.01476678       0.00291560
H        3.58758151       1.10480383       1.93935540      -0.04953652      -0.01330466       0.00839871
H        7.53438811       4.85310249       9.71184602       0.08877933      -0.08807382      -0.03966921
H        8.33106343       5.23507259       3.92887735       0.00255594       0.01834432       0.02137637
H        3.82136852       7.93157926      10.32697088       0.01169479      -0.00928424       0.00892438
H        2.75979200       7.75238095       2.32249396       0.19687118      -0.03215929       0.08025847
H        7.62761153       2.57311741       9.30845992       0.35393620       0.05707170      -0.01418801
H        1.55804587       5.80949955       3.73115809      -0.07498747      -0.05054179       0.07807407
H        6.06774095       7.35715221      10.12925149      -0.03176013       0.01275876       0.02549488
H        4.09033007       7.31663079       3.39494212      -0.19617321       0.10981363      -0.16364999
H        0.32421541       2.61073155       8.90311460      -0.31706959       0.02983855       0.05148273
H        1.82884430       4.71238908       2.40039510      -0.03007889      -0.04391723      -0.01205810
H        6.33853939       8.45426268       8.79848837      -0.03856744      -0.02991703      -0.03945083
H        5.77595304       0.32579844       3.82344291       0.02907212       0.07011464      -0.02500621
H        1.40549993       4.85734725       8.94334978       0.19509119      -0.01759977       0.01527207
H        8.89568040       3.33543310       1.68653064       0.00905213      -0.02750969      -0.01792603
H        4.38598549       1.05345073       8.08462392      -0.01089639       0.01310867      -0.02414492
H        5.54564418       1.82956156       2.96695702      -0.15985105      -0.13316104       0.09541773
H        0.39913344       6.19263261       9.44549813       0.01591118      -0.03065975      -0.10821420
H        7.38128477       3.64571412       2.53546307       0.09381302       0.06736355      -0.02277605
H        2.87158987       0.74316971       8.93355635       0.09364656      -0.00267139      -0.01487171
Pb       4.53083798       4.28292590      12.55414681      -0.05524143       0.01783603      -0.20586237
Pb       0.02114307       0.10595802       6.15605340      -0.03396952      -0.07244579      -0.32917192
Pb       8.99824692       8.67180982      12.55414681      -0.00773019       0.05520530       0.29709470
Pb       4.48855201       4.49484194       6.15605340       0.06507132      -0.01994216       0.23929242
I        7.17846837       6.23686150       6.43993604      -0.05748927       0.03797703      -0.06624417
I        8.66456556       8.72915928       2.96947351       0.06873495      -0.03872661       0.00265678
I        6.36795414       1.71737739      12.30292209      -0.02826600       0.03760742       0.00044335
I        1.84092144       2.54090660       0.04184264      -0.00055040       0.03961823      -0.04523983
I        1.85825933       2.67150644       5.90482868      -0.03351450      -0.00859087       0.13546537
I        2.65143567       7.06039036       5.90482881      -0.00840065      -0.05431659       0.16324835
I        7.16113084       6.10626131      12.30292209      -0.02042383       0.03424639       0.04169171
I        6.35061653       1.84797758       6.43993604       0.03167116      -0.04513560       0.07471535
I        4.15487048       4.43749221       9.36756705      -0.01258616      -0.02990429      -0.02167970
I        0.35482443       0.04860838       9.36756692       0.14334965      -0.52968908       0.05732854
I        2.66877355       6.92979043       0.04184264      -0.33098143      -0.31381034      -0.87544407
I        4.86451933       4.34027536       2.96947351      -0.00599924       0.21986512      -0.04637589
48
Lattice="9.01938999 0.0 0.0 0.0 8.77776784 0.0 0.0 0.0 12.79618681" Properties=species:S:1:pos:R:3:forces:R:3 config_id=O-FAPI3_wide_rotation_05 phase=O-FAPI3 mode=wide_rotation seed=3388352279 source=O-FAPI3/CONTCAR energy=-224.47097636 stress="-0.0034980622967782106 0.004049385957685796 0.0013845389148746717 0.004049385957685796 -0.006731694464880311 -0.0047047145752484075 0.0013845389148746717 -0.0047047145752484075 -0.01301923342857457" pbc="T T T"
C        4.31089366       0.05973771       3.28638784       0.22675605       0.22247718       0.23494982
C        0.09409154       3.94863015       9.46384364       0.15637053      -0.07739727      -0.41996295
C        0.56763341       4.67724272       2.76874741      -0.08113884       0.07803430      -0.09170971
C        4.87385701       8.46485464       8.91866133       0.10560390       0.01755650      -0.09945465
N        3.36126924       8.40966425       2.48864707       0.41841622       0.52667396       0.89758314
N        0.13478369       4.00881421       8.15390209      -0.29023072      -0.00295936       1.12687632
N        8.72380257       4.51155007       1.79291762       0.25009050      -0.15350031       0.20509495
N        5.40563339       0.72955215       9.51475493      -0.20521920      -0.34727297      -0.41359340
N        5.33706312       0.78813322       2.91053684      -0.19817954       0.01288134       0.27116793
N        8.32078358       4.66755962      10.22517005       0.85366846      -0.95426385      -1.05003326
N        0.30664943       4.49426208       4.04139434      -0.40191855       0.52663945      -0.47728742
N        3.79405817       7.83863499       9.32252792      -0.01869788       0.38975729       0.03721233
H        4.24175300       8.57314657       4.34616368       0.03825149      -0.01328393      -0.08015028
H        0.77494896       3.25136552       9.96188594      -0.03195941       0.02234833       0.02597497
H        1.58191893       4.98600185       2.49730062      -0.04552958      -0.01565885       0.01192938
H        5.37365957       8.08850055       8.02069378      -0.02235909      -0.01680494       0.04965766
H        2.63964579       7.79117526       2.86578640       0.08128159       0.28964873      -0.16362024
H        0.73989465       3.35861203       7.64736388       0.05469999       0.08973919      -0.03880172
H        0.00969539       4.61492277       0.82228975      -0.06956389      -0.05968137       0.37391125
H        6.28569974       1.11833572       9.16786515      -0.24508752      -0.06155013       0.02705864
H        3.37111967       8.60591565       1.48321663      -0.14122734      -0.02718763       0.28633116
H        8.53408349       4.62691504       7.62197970      -0.06228982       0.07963512      -0.10404270
H        7.76370537       4.21143810       1.95539478      -0.09768433       0.08259550       0.00844442
H        5.01368606       1.13477306      10.36353419       0.04953437       0.01696113      -0.03610324
H        5.47063677       1.09112359       1.94689388       0.11469748       0.06602747      -0.18040655
H        7.66724570       5.35076181       9.84520161       0.05210001      -0.08796600       0.06391375
H        8.39424579       4.22108337       4.36794574       0.27633932       0.12386384       0.07304495
H        3.26696475       8.14635184      10.14531890      -0.01209209      -0.24205084      -0.18809007
H        5.99874505       1.13213411       3.61042440      -0.15122433      -0.12849394      -0.10502017
H        8.39882809       4.60297350      11.24288303       0.00693823      -0.11728986      -0.44946663
H        1.02855347       4.71478322       4.73112481      -0.32362873      -0.00810033      -0.08313819
H        3.42058183       7.07754484       8.75089859      -0.00297299       0.11031808       0.26045289
Pb       4.53083798       4.28292590      12.55414681      -0.20688896       0.11716847      -0.02391589
Pb       0.02114307       0.10595802       6.15605340      -0.13557441      -0.06265273      -0.07066963
Pb       8.99824692       8.67180982      12.55414681       0.11752299       0.06312836       0.07013424
Pb       4.48855201       4.49484194       6.15605340       0.16609097      -0.17911100       0.07538872
I        7.17846837       6.23686150       6.43993604      -0.22890417       0.19935092      -0.10346577
I        8.66456556       8.72915928       2.96947351       0.17182855      -0.06835709       0.02958990
I        6.36795414       1.71737739      12.30292209       0.22545812       0.28478212       0.72764677
I        1.84092144       2.54090660       0.04184264       0.22210808      -0.15221636      -0.22468168
I        1.85825933       2.67150644       5.90482868       1.11995105      -1.08791309      -0.27184754
I        2.65143567       7.06039036       5.90482881      -0.13809966      -0.20416246       0.07519016
I        7.16113084       6.10626131      12.30292209      -1.34416702       1.57112957       1.36792474
I        6.35061653       1.84797758       6.43993604       0.17777443       0.09911044      -0.37653833
I        4.15487048       4.43749221       9.36756705       0.00483105      -0.27717466      -0.03867396
I        0.35482443       0.04860838       9.36756692      -0.10349990       0.01964764      -0.00109567
I        2.66877355       6.92979043       0.04184264      -0.43244894      -0.77428148      -1.18892024
I        4.86451933       4.34027536       2.96947351       0.10027352       0.10985550      -0.01878823
48
Lattice="9.01938999 0.0 0.0 0.0 8.77776784 0.0 0.0 0.0 12.79618681" Properties=species:S:1:pos:R:3:forces:R:3 config_id=O-FAPI3_wide_rotation_06 phase=O-FAPI3 mode=wide_rotation seed=3816830864 source=O-FAPI3/CONTCAR energy=-226.82326808 stress="0.0002539547355252483 -0.0006058255109947488 0.0003879072269133938 -0.0006058255109947488 -0.0004554203828262478 0.00011442633578591289 0.0003879072269133938 0.00011442633578591289 -0.0003013920648516806" pbc="T T T"
C        4.58144027       0.35721995       3.16826701      -0.00624185      -0.00657914       0.01408080
C        0.06677009       4.05756971       8.95646485       0.02892638       0.11732221       0.14963566
C        8.85361342       4.81697838       2.84940600       0.01252132       0.21658130       0.02329292
C        4.43794981       8.42054789       9.56636054       0.02179359       0.00160950       0.00432126
N        5.14641595       8.21104206       2.42775923       0.00499014      -0.00039774       0.00048866
N        7.83729566       3.66437161       9.03987820       0.16331457       0.05762015       0.47908821
N        0.99762625       5.28195816       2.45553335      -0.23846499       0.01473747       0.34591639
N        5.69153868       8.04131768       9.46865219      -0.01747162       0.00067454       0.03431790
N        3.32785131       0.73645025       3.07055866       0.00589985      -0.00460883       0.02140524
N        0.63883600       4.92039251       9.76462645       0.06932439       0.17642326      -0.16108536
N        8.64588533       3.60660688       3.31100630      -0.10623014      -0.13849285      -0.20087430
N        3.87297414       0.56672578       8.82585276       0.02307405       0.01121359      -0.00953940
H        5.19802156       0.84618876       3.92887722      -0.02214692      -0.01939365      -0.02595365
H        0.67806601       3.64043570       8.15017251      -0.02708286       0.02179985       0.02571104
H        7.99513111       5.49341195       2.79251645       0.05317204      -0.07995888       0.03178440
H        3.82136852       7.93157926      10.32697088       0.00972463       0.02197688      -0.02372982
H        6.14780021       8.03459813       2.53546294      -0.06118297       0.02351933       0.00262996
H        7.50414284       2.93684432       8.40331218      -0.16882534       0.09797663       0.00085820
H        1.08239011       6.25980817       2.16808493       0.00049354      -0.23465524       0.07445824
H        6.06774095       7.35715221      10.12925149      -0.02910394       0.05198199      -0.06999290
H        4.63340450       7.72431711       1.68653051       0.01524086       0.02415520       0.02010085
H        7.21303879       4.00136961       9.77895716       0.04664767      -0.15340581      -0.21822451
H        1.85028790       4.72507866       2.48879013       0.08757903       0.01140806      -0.04675527
H        6.33853939       8.45426268       8.79848837       0.00511549      -0.05061134       0.00164702
H        2.68085060       0.32350507       2.40039510       0.02329368       0.03733942      -0.01916553
H        0.13905130       5.36771239      10.53168133      -0.13309736      -0.01206562       0.09243677
H        0.38082137       2.91652265       3.37641043      -0.31243232       0.10897283       0.02809393
H        4.38598549       1.05345073       8.08462392      -0.04145067      -0.04115923       0.04217221
H        2.95164913       1.42061563       3.73115809       0.05881007      -0.05606611      -0.02921267
H        1.60110597       5.21917149       9.58921338      -0.01426902      -0.18009695       0.02210799
H        7.68958854       3.31760871       3.52890450       0.19240980       0.01874965      -0.02058927
H        2.87158987       0.74316971       8.93355635       0.00773432      -0.00778618       0.00699601
Pb       4.53083798       4.28292590      12.55414681      -0.14423993      -0.43133176       0.01686894
Pb       0.02114307       0.10595802       6.15605340       0.05386101      -0.59833428       0.13314074
Pb       8.99824692       8.67180982      12.55414681      -0.00431675       0.57110399      -0.16676927
Pb       4.48855201       4.49484194       6.15605340       0.12281098       0.47359044       0.01966728
I        7.17846837       6.23686150       6.43993604       0.00412794       0.06028363      -0.11440440
I        8.66456556       8.72915928       2.96947351       0.01030646      -0.03529489      -0.03545963
I        6.36795414       1.71737739      12.30292209       0.00929160       0.01479826      -0.00757111
I        1.84092144       2.54090660       0.04184264      -0.00321886      -0.01680145       0.03170303
I        1.85825933       2.67150644       5.90482868       0.10413934      -0.04451394      -0.09612553
I        2.65143567       7.06039036       5.90482881      -0.02139603       0.00434793       0.00222292
I        7.16113084       6.10626131      12.30292209       0.05415460      -0.06118261      -0.00936948
I        6.35061653       1.84797758       6.43993604      -0.05194434      -0.13254613      -0.16193696
I        4.15487048       4.43749221       9.36756705       0.03590011       0.00573202      -0.00746253
I        0.35482443       0.04860838       9.36756692      -0.00542548       0.00085090      -0.00431156
I        2.66877355       6.92979043       0.04184264       0.13727436       0.17535171      -0.20107557
I        4.86451933       4.34027536       2.96947351       0.04660954      -0.01483812       0.00446217
48
Lattice="9.01938999 0.0 0.0 0.0 8.77776784 0.0 0.0 0.0 12.79618681" Properties=species:S:1:pos:R:3:forces:R:3 config_id=O-FAPI3_wide_rotation_07 phase=O-FAPI3 mode=wide_rotation seed=1316961925 source=O-FAPI3/CONTCAR energy=-226.1101521 stress="8.564674344797431e-05 -0.0002863232892332066 0.0004429196948621459 -0.0002863232892332066 -0.004632267543820597 0.0001938707480607871 0.0004429196948621459 0.0001938707480607871 -0.003192483152978486" pbc="T T T"
C        4.30317992       8.52494662       2.79177722       0.06169243       0.03868732       0.08690289
C        0.13570881       4.33442717       8.99459122      -0.02645735       0.52334910      -0.05719445
C        8.94764462       4.74610387       3.16826714      -0.02550645       0.00449299       0.01510496
C        4.43794981       8.42054789       9.56636054      -0.05044326      -0.00593578       0.01911039
N        4.07918436       0.57566778       1.79947836       0.29336679       0.20530492       0.41754662
N        0.11520837       3.08856181       9.40522942       0.04548404       0.66131207       0.07513706
N        1.18184368       5.12533408       3.07055866       0.03973574      -0.00896220       0.01126403
N        5.69153868       8.04131768       9.46865219       0.05404571       0.01414224      -0.02100959
N        4.62621505       0.10667928       4.01294701       0.10228150       0.01153503      -0.28402312
N        8.30463075       5.26304602       9.36771164       0.34391277      -0.35617568      -0.29404151
N        8.38266904       3.82215805       2.42775936      -0.01636354       0.03060218      -0.02735064
N        3.87297414       0.56672578       8.82585276      -0.00599850      -0.02942511       0.00313680
H        4.20901649       7.45336550       2.59018891       0.01407881       0.05510131      -0.04326795
H        0.91620271       4.62228512       8.28342458      -0.00707961      -0.07392100       0.06524443
H        8.33106343       5.23507259       3.92887735       0.00796815       0.01435820      -0.00128786
H        3.82136852       7.93157926      10.32697088       0.00168048      -0.02539513       0.00189396
H        3.89951396       0.19459758       0.86780949      -0.11404497       0.03563615       0.10470801
H        0.86273216       2.45737016       9.10806230      -0.33604043       0.16423809       0.12329806
H        1.55804587       5.80949955       3.73115809      -0.04342693      -0.00209700      -0.03326002
H        6.06774095       7.35715221      10.12925149      -0.08988907       0.04388058       0.04400618
H        4.16526776       1.59018385       1.91283031      -0.02385144      -0.22109088      -0.01723672
H        8.44244956       2.75429545      10.08250203       0.19991158      -0.06014065      -0.12554090
H        1.82884430       4.71238908       2.40039510      -0.02680175      -0.00990276       0.00970167
H        6.33853939       8.45426268       8.79848837      -0.03714823       0.03329137      -0.02452671
H        4.72036323       1.08262399       4.29029297       0.08700371      -0.03163554       0.07930680
H        7.53925560       5.07758284      10.01428505      -0.03237846       0.02727277       0.08667776
H        8.89568040       3.33543310       1.68653064      -0.00629578      -0.02519657       0.02882749
H        4.38598549       1.05345073       8.08462392       0.01586857       0.04380514      -0.00925112
H        4.72144980       8.17418667       4.74264726      -0.00577018       0.23689668      -0.14020632
H        8.35493613       6.19495679       8.94936514       0.05013972      -0.20687872       0.10481550
H        7.38128477       3.64571412       2.53546307       0.06478967      -0.01531407       0.00021680
H        2.87158987       0.74316971       8.93355635       0.10092618      -0.05063976      -0.01536613
Pb       4.53083798       4.28292590      12.55414681      -0.10090056       0.09210843      -0.29292470
Pb       0.02114307       0.10595802       6.15605340      -0.10811220      -0.00525699      -0.45195363
Pb       8.99824692       8.67180982      12.55414681       0.07156994       0.03590141       0.46527088
Pb       4.48855201       4.49484194       6.15605340       0.06101431      -0.05870384       0.30303356
I        7.17846837       6.23686150       6.43993604      -0.15937845       0.20620929      -0.41736533
I        8.66456556       8.72915928       2.96947351      -0.04353710      -0.00225921      -0.01783684
I        6.36795414       1.71737739      12.30292209       0.17685098       0.12308601      -0.19640616
I        1.84092144       2.54090660       0.04184264      -0.07444608       0.11400705      -0.12749234
I        1.85825933       2.67150644       5.90482868       0.04518491      -0.01999782       0.07332470
I        2.65143567       7.06039036       5.90482881      -0.23423659      -0.28436182       0.27423298
I        7.16113084       6.10626131      12.30292209      -0.19882174       0.06583169       0.38700204
I        6.35061653       1.84797758       6.43993604       0.09780157       0.09802150       0.16699103
I        4.15487048       4.43749221       9.36756705      -0.02498976      -0.00469204       0.00991232
I        0.35482443       0.04860838       9.36756692       0.05670723      -0.97437082      -0.01427621
I        2.66877355       6.92979043       0.04184264      -0.16343082      -0.32381467      -0.31708075
I        4.86451933       4.34027536       2.96947351      -0.03666554      -0.08290347      -0.02776791
48
Lattice="9.01938999 0.0 0.0 0.0 8.77776784 0.0 0.0 0.0 12.79618681" Properties=species:S:1:pos:R:3:forces:R:3 config_id=O-FAPI3_wide_rotation_08 phase=O-FAPI3 mode=wide_rotation seed=1585760124 source=O-FAPI3/CONTCAR energy=-224.8568976 stress="-0.004695586368151803 -0.0013363266335336605 -0.0004810969027965984 -0.0013363266335336605 -0.006597405793327627 0.0024499807068961072 -0.0004810969027965984 0.0024499807068961072 -0.008267770580365718" pbc="T T T"
C        4.66630813       8.67183826       2.91404338       0.22077441      -0.02352840       0.05049869
C        0.03512764       3.86750294       9.15308632       0.36602685      -0.31397703       0.28776922
C        0.41370751       4.20219625       2.87779012       0.11343849       0.02864767      -0.07415513
C        4.86833516       0.19832506       9.39487680      -0.02192213       0.08010969      -0.15605953
N        4.18929839       0.08657864       1.70713532       0.59080577       0.33184094       0.59048606
N        8.71944783       4.71295217       8.20748139       0.72681284      -0.74891399       1.04345192
N        0.77315717       5.17855834       2.07631593      -0.16116673      -0.42257475       0.30033094
N        4.66605036       8.05310956      10.30703378       0.19987466       0.15968052       0.03226126
N        4.21246316       0.47165676       4.00274295       0.12552103      -0.06789118      -0.13277581
N        8.80444088       4.03206353      10.43184715       0.38954302      -0.49728516      -0.71425686
N        8.38441357       4.22497613       3.66580540       0.01681046       0.04893020       0.05927476
N        4.53942615       0.08853011       8.12957500      -0.61741424      -0.58031263       1.01544198
H        5.50181951       7.97367138       3.02483494      -0.05119798       0.06949570      -0.01373278
H        0.56795676       2.95863776       8.85669464      -0.05961015      -0.00288189      -0.00096429
H        1.03394363       3.30049337       2.88325613      -0.08232328       0.11128440       0.00194138
H        5.35271330       1.12593622       9.71535499      -0.02818932      -0.02967966       0.01616271
H        4.65572181       8.41852268       0.91391825      -0.25399758       0.31615901       0.29876080
H        8.89964767       4.46189529       7.23280121       0.04592888       0.19469892       0.30519286
H        1.57054746       5.05224538       1.44844978      -0.15878531       0.11338797       0.12447523
H        5.01127581       8.19617805      11.25905933      -0.02620151       0.06246018      -0.32550941
H        3.41921512       0.73807211       1.52816644       0.12597149      -0.05513831      -0.23628785
H        8.20527703       5.57530063       8.41116136       0.26193715      -0.23848383      -0.08491702
H        0.24467161       6.04621111       1.99799405       0.03207684       0.09928332       0.09153366
H        4.23531541       7.15504841      10.09207691      -0.04638077      -0.17467901      -0.04216005
H        3.42882483       1.12284486       3.99188999       0.01310370       0.05194955       0.13735353
H        8.32680772       4.85539805      10.79549520      -0.12307038       0.17963613       0.13505350
H        7.76957952       5.04239067       3.72337647       0.01817991      -0.30576454       0.12117037
H        4.06878230       8.03298547       7.76407982      -0.10525464       0.07821789      -0.12704727
H        4.60241252       0.21616895       4.91305472      -0.10024500       0.16841810      -0.31654017
H        0.13796375       3.35224578      11.10956557      -0.02099258       0.07002934      -0.07769081
H        8.22708537       3.44070566       4.30272818      -0.14396654       0.24875996      -0.13307375
H        4.67791618       0.89084223       7.51101309      -0.08430176      -0.18783081       0.07768648
Pb       4.53083798       4.28292590      12.55414681      -0.01507831      -0.02690192      -0.02820134
Pb       0.02114307       0.10595802       6.15605340      -0.04425523      -0.25598012       0.16399014
Pb       8.99824692       8.67180982      12.55414681       0.05128276       0.13159153      -0.18464495
Pb       4.48855201       4.49484194       6.15605340       0.08222051       0.09674893       0.00235008
I        7.17846837       6.23686150       6.43993604      -1.28753598       1.20527925      -1.45437643
I        8.66456556       8.72915928       2.96947351      -0.03403358      -0.01175222      -0.03668408
I        6.36795414       1.71737739      12.30292209       0.17091155       0.08256261       0.08444358
I        1.84092144       2.54090660       0.04184264       0.24346510      -0.30606884       0.03517365
I        1.85825933       2.67150644       5.90482868      -0.01264990      -0.04175670       0.01049063
I        2.65143567       7.06039036       5.90482881      -0.34094620      -0.38838995       0.03544473
I        7.16113084       6.10626131      12.30292209      -0.38123720       0.47246754       0.50558903
I        6.35061653       1.84797758       6.43993604       0.96176547       0.90054098      -0.66267355
I        4.15487048       4.43749221       9.36756705      -0.04773219       0.00100510       0.00987297
I        0.35482443       0.04860838       9.36756692       0.02722346      -0.10608382       0.00607939
I        2.66877355       6.92979043       0.04184264      -0.43634461      -0.53615480      -0.71005983
I        4.86451933       4.34027536       2.96947351      -0.09884125       0.01884412      -0.03046868
48
Lattice="9.01938999 0.0 0.0 0.0 8.77776784 0.0 0.0 0.0 12.79618681" Properties=species:S:1:pos:R:3:forces:R:3 config_id=O-FAPI3_wide_rotation_09 phase=O-FAPI3 mode=wide_rotation seed=1390268935 source=O-FAPI3/CONTCAR energy=-225.21791862 stress="-0.0007338834337832825 0.0025427381832383807 0.004229686791095635 0.0025427381832383807 -0.005723073256069322 -0.005248525462692858 0.004229686791095635 -0.005248525462692858 -0.007943613796864113" pbc="T T T"
C        4.74749329       0.28866989       2.89609724       0.16541633       0.03128080       0.02126865
C        0.23096259       4.30146315       9.39373269      -0.06591674      -0.11284198      -0.11537611
C        0.50527552       4.70560202       3.09337630       0.01553968      -0.00955589       0.21870202
C        4.43794981       8.42054789       9.56636054      -0.03604024       0.00890743       0.01280656
N        4.50268305       7.86993168       2.41686225       0.44809785       0.33998093       0.48515542
N        0.02944885       4.02125749       8.12799122      -0.21805123       0.17364576       0.83982920
N        0.67810741       3.60027469       2.40546034      -0.32240947       0.36926717       1.16399523
N        5.69153868       8.04131768       9.46865219       0.03081895      -0.02223712       0.04540806
N        3.83197794       1.13472654       3.30945873      -0.19195086      -0.27443507       0.10647052
N        8.31085260       4.35992922      10.30957625       0.66307006      -0.58782614      -0.67672691
N        8.40301471       5.38319549       3.15655530       0.13152867      -0.24529123      -0.20744545
N        3.87297414       0.56672578       8.82585276       0.02496677      -0.01076483      -0.01342699
H        5.79299419       0.60544109       2.96223817      -0.03635104       0.01191496      -0.03227111
H        1.25782185       4.50759823       9.71131613      -0.00607833      -0.01864504      -0.02955409
H        1.36100647       5.08541165       3.66017431      -0.04841819       0.02482377      -0.01794751
H        3.82136852       7.93157926      10.32697088      -0.00311460       0.00933185      -0.01326051
H        5.28083967       7.31190510       2.05827944      -0.32681765       0.04381588       0.06760538
H        0.83637345       3.93383978       7.50611189      -0.18148401       0.05508637      -0.12745466
H        1.56901831       3.10122312       2.46226991      -0.41739571       0.21147385      -0.05623618
H        6.06774095       7.35715221      10.12925149      -0.04881373       0.06627223      -0.10232888
H        3.54739220       7.51517661       2.31164765       0.26915028      -0.10538415      -0.09312592
H        8.11621461       3.80229089       7.76499296       0.23260730      -0.01396480      -0.08962741
H        8.95033420       3.17010007       1.86236765       0.11882572      -0.04011960       0.09454584
H        6.33853939       8.45426268       8.79848837       0.01714019      -0.01524380       0.00581284
H        2.83704569       0.91516630       3.29696811       0.01793599      -0.08492785       0.06536010
H        7.32767487       4.19667424      10.09753320      -0.01380594      -0.05095673       0.03143162
H        7.56754916       5.09448154       2.63872958       0.00673533       0.11296911       0.22002872
H        4.38598549       1.05345073       8.08462392       0.00120418      -0.01430836       0.02906808
H        4.11476531       2.02398701       3.72808636      -0.01723119      -0.10572268      -0.17748601
H        8.54771955       4.64785282      11.26193962       0.01308558      -0.36105711      -0.28240551
H        8.38853381       6.26955307       3.66612723      -0.16131895      -0.10378310      -0.12084065
H        2.87158987       0.74316971       8.93355635      -0.00559313      -0.01407495       0.02115606
Pb       4.53083798       4.28292590      12.55414681      -0.27530116      -0.22490408      -0.13411800
Pb       0.02114307       0.10595802       6.15605340      -0.08486954      -0.31159595       0.16144741
Pb       8.99824692       8.67180982      12.55414681       0.18437061       0.26634572      -0.12801797
Pb       4.48855201       4.49484194       6.15605340       0.20887580       0.30844412       0.21715891
I        7.17846837       6.23686150       6.43993604      -0.21020561       0.21861827      -0.07981076
I        8.66456556       8.72915928       2.96947351       0.08901350       0.40029962      -0.00809257
I        6.36795414       1.71737739      12.30292209       0.00905390       0.02030422       0.11095415
I        1.84092144       2.54090660       0.04184264       0.65522299      -0.61052412      -1.43570733
I        1.85825933       2.67150644       5.90482868       0.48306252      -0.31151718      -0.56786589
I        2.65143567       7.06039036       5.90482881      -0.03806018       0.00506752      -0.11638894
I        7.16113084       6.10626131      12.30292209      -0.79407542       1.00169140       1.25039267
I        6.35061653       1.84797758       6.43993604      -0.00269270       0.02565763      -0.02811016
I        4.15487048       4.43749221       9.36756705       0.09318023      -0.00758283       0.01719850
I        0.35482443       0.04860838       9.36756692      -0.02784602      -0.00374713      -0.00317026
I        2.66877355       6.92979043       0.04184264      -0.43777214      -0.24583689      -0.48246179
I        4.86451933       4.34027536       2.96947351       0.09271133       0.20165000      -0.04653837
48
Lattice="9.01938999 0.0 0.0 0.0 8.77776784 0.0 0.0 0.0 12.79618681" Properties=species:S:1:pos:R:3:forces:R:3 config_id=O-FAPI3_wide_rotation_10 phase=O-FAPI3 mode=wide_rotation seed=537385750 source=O-FAPI3/CONTCAR energy=-226.92810663 stress="-0.0006665556319669397 -3.8853575312387935e-05 -0.0002948761977091509 -3.8853575312387935e-05 -0.0006439966084917672 0.0010053365522184007 -0.0002948761977091509 0.0010053365522184007 0.0004206097637746781" pbc="T T T"
C        4.58144027       0.35721995       3.16826701      -0.02041125       0.01089179       0.00233534
C        0.07174528       4.03166406       9.56636042       0.01543745      -0.00448613       0.00367872
C        0.37935166       4.44469551       3.23009281       0.08985055       0.28684665      -0.11050969
C        4.43794981       8.42054789       9.56636054      -0.01433830       0.00989848       0.00371408
N        5.14641595       8.21104206       2.42775923      -0.00365335       0.00030744      -0.01873439
N        0.63672086       4.95560970       8.82585276       0.00309164      -0.00559723      -0.00695579
N        0.93537451       5.34585943       2.45318218       0.03968894      -0.15245725       0.23118079
N        5.69153868       8.04131768       9.46865219       0.01069802      -0.00991189       0.03278927
N        3.32785131       0.73645025       3.07055866       0.00993193      -0.01080394       0.02848291
N        7.83754631       3.65243376       9.46865219      -0.01663001       0.00589474      -0.00472236
N        8.25147741       3.85397921       2.99331422       0.04625261      -0.02013043      -0.00081902
N        3.87297414       0.56672578       8.82585276       0.02280758      -0.00322150      -0.00300006
H        5.19802156       0.84618876       3.92887722      -0.00888116      -0.00955598      -0.00852400
H        0.68832647       3.54269525      10.32697075       0.01136309      -0.01450220       0.02746004
H        0.91774963       4.16277898       4.14028033      -0.07503926       0.04056349      -0.04784006
H        3.82136852       7.93157926      10.32697088       0.00153703       0.01267573      -0.01473745
H        6.14780021       8.03459813       2.53546294      -0.00267064      -0.00537767       0.00865588
H        1.63810522       5.13205363       8.93355635       0.00192352       0.00108023      -0.00016614
H        1.86341734       5.70988365       2.68170979      -0.26598498      -0.08207023      -0.05608539
H        6.06774095       7.35715221      10.12925149      -0.02126119       0.03761461      -0.05982398
H        4.63340450       7.72431711       1.68653051       0.01765564       0.01522228       0.02264416
H        0.12370950       5.44233474       8.08462392      -0.01287916       0.01528638      -0.01591933
H        0.50992240       5.65481790       1.58037770       0.07136950      -0.02570622      -0.02222154
H        6.33853939       8.45426268       8.79848837       0.01009808      -0.02022482       0.00057514
H        2.68085060       0.32350507       2.40039510      -0.00312843       0.03443857      -0.00642754
H        7.19054560       4.06537885       8.79848850      -0.00162859       0.01381158      -0.00475749
H        7.68683122       4.08110396       2.16924452      -0.00770696      -0.17565017       0.26064779
H        4.38598549       1.05345073       8.08462392      -0.01613706      -0.02093948       0.01992449
H        2.95164913       1.42061563       3.73115809       0.02117926      -0.02322302      -0.04641306
H        7.46134412       2.96826829      10.12925149       0.00098784      -0.00687392       0.01250962
H        7.87039493       3.21444281       3.69422241      -0.01113480       0.12586771      -0.31050701
H        2.87158987       0.74316971       8.93355635      -0.00283258      -0.00528978       0.00929318
Pb       4.53083798       4.28292590      12.55414681      -0.19835855      -0.23534131       0.08996643
Pb       0.02114307       0.10595802       6.15605340       0.01213688      -0.26546464       0.00975596
Pb       8.99824692       8.67180982      12.55414681       0.07007950       0.36433197      -0.02971667
Pb       4.48855201       4.49484194       6.15605340       0.06554584       0.20444590      -0.05398890
I        7.17846837       6.23686150       6.43993604       0.02227045      -0.02398277      -0.02985760
I        8.66456556       8.72915928       2.96947351      -0.02119482       0.04983662       0.01016598
I        6.36795414       1.71737739      12.30292209       0.00981196      -0.00361252      -0.00640884
I        1.84092144       2.54090660       0.04184264      -0.01515208      -0.02309189      -0.03173021
I        1.85825933       2.67150644       5.90482868       0.13693415      -0.19951764       0.29864575
I        2.65143567       7.06039036       5.90482881      -0.01853047      -0.04322430      -0.01525146
I        7.16113084       6.10626131      12.30292209       0.09507943      -0.06727341       0.10469774
I        6.35061653       1.84797758       6.43993604       0.03004259       0.02027459      -0.05023811
I        4.15487048       4.43749221       9.36756705       0.00523295       0.00300795      -0.00647704
I        0.35482443       0.04860838       9.36756692      -0.00447432      -0.00218971      -0.00942556
I        2.66877355       6.92979043       0.04184264       0.13155152       0.15344518      -0.19391571
I        4.86451933       4.34027536       2.96947351      -0.21053003       0.05397818      -0.01194887
48
Lattice="9.01938999 0.0 0.0 0.0 8.77776784 0.0 0.0 0.0 12.79618681" Properties=species:S:1:pos:R:3:forces:R:3 config_id=O-FAPI3_wide_rotation_11 phase=O-FAPI3 mode=wide_rotation seed=2730786551 source=O-FAPI3/CONTCAR energy=-225.29382867 stress="0.0021413199552786782 -0.001958995524746082 0.0007535322350398386 -0.001958995524746082 -0.010266680761941625 0.0013305808937191554 0.0007535322350398386 0.0013305808937191554 -0.005500140256446813" pbc="T T T"
C        4.03601548       0.08075546       3.16324003       0.10932780      -0.09493283      -0.16402392
C        0.21556153       4.04131925       9.28787726      -0.06445744      -0.31912226       0.04084378
C        0.45405657       4.76224865       3.11761126       0.03056828      -0.03591603       0.11986500
C        4.73906900       0.08108244       9.61549419      -0.35801129       0.04144803       0.06974761
N        4.24420366       1.33974474       2.85856205      -0.27731275      -0.56388076      -0.09699739
N        0.16045441       5.35069186       9.34896062       0.20117812       0.00957186      -0.07201681
N        0.73049077       3.52236436       2.78426624      -0.20012379       0.17836440       0.30493112
N        4.63530398       7.56324665       9.80388656       0.29326524       0.42520640      -0.01353608
N        4.68615900       7.84209843       2.64454775       0.11013556       0.31110738       0.35596947
N        8.19294716       3.24927062       9.17955498      -0.13940978       0.49521653       0.17017597
N        8.39337100       5.41386431       2.75697466       0.06468334      -0.74305078      -0.11796181
N        4.67862537       0.67748454       8.44849987      -0.81241212      -0.47822478       0.77003811
H        3.26681873       8.63680128       3.90954192       0.06608672      -0.00359115      -0.07540826
H        1.20283748       3.57147386       9.33606757      -0.05579396       0.02371763      -0.00915905
H        1.17787587       5.28788280       3.74815475      -0.02338605       0.00582254      -0.03068091
H        4.89287133       0.70809217      10.49923327      -0.03918840      -0.04895373      -0.07654858
H        3.63869377       2.05455199       3.26833178       0.39113160      -0.16781904      -0.10246077
H        1.03369885       5.88238566       9.36473627      -0.34568165      -0.01138549       0.05913799
H        1.56630519       3.06966713       3.16173341      -0.38365358       0.17800655      -0.07539332
H        4.75715729       7.17551430      10.74240535      -0.07438930       0.11583227      -0.20060558
H        4.93688117       1.61840209       2.15709940      -0.16615657       0.05467241       0.11353594
H        8.29109869       5.85717942       9.29325153       0.34662795       0.02201822      -0.03069727
H        0.10523391       2.95590832       2.21292213       0.12331458       0.00245697       0.07157187
H        4.50590189       6.90624469       9.03586557       0.01579395      -0.04872802       0.07497448
H        5.42710667       7.95959026       1.95502241      -0.03288145      -0.02260659      -0.01221282
H        7.23768454       3.60198635       9.14325245       0.00253615       0.05942072      -0.04761927
H        7.68210416       4.98907889       2.15434822       0.11041132       0.20213697       0.15314422
H        4.52041788       0.15435196       7.58200992      -0.01487412       0.23753521       0.12804248
H        4.50350372       6.89540695       2.98574310       0.02755914      -0.06018030      -0.11274092
H        8.32196196       2.23494925       9.20212387       0.10212042      -0.13275781      -0.02220216
H        8.30193684       6.39971034       3.01241649      -0.10326447       0.12523015      -0.02655414
H        4.70290395       1.69908452       8.41318674      -0.10803185      -0.29352004      -0.02346359
Pb       4.53083798       4.28292590      12.55414681      -0.37577340       0.09373509       0.07575694
Pb       0.02114307       0.10595802       6.15605340      -0.32580749      -0.05916951       0.08330314
Pb       8.99824692       8.67180982      12.55414681       0.39484761       0.05521173      -0.03171936
Pb       4.48855201       4.49484194       6.15605340       0.34932685      -0.09721656      -0.01543199
I        7.17846837       6.23686150       6.43993604      -0.12460808       0.01552138       0.02002968
I        8.66456556       8.72915928       2.96947351      -0.03640859       0.47433181       0.01624450
I        6.36795414       1.71737739      12.30292209       0.12613701       0.11398789       0.40581312
I        1.84092144       2.54090660       0.04184264       0.22256016      -0.19422405      -0.61917644
I        1.85825933       2.67150644       5.90482868       0.20149200      -0.02774737       0.13960743
I        2.65143567       7.06039036       5.90482881      -0.01233241      -0.11570297       0.27015721
I        7.16113084       6.10626131      12.30292209      -0.15199774      -0.05512142      -0.04772975
I        6.35061653       1.84797758       6.43993604       0.81245325       0.57525910      -1.16392596
I        4.15487048       4.43749221       9.36756705      -0.06919066      -0.69706245      -0.14285603
I        0.35482443       0.04860838       9.36756692       0.16817917      -0.09384625      -0.01784708
I        2.66877355       6.92979043       0.04184264      -0.12101241      -0.12560668      -0.11559159
I        4.86451933       4.34027536       2.96947351       0.14642317       0.67455564       0.02167079
48
Lattice="9.01938999 0.0 0.0 0.0 8.77776784 0.0 0.0 0.0 12.79618681" Properties=species:S:1:pos:R:3:forces:R:3 config_id=O-FAPI3_wide_rotation_12 phase=O-FAPI3 mode=wide_rotation seed=4115372780 source=O-FAPI3/CONTCAR energy=-225.64186249 stress="-0.0023611524353108326 -0.0023195720694915286 0.0053355254464589425 -0.0023195720694915286 -0.00210638001839953 0.003705027225422862 0.0053355254464589425 0.003705027225422862 -0.007051313034613468" pbc="T T T"
C        4.73904582       0.04188408       2.95750204      -0.17771537       0.13318737      -0.20225749
C        0.07174528       4.03166406       9.56636042       0.01831898       0.01710126      -0.00301560
C        8.94764462       4.74610387       3.16826714      -0.00251642      -0.00219526       0.01589727
C        4.59963978       0.16987114       9.01845265      -0.20719855      -0.01852415      -0.01722323
N        4.56188660       0.87121768       1.95647989      -0.28579472      -0.30775878       0.90999846
N        0.63672086       4.95560970       8.82585276      -0.00987101      -0.02913357      -0.00167403
N        1.18184368       5.12533408       3.07055866       0.00030627       0.01191457       0.00897218
N        5.34745409       7.98446759       8.53067967      -0.29567545       0.21621402       0.23636710
N        3.77980744       8.34201838       3.71682789       1.08889647       0.68185077      -1.51199216
N        7.83754631       3.65243376       9.46865219      -0.02969217      -0.00893654       0.04966250
N        8.38266904       3.82215805       2.42775936       0.03756528      -0.00249177      -0.02397007
N        4.08124312       0.18106543      10.22359356       0.13432487       0.13692919      -0.09005639
H        5.76180622       8.49605776       3.17438640       0.01272425       0.03618780      -0.02592488
H        0.68832647       3.54269525      10.32697075      -0.02116535       0.01169838      -0.03747027
H        8.33106343       5.23507259       3.92887735       0.00449713      -0.01314578      -0.02883628
H        4.38989098       1.02400764       8.36711011       0.03380653      -0.08458907       0.01444041
H        5.38128844       1.23881392       1.46764790      -0.13433222       0.00324592      -0.06494519
H        1.63810522       5.13205363       8.93355635      -0.04962152       0.01861901      -0.00395404
H        1.55804587       5.80949955       3.73115809      -0.04187052      -0.06854206      -0.05843088
H        5.65888397       8.02713711       7.55744137       0.05345692       0.05138134       0.19341624
H        3.63414204       1.22756925       1.70787263       0.14429117       0.00975154      -0.11110686
H        0.12370950       5.44233474       8.08462392       0.04213120      -0.01279553       0.05640057
H        1.82884430       4.71238908       2.40039510       0.01096369       0.02368767       0.01912614
H        5.57923419       7.14725129       9.06322049      -0.00425407      -0.02111252      -0.01224225
H        2.79903546       8.57926836       3.57522414      -0.04512862      -0.01256178      -0.00054805
H        7.19054560       4.06537885       8.79848850       0.01814022      -0.03741606       0.00539601
H        8.89568040       3.33543310       1.68653064      -0.03803865       0.02852527       0.05918865
H        4.24975194       8.20030570      10.89123320      -0.23595089       0.18144297       0.10164144
H        3.99969205       7.64998978       4.43707035       0.17084204       0.31156415      -0.43953304
H        7.46134412       2.96826829      10.12925149       0.05451906       0.04199508      -0.09657526
H        7.38128477       3.64571412       2.53546307       0.00637776       0.02100959       0.01301773
H        3.56808962       1.00931787      10.53371349       0.02459888      -0.36246904       0.02831534
Pb       4.53083798       4.28292590      12.55414681       0.05324444       0.55059591       0.06080367
Pb       0.02114307       0.10595802       6.15605340      -0.08728587       0.39989590       0.17228092
Pb       8.99824692       8.67180982      12.55414681       0.09816030      -0.37967651      -0.13470003
Pb       4.48855201       4.49484194       6.15605340      -0.06389241      -0.49786310      -0.09142572
I        7.17846837       6.23686150       6.43993604       0.19054930      -0.26545372      -0.29728767
I        8.66456556       8.72915928       2.96947351       0.08249952       0.00557281       0.01485044
I        6.36795414       1.71737739      12.30292209       0.59300761       0.29992726      -0.66389636
I        1.84092144       2.54090660       0.04184264       0.04410297       0.00670771      -0.02042093
I        1.85825933       2.67150644       5.90482868       0.04156284      -0.01677768      -0.00008395
I        2.65143567       7.06039036       5.90482881      -1.27787851      -1.21180374       2.20306820
I        7.16113084       6.10626131      12.30292209      -0.08837111       0.01036068      -0.05369808
I        6.35061653       1.84797758       6.43993604       0.09954720       0.14611870      -0.27515476
I        4.15487048       4.43749221       9.36756705       0.03388303      -0.03973180       0.03597207
I        0.35482443       0.04860838       9.36756692       0.01305682       0.01031900       0.01244591
I        2.66877355       6.92979043       0.04184264       0.00321804      -0.07540884       0.04179794
I        4.86451933       4.34027536       2.96947351      -0.01233937       0.10258344       0.01336429
48
Lattice="9.01938999 0.0 0.0 0.0 8.77776784 0.0 0.0 0.0 12.79618681" Properties=species:S:1:pos:R:3:forces:R:3 config_id=O-FAPI3_wide_rotation_13 phase=O-FAPI3 mode=wide_rotation seed=2398685055 source=O-FAPI3/CONTCAR energy=-226.56115245 stress="0.0007981449257207886 0.00041955538563804266 0.0004062086860779638 0.00041955538563804266 -0.003305718090777923 6.681250282290974e-05 0.0004062086860779638 6.681250282290974e-05 -0.001991086481094157" pbc="T T T"
C        4.61633864       0.42151131       3.07367709       0.04255681       0.11494325       0.01986434
C        0.01152416       4.28784014       8.88965046      -0.07378270       0.48103460      -0.08664521
C        8.94764462       4.74610387       3.16826714       0.00514935       0.00724555       0.00902600
C        4.43794981       8.42054789       9.56636054      -0.08812597       0.00660944       0.01876775
N        5.05350297       8.02920076       2.67239276       0.02765105      -0.06655414      -0.01871630
N        0.26022068       3.14999170       9.49353450       0.08871427       0.57881059       0.03340464
N        1.18184368       5.12533408       3.07055866      -0.00049193      -0.02610587      -0.00353528
N        5.69153868       8.04131768       9.46865219       0.08297503      -0.01239039      -0.01118072
N        3.39143035       0.86443765       2.90555899      -0.02347205       0.06545312       0.14971136
N        8.26363411       5.24058073       9.36757767       0.35190968      -0.45205275      -0.32063809
N        8.38266904       3.82215805       2.42775936      -0.02153833       0.00958935      -0.00949737
N        3.87297414       0.56672578       8.82585276       0.01733553      -0.03437848       0.01001498
H        5.32251493       1.07716545       3.59254455      -0.02012339      -0.03169280      -0.01546845
H        0.47289961       4.45543766       7.91147116       0.02483144      -0.05558911       0.04741947
H        8.33106343       5.23507259       3.92887735       0.00638465       0.00699215       0.01715331
H        3.82136852       7.93157926      10.32697088       0.00946706      -0.01221337      -0.00500286
H        6.04377210       7.80381560       2.79101636      -0.08085351       0.02929261      -0.00474273
H        0.92570518       2.49988362       9.06927898      -0.27498096       0.16861967       0.21578859
H        1.55804587       5.80949955       3.73115809       0.00412057       0.01931484       0.03703348
H        6.06774095       7.35715221      10.12925149      -0.11369926       0.06894836       0.00872065
H        4.45191047       7.37220705       2.16648016       0.09757381       0.05896142       0.00439387
H        8.89436050       2.93340238      10.41774946       0.17356970      -0.08196210      -0.21902781
H        1.82884430       4.71238908       2.40039510      -0.01762331       0.01099952      -0.02024637
H        6.33853939       8.45426268       8.79848837      -0.03429036       0.05097468      -0.01351248
H        2.66742939       0.31350202       2.44670680      -0.03839921       0.00271904      -0.00363001
H        7.78402020       5.16079705      10.26304279      -0.04106935       0.00450884       0.22309740
H        8.89568040       3.33543310       1.68653064       0.00153280      -0.01447110      -0.01327776
H        4.38598549       1.05345073       8.08462392       0.01873831       0.02847965      -0.01310509
H        3.11788091       1.76480305       3.30620223       0.09038253      -0.19301646      -0.08597779
H        8.07294869       6.07064034       8.80132490       0.08639909      -0.22552039      -0.04510856
H        7.38128477       3.64571412       2.53546307       0.02591089      -0.01075456      -0.00588346
H        2.87158987       0.74316971       8.93355635       0.09429402      -0.06517431      -0.00505343
Pb       4.53083798       4.28292590      12.55414681      -0.10253169      -0.09704120      -0.29826728
Pb       0.02114307       0.10595802       6.15605340      -0.07846841      -0.09603376      -0.14350542
Pb       8.99824692       8.67180982      12.55414681       0.04649196       0.10971521       0.14795222
Pb       4.48855201       4.49484194       6.15605340       0.07622445       0.03680595       0.32682374
I        7.17846837       6.23686150       6.43993604      -0.10219448       0.24640969      -0.50349755
I        8.66456556       8.72915928       2.96947351      -0.03674921      -0.01276921      -0.02791032
I        6.36795414       1.71737739      12.30292209       0.08333278       0.02823359       0.02111045
I        1.84092144       2.54090660       0.04184264      -0.06511721       0.00715823      -0.01284966
I        1.85825933       2.67150644       5.90482868      -0.00977302      -0.00578719       0.02996178
I        2.65143567       7.06039036       5.90482881      -0.01703556       0.03554430      -0.07235319
I        7.16113084       6.10626131      12.30292209      -0.21539300       0.12533766       0.59621952
I        6.35061653       1.84797758       6.43993604       0.03603123      -0.01967057      -0.02566432
I        4.15487048       4.43749221       9.36756705      -0.04191707       0.00219155       0.01812733
I        0.35482443       0.04860838       9.36756692       0.01374764      -0.78284702      -0.00509896
I        2.66877355       6.92979043       0.04184264       0.00084902       0.01678747       0.06146052
I        4.86451933       4.34027536       2.96947351      -0.00854367      -0.02565555      -0.00665494
48
Lattice="9.01938999 0.0 0.0 0.0 8.77776784 0.0 0.0 0.0 12.79618681" Properties=species:S:1:pos:R:3:forces:R:3 config_id=O-FAPI3_wide_rotation_14 phase=O-FAPI3 mode=wide_rotation seed=2186111541 source=O-FAPI3/CONTCAR energy=-225.77241994 stress="-0.002579378506931712 -0.0011131832451215357 -0.004181173157211009 -0.0011131832451215357 -0.005471124248226204 0.0012278658198231027 -0.004181173157211009 0.0012278658198231027 -0.00657761668918743" pbc="T T T"
C        3.96989280       8.76701885       2.99947865       0.01497969       0.00479364      -0.71449277
C        9.01746291       4.60281656       9.17004895      -0.38324466      -0.12615523      -0.30956103
C        8.94764462       4.74610387       3.16826714      -0.03298075      -0.01259749       0.00721371
C        4.43794981       8.42054789       9.56636054       0.02116094      -0.00826588      -0.00335180
N        4.76947670       0.45200940       3.93100714      -0.03150647       0.05484237       0.01780676
N        0.60479799       3.89743320      10.09500506      -0.07100846       0.20013590       0.03383011
N        1.18184368       5.12533408       3.07055866       0.02525949       0.02647736      -0.01351359
N        5.69153868       8.04131768       9.46865219      -0.00628751       0.01710452      -0.00492479
N        4.21674683       0.02691439       1.71010186       0.82883103       0.88721144       1.60522175
N        7.93165300       4.23038105       8.53196095       0.72590773      -1.15139796       1.46949676
N        8.38266904       3.82215805       2.42775936       0.02421223       0.01728803      -0.00209296
N        3.87297414       0.56672578       8.82585276      -0.01422241      -0.01787698      -0.01432929
H        3.02823827       8.30996750       3.31913725       0.02669287       0.08279409       0.01026837
H        0.43078086       5.57249569       8.90495073      -0.02213502      -0.00001876      -0.01734894
H        8.33106343       5.23507259       3.92887735       0.00467296       0.00005919      -0.02214684
H        3.82136852       7.93157926      10.32697088       0.00914570      -0.00516547      -0.01647925
H        4.45632005       0.43649706       4.90424672       0.20756627      -0.02291027      -0.21053278
H        1.40678925       4.30473322      10.58123508      -0.16158307      -0.33039178      -0.11426611
H        1.55804587       5.80949955       3.73115809      -0.03069353      -0.04429159      -0.01726241
H        6.06774095       7.35715221      10.12925149       0.00894013      -0.03562663       0.01514120
H        5.65870810       0.90661430       3.70274441      -0.21483040      -0.14271824       0.18841304
H        0.24598375       2.98890921      10.40377436       0.22960234       0.23708042       0.00305936
H        1.82884430       4.71238908       2.40039510       0.00436646      -0.02793263       0.03130521
H        6.33853939       8.45426268       8.79848837      -0.01343059      -0.00078905       0.01393385
H        5.07515492       0.42069419       1.32757623       0.19095652       0.16721569      -0.07714882
H        7.47255315       3.33753160       8.70603068       0.07818445      -0.01888090       0.08995285
H        8.89568040       3.33543310       1.68653064      -0.00028979      -0.00586363       0.02229607
H        4.38598549       1.05345073       8.08462392      -0.02677858       0.01905558       0.03867887
H        3.56624633       8.36346650       1.05574735       0.08659302       0.35593991       0.12440799
H        7.55968470       4.81457941       7.77939609       0.03668650      -0.07564329       0.10589462
H        7.38128477       3.64571412       2.53546307      -0.00239908       0.02842303      -0.00559795
H        2.87158987       0.74316971       8.93355635       0.01956730       0.02623854      -0.01454732
Pb       4.53083798       4.28292590      12.55414681       0.13584434       0.01906596      -0.08058760
Pb       0.02114307       0.10595802       6.15605340       0.12853073       0.11623240      -0.21036442
Pb       8.99824692       8.67180982      12.55414681      -0.07971514      -0.06123189       0.20403105
Pb       4.48855201       4.49484194       6.15605340      -0.19436517      -0.08181042       0.02797843
I        7.17846837       6.23686150       6.43993604      -0.48800876       1.46756992      -1.46872269
I        8.66456556       8.72915928       2.96947351      -0.08788337       0.02283140       0.02286611
I        6.36795414       1.71737739      12.30292209       0.15387053       0.11145419      -0.12957036
I        1.84092144       2.54090660       0.04184264       0.14468850      -0.13635837       0.28507659
I        1.85825933       2.67150644       5.90482868      -0.00220599      -0.05516830       0.06448198
I        2.65143567       7.06039036       5.90482881      -0.09175246      -0.03623638       0.15616889
I        7.16113084       6.10626131      12.30292209       0.00471626       0.00401283      -0.05832859
I        6.35061653       1.84797758       6.43993604       0.14945625       0.07777639       0.26852908
I        4.15487048       4.43749221       9.36756705       0.01596137       0.02945714       0.02411693
I        0.35482443       0.04860838       9.36756692      -0.03875251       0.02885936       0.01685863
I        2.66877355       6.92979043       0.04184264      -1.27804770      -1.59022945      -1.34822070
I        4.86451933       4.34027536       2.96947351      -0.00427223      -0.01435872       0.00636278
24
Lattice="8.95158397 0.0 0.0 0.0 8.95158397 0.0 0.0 0.0 6.32897243" Properties=species:S:1:pos:R:3:forces:R:3 config_id=t-FAPI3_all_rattle_01 phase=t-FAPI3 mode=all_rattle seed=2091264016 source=t-FAPI3/CONTCAR energy=-111.27172711 stress="0.010076343912657349 -0.0005596017682197351 -0.0012893785948321337 -0.0005596017682197351 0.004940627286177412 0.005246871706193355 -0.0012893785948321337 0.005246871706193355 0.007355714574161886" pbc="T T T"
C        4.43107399       4.48213866       3.78612744       0.58275109       0.28185266      -7.77815548
C        0.14693685       0.05330337       3.70897702      -2.85343986       0.44104946      -6.04168454
N        5.22018870       5.32463739       3.03979812       2.38871179       1.17377134       2.81806517
N        3.65294950       3.65150561       3.04518293       1.05485143       1.14474401       1.73432215
N        0.88735083       8.13948276       3.01673832      -0.42910347       0.98860678      -0.36835722
N        8.19657211       0.82516820       2.95029404       0.22044087       0.62107716      13.18291526
H        4.46257640       4.48365318       4.81408345      -0.05966273      -0.00106362       2.35046754
H        6.00905295       5.89109595       3.62528439      -2.34618527      -1.50707845      -1.55441588
H        5.44169860       5.38935081       1.99146845      -0.92931380      -0.59697048       1.68533531
H        3.61048846       3.56621411       2.03432654       0.34987539       0.42608744      -0.14728939
H        3.05144146       3.02699772       3.51385897      -0.95784290      -0.93039052       0.84889288
H        8.92389636       8.92565436       4.75247249       0.30242888       0.14280014       1.04451308
H        1.37332086       7.45558890       3.54622458       0.88801808      -0.90484223       0.46829131
H        0.91852418       8.04549184       1.95614848      -0.10221400       0.28562293       1.62844120
H        8.03424194       0.91442928       2.06979126      -0.70166420       0.28658660      -7.48231170
H        7.44758574       1.44432178       3.62612513       2.60870650      -2.01201098      -2.39229265
Pb       8.92702029       4.43088180       6.24254594       0.13119543       0.17361942       0.02693208
Pb       4.47800661       0.07718951       6.21662007      -0.08767036      -0.30588703       0.07416971
I        0.01619189       4.45925044       3.11431658      -0.04293299       0.06005787      -0.02441041
I        4.50584317       8.91142054       3.13853642       0.02611918       0.07232489      -0.08218234
I        1.92950300       1.97179458       6.27010140       0.20743094      -0.18853936       0.04045171
I        2.46792171       6.39545219       6.30590219       0.12577624       0.14137017       0.00791494
I        6.45575077       2.47586114       6.29999656      -0.09425653       0.00963631      -0.05667171
I        7.08756324       6.95962290       6.27893216      -0.28201968       0.19757547       0.01705898
24
Lattice="8.95158397 0.0 0.0 0.0 8.95158397 0.0 0.0 0.0 6.32897243" Properties=species:S:1:pos:R:3:forces:R:3 config_id=t-FAPI3_all_rattle_02 phase=t-FAPI3 mode=all_rattle seed=2967487925 source=t-FAPI3/CONTCAR energy=-112.65706675 stress="0.001126402399442627 0.001428556409003868 0.006375070468135994 0.001428556409003868 0.002992954882593179 0.0018223514075134358 0.006375070468135994 0.0018223514075134358 -0.006034853283012029" pbc="T T T"
C        4.48475422       4.51003949       3.66724668      -2.72175876      -2.54330127      -4.85210351
C        8.91621975       0.04136813       3.66536768      -0.57508679      -0.32405011      -1.77889799
N        5.26907536       5.36476224       3.08009367      -0.75521252      -0.98198056       0.91965700
N        3.62107756       3.61173533       2.99298157       2.73062598       2.72550041       3.67496664
N        0.80786506       8.17279035       3.09429323       1.04267726      -1.09807385      -1.97396379
N        8.08087924       0.85317090       3.00236566       0.85528547      -0.79809804      -0.21551263
H        4.42126798       4.48009179       4.67193815      -0.03062567      -0.14126116       3.52076991
H        5.92932647       5.85133364       3.65940673       0.60507775       0.68298361       0.07787777
H        5.30260038       5.31084891       2.09591137       0.64987875       0.58008900      -1.58169131
H        3.51058476       3.62769457       2.00809517      -0.32230210      -0.22492419      -1.13413634
H        3.02980691       3.07254204       3.63169128      -0.05843576      -0.04113799      -0.59936547
H        8.88797312       8.82712544       4.72449590      -0.43583755       0.73657734       0.79692026
H        1.35106096       7.44796618       3.57203002      -0.31555492       0.44992002       0.75762357
H        0.99170732       8.02928652       2.07128141      -0.61202084       0.72631482       0.74398588
H        7.94530276       0.91986128       1.95801654       0.47321131      -0.19904513       1.26188895
H        7.51811688       1.47093547       3.55710598      -0.48060790       0.41533755       0.34759090
Pb       0.03623816       4.43594213       0.00054049      -0.12145058       0.23572073      -0.09299109
Pb       4.43752477       0.03940299       6.26484494       0.08929187      -0.03584320       0.07969533
I        0.05294889       4.40188547       3.07450626      -0.08151098       0.13990954       0.12476256
I        4.37417611       0.04416201       3.17895235       0.04510988      -0.03363001      -0.14682344
I        1.92806914       2.00062316       6.32264029       0.04918687      -0.08940015      -0.06608330
I        2.49808345       6.46543656       6.22831778      -0.02419270       0.01691413       0.07614435
I        6.52476748       2.49530765       6.21112766      -0.16197034      -0.07728298       0.03271256
I        6.84571149       6.96476442       6.19653767       0.15622229      -0.12123851       0.02697320
24
Lattice="8.95158397 0.0 0.0 0.0 8.95158397 0.0 0.0 0.0 6.32897243" Properties=species:S:1:pos:R:3:forces:R:3 config_id=t-FAPI3_all_rattle_03 phase=t-FAPI3 mode=all_rattle seed=3964747857 source=t-FAPI3/CONTCAR energy=-112.74528053 stress="0.0024063183608776825 0.002878360812491017 0.000949900123520764 0.002878360812491017 0.0017420594981634127 0.0019410840413132061 0.000949900123520764 0.0019410840413132061 -0.005432642267401136" pbc="T T T"
C        4.47472728       4.47422886       3.65006371      -1.01090814      -0.43604582      -5.02757398
C        0.05117728       0.01142294       3.58060318      -1.31538121       0.63571337       2.43121164
N        5.27159487       5.29465147       2.98567369       1.03389631       1.04484406       4.39654236
N        3.62339924       3.65676108       2.97445502       0.59409728       0.18025217       5.66531997
N        0.81734138       8.11735041       3.01277530       2.05120310      -1.81182548       0.21804103
N        8.14988584       0.80370508       3.01799000      -2.76503451       3.03561075       1.17235518
H        4.43163498       4.54485981       4.68226285      -0.04443589      -0.13968290       2.08812236
H        5.86993405       5.94672745       3.60255319      -0.97621476      -1.08715622      -1.38306214
H        5.36960021       5.36587958       2.01608265       0.11811075       0.04355821      -1.98270397
H        3.54871484       3.57686202       2.01115016      -0.13378724      -0.23761169      -2.33225027
H        3.08171213       3.02548580       3.62876273       0.43643027       0.64738095      -1.36824377
H        0.01062168       0.02892525       4.68214722       0.26733461      -0.13006969      -0.28284679
H        1.43198059       7.49088849       3.57756812      -0.55799811       0.63960537      -0.45500085
H        0.90789462       8.04921704       2.02145804       0.12352859      -0.18729911      -1.01434086
H        8.04836342       0.95970039       2.02525713       0.04393790      -0.13460421      -0.49174957
H        7.46902756       1.47078589       3.63032232       2.13467051      -2.02474999      -1.53892388
Pb       8.90381125       4.43389544       6.23069672       0.05620440       0.11310808       0.04150838
Pb       4.46536160       8.94852870       6.29165630      -0.01925111      -0.06814398      -0.05613307
I        0.00452950       4.53914252       3.10709712      -0.03165128      -0.04439480      -0.01977592
I        4.48857708       8.92638678       3.07406355      -0.00016789       0.03218474       0.10048108
I        1.94514303       1.96170239       6.29678505      -0.04652104       0.01947365      -0.04046138
I        2.55234097       6.46316322       6.28347927      -0.18192036      -0.18914288      -0.03157277
I        6.34899776       2.53283985       6.29474731       0.16923225       0.15250514      -0.05270130
I        6.98703390       7.02103309       6.26833537       0.05462557      -0.05350972      -0.03624150
24
Lattice="8.95158397 0.0 0.0 0.0 8.95158397 0.0 0.0 0.0 6.32897243" Properties=species:S:1:pos:R:3:forces:R:3 config_id=t-FAPI3_all_rattle_04 phase=t-FAPI3 mode=all_rattle seed=399645231 source=t-FAPI3/CONTCAR energy=-112.09649799 stress="-0.002802886948729592 0.005539829707144357 -0.0026833916836542567 0.005539829707144357 -0.0007099660956430804 -0.006186561532180361 -0.0026833916836542567 -0.006186561532180361 -0.00020290372845265778" pbc="T T T"
C        4.45752100       4.44950852       3.69724298       2.19227051       2.34023109      -3.95009952
C        8.93358645       0.02833982       3.59629530       2.52729908      -1.93103893       3.63966358
N        5.32816826       5.28832905       2.96697506      -2.88481653      -2.75800461       4.54654917
N        3.64297940       3.68308590       3.01156906      -1.53028170      -2.13438533       4.22351335
N        0.82219484       8.20567193       2.98441113       1.43629547      -1.60889399       3.38239819
N        8.11679067       0.80886262       3.08518482      -4.60570197       4.23724451      -5.85543956
H        4.50714222       4.54224523       4.78548618      -0.21552735      -0.40295640      -0.17526335
H        5.84278300       5.86842643       3.58426556       1.03185993       1.05238220       0.06431717
H        5.37594528       5.30348229       1.99316240       0.22387861       0.19447964      -1.92718560
H        3.48899103       3.66446983       2.03623986       0.06767481       0.16073624      -1.48999827
H        3.04022208       2.97780537       3.58839902       1.13173239       1.50275541      -1.31990644
H        0.08797626       0.02959805       4.70636371      -0.34186440      -0.03270889      -0.58007940
H        1.42772805       7.50899038       3.49252078      -0.85099327       1.10509048      -0.32242261
H        0.84486938       8.11156429       2.04605059       0.03273568      -0.32532695      -4.12687717
H        7.92432544       1.00403866       1.95840628       0.97336419      -0.99241363       3.08989264
H        7.43714157       1.42668260       3.55149547       0.65973128      -0.50002957       0.66028928
Pb       0.04042240       4.44955364       6.19413722      -0.02011124       0.21661556      -0.05102097
Pb       4.49786435       0.04241466       6.32286181       0.01255875      -0.15478936      -0.00595698
I        0.02348618       4.40885061       2.98098323       0.00167852       0.04541537       0.13112446
I        4.32115364       8.86701281       3.17396246       0.14692615       0.11279324      -0.06258393
I        1.88531369       1.94829650       6.29878140       0.27955607      -0.23633470      -0.01962511
I        2.51616225       6.33153609       6.20561025       0.27970846       0.28180771       0.05184670
I        6.50424804       2.56126498       6.25500940      -0.33811632      -0.33457356       0.07062805
I        7.05521767       6.98276615       6.20007689      -0.20985710       0.16190447       0.02623632
24
Lattice="8.95158397 0.0 0.0 0.0 8.95158397 0.0 0.0 0.0 6.32897243" Properties=species:S:1:pos:R:3:forces:R:3 config_id=t-FAPI3_all_rattle_05 phase=t-FAPI3 mode=all_rattle seed=4277976050 source=t-FAPI3/CONTCAR energy=-112.38156388 stress="0.00027098810103920354 0.003987166082107894 0.0006149015141090243 0.003987166082107894 0.0008228177298840786 -0.00378701871643239 0.0006149015141090243 -0.00378701871643239 -0.008920062310523513" pbc="T T T"
C        4.42000231       4.48753235       3.63994565       1.62510790       0.62463147      -2.11805161
C        0.00816608       8.92439309       3.67873092      -2.37833233       2.79963239      -5.70020700
N        5.29607701       5.29573756       3.03328352       0.57995873       1.20186392      -1.48280453
N        3.65652556       3.63095205       3.02022786      -0.81110336      -0.58325607       2.92738301
N        0.84137576       8.15117352       3.06917031      -1.13570268       1.00159761      -3.01973071
N        8.10512505       0.83615761       2.94358261       2.70011246      -2.77825776       6.44268365
H        4.48280806       4.44249567       4.68444458      -0.21567322       0.10287698       1.65932044
H        5.86015292       6.02215144       3.58067058      -1.05326531      -1.39452053      -0.65417216
H        5.42122695       5.41139838       1.93520066      -0.53558402      -0.43143994       2.71613260
H        3.53979011       3.56542807       2.07162058      -0.09682006       0.06124856      -3.23603187
H        2.99887498       3.01928790       3.52978874       0.50026063       0.41965346       0.16102657
H        0.02613809       0.00435665       4.69880717      -0.30312002       0.26137691       2.79477035
H        1.39700962       7.55286281       3.55920707       2.09247638      -2.18156067       1.94921989
H        0.91956382       8.06621323       2.03156907      -0.15212852       0.17037043       0.84303384
H        8.00583086       0.92559772       2.00134247      -0.06268780       0.05067111      -3.44043672
H        7.57438260       1.42779644       3.55059537      -0.61527010       0.59990480       0.11449246
Pb       8.88471054       4.52458071       6.24354890       0.29625494      -0.07978741       0.02563509
Pb       4.54664243       0.06767568       6.25974771      -0.29884134      -0.07956127       0.03035740
I        8.92933973       4.40216780       3.10924245       0.02480543       0.08807833      -0.03844005
I        4.56185377       0.00344842       3.13138404      -0.09567716      -0.02760414      -0.05150305
I        1.99741035       1.97891414       6.22474166      -0.03817825      -0.01100161       0.02270380
I        2.47951249       6.37594051       6.23128164       0.14488151       0.23495588       0.06271781
I        6.48832854       2.50785580       6.30266802      -0.16517896      -0.05496642      -0.03145686
I        6.99335131       7.00848235       6.26861321      -0.00629484       0.00509397       0.02335764
24
Lattice="8.95158397 0.0 0.0 0.0 8.95158397 0.0 0.0 0.0 6.32897243" Properties=species:S:1:pos:R:3:forces:R:3 config_id=t-FAPI3_all_rattle_06 phase=t-FAPI3 mode=all_rattle seed=2204627086 source=t-FAPI3/CONTCAR energy=-111.74340197 stress="-0.006236195435813465 -0.005364714537969122 -0.01170044565413746 -0.005364714537969122 -0.008456317670666638 0.0006047855757102307 -0.01170044565413746 0.0006047855757102307 -0.018552805760676847" pbc="T T T"
C        4.37876057       4.43161923       3.65389300       6.12665371       5.94251650      -1.46922401
C        8.88968592       8.91727998       3.54182904       3.58605168      -1.09355014       3.46643563
N        5.24971568       5.32715145       3.01887143      -3.28941934      -3.62267258       4.60367511
N        3.62878317       3.65388798       3.07316060      -2.15262484      -1.89803669      -6.53588823
N        0.86767677       8.11170671       2.97624846      -3.12483985       2.40864202       2.07101564
N        8.17322629       0.87335082       3.00086234      -1.71457036       1.05299161       1.85646617
H        4.48475825       4.41854965       4.68673744      -0.04519412       0.01463683       2.05592395
H        5.84438023       5.90381293       3.51386726       1.30658931       1.21217150       2.27081474
H        5.38271652       5.53576059       2.11996514      -0.20394470       0.23064790      -5.12475099
H        3.52721644       3.59401997       1.95333228       0.05524659      -0.01270723       3.05638459
H        3.07956465       3.10593082       3.64684562      -1.91215968      -2.00815871       1.11841643
H        0.01662936       0.09784618       4.68936383      -0.23366440      -0.80407974      -1.60894271
H        1.44103342       7.52282837       3.51222692       0.81750795      -0.94743608       1.05031511
H        0.88093451       8.03694782       2.01947137       0.38030827      -0.45805217      -3.02925968
H        8.09463344       0.91272320       2.03956896      -0.55359125       0.58377705      -2.76887561
H        7.56094797       1.47361477       3.62173827       0.71212830      -0.69811068      -0.94928755
Pb       8.92688413       4.52436793       6.31098315       0.20949652      -0.09285162       0.00305066
Pb       4.51417808       8.94786298       0.00823893       0.06104818       0.04743226      -0.09505136
I        8.88155251       4.49034950       3.14432356       0.09644153      -0.03439716      -0.00600574
I        4.36525219       8.84701470       3.09060856       0.16900197       0.15944651       0.16295253
I        1.98614120       1.79250134       6.29288792      -0.19556051       0.39697666       0.01757865
I        2.57981213       6.55059441       0.07188713      -0.22794534      -0.47808358      -0.13164215
I        6.48076257       2.52860334       6.17425133       0.05349925       0.00674389       0.00045108
I        6.98923053       6.91857532       0.00690409       0.07954113       0.09215365      -0.01455226
24
Lattice="8.95158397 0.0 0.0 0.0 8.95158397 0.0 0.0 0.0 6.32897243" Properties=species:S:1:pos:R:3:forces:R:3 config_id=t-FAPI3_all_rattle_07 phase=t-FAPI3 mode=all_rattle seed=3682180487 source=t-FAPI3/CONTCAR energy=-111.32766733 stress="0.0013234226067668257 0.01666194129500557 -0.003404516798701249 0.01666194129500557 0.000624796078662141 0.005530964979113994 -0.003404516798701249 0.005530964979113994 -0.01168098932229782" pbc="T T T"
C        4.49633632       4.52023946       3.69885408      -0.45333822      -1.36423640     -10.30469432
C        0.04769914       0.03363414       3.62387038       0.70533547      -1.33685723       1.74071605
N        5.40397009       5.26368722       2.92432747      -0.00137503      -0.81148040      12.48411800
N        3.63383366       3.64647276       2.94016541       1.31031307       1.49686220       8.64553203
N        0.86109314       8.16001429       3.02992688      -0.19572690       0.05981083      -3.40585588
N        8.21712656       0.85934606       3.04854203       0.93978775      -1.02045892      -4.55775487
H        4.47006646       4.43909353       4.69445771       0.18187404       0.07018929       3.90334583
H        5.94783467       6.00762168       3.53099821      -1.09524478      -1.65057695      -1.77305014
H        5.27679458       5.41015519       2.04628507      -1.01684817       1.20648067      -7.43711714
H        3.61718541       3.64609769       1.99083435      -0.21172952      -0.13476370      -3.55853880
H        3.00122737       3.01488453       3.56731423       1.21758054       1.27962820      -1.81399921
H        8.90115549       8.94974809       4.72267467       0.45012836      -0.08414225      -0.30344763
H        1.45430137       7.55058526       3.51984289       0.86397491      -0.94854906       1.22839503
H        0.95585273       8.02045453       1.95274571      -0.33643034       0.55436018       2.08702616
H        8.09063915       0.89260174       2.01579183       0.18794346       0.08355357       0.74731420
H        7.63929796       1.40636474       3.54443234      -2.71761208       2.54553037       2.40236269
Pb       8.93990439       4.43775697       0.04875385       0.08813131       0.21125558      -0.29438723
Pb       4.46100522       0.14217684       6.25259483      -0.06858412      -0.62568415       0.03402281
I        0.00483332       4.45705927       3.01762178       0.03008737      -0.01627040       0.38429599
I        4.46255662       0.04508036       3.11698025       0.07331906      -0.06996906      -0.00547429
I        1.93019872       1.87931631       6.22859683      -0.08742608       0.13339704      -0.01424233
I        2.51075800       6.47190596       0.02975301      -0.06012691      -0.19312802      -0.05431894
I        6.37805621       2.43796989       6.30737209       0.34979578       0.45968559      -0.02431949
I        7.06819237       6.94917094       0.00227128      -0.15382896       0.15536302      -0.10992853
24
Lattice="8.95158397 0.0 0.0 0.0 8.95158397 0.0 0.0 0.0 6.32897243" Properties=species:S:1:pos:R:3:forces:R:3 config_id=t-FAPI3_all_rattle_08 phase=t-FAPI3 mode=all_rattle seed=3545552176 source=t-FAPI3/CONTCAR energy=-112.53508526 stress="-0.008715689112369801 -0.012669722598913111 -0.0026065487698321054 -0.012669722598913111 -0.00666394665319036 -0.005862743700073345 -0.0026065487698321054 -0.005862743700073345 5.211190758626254e-05" pbc="T T T"
C        4.48830925       4.41047756       3.52731753       2.87198091       4.10136759       5.82782245
C        0.00432514       8.94746015       3.63896111      -1.10406158       1.65468642      -3.35654696
N        5.26871613       5.32467374       3.02676898      -2.51987205      -2.76854954      -4.14595372
N        3.67029229       3.63613251       3.03769133      -2.63641192      -2.55205262      -6.06356206
N        0.84516147       8.15750140       3.01879707       0.61294905      -0.92904697      -0.11082345
N        8.14124523       0.88305693       3.00477884       0.96411517      -1.59021420      -1.10908119
H        4.48968368       4.51715520       4.65817371      -0.06128394      -0.62306883      -0.97515019
H        5.84264345       5.85361576       3.52686128       2.99776029       2.70850170       3.24120648
H        5.40512440       5.41341231       2.03513988       0.04027440       0.10876151      -0.78619521
H        3.54999124       3.58970879       1.95018102      -0.04063464      -0.24413770       2.23435651
H        3.04342853       3.10879542       3.59888847      -0.71264669      -0.76668159       0.63024797
H        8.93328622       0.03517883       4.67720683       0.04967065      -0.16893910       1.97327297
H        1.44102894       7.48660802       3.53340689      -0.43970715       0.53576835       0.05619022
H        0.95187707       8.05340799       1.99841975      -0.32227588       0.33469174       0.34754772
H        7.98722267       0.91612014       1.94067921       0.41198546      -0.08852322       1.89053335
H        7.49079280       1.42335753       3.55508451      -0.18825733       0.20186676       0.28414282
Pb       8.95069382       4.50401687       6.22618909       0.08349396      -0.12970596       0.07480730
Pb       4.50980371       8.94004681       0.00140123      -0.05210708       0.02464019      -0.09828357
I        8.92421960       4.47556050       3.12316765       0.06069893       0.03244369      -0.06855403
I        4.45001617       0.00244888       3.08044835       0.03635701      -0.00980183       0.10213393
I        1.97622741       1.91410154       6.25789915       0.00489354       0.05709015       0.00684646
I        2.54017424       6.37721324       6.23568692       0.11681053       0.10222963       0.04273628
I        6.46744852       2.53477886       6.29756497      -0.12139670      -0.11307281      -0.00465849
I        7.03881004       6.97197027       6.28455222      -0.05233494       0.12174665       0.00696441
24
Lattice="8.95158397 0.0 0.0 0.0 8.95158397 0.0 0.0 0.0 6.32897243" Properties=species:S:1:pos:R:3:forces:R:3 config_id=t-FAPI3_all_rattle_09 phase=t-FAPI3 mode=all_rattle seed=2303418162 source=t-FAPI3/CONTCAR energy=-111.84073514 stress="-0.01683437152299258 0.01915619444295414 -6.0907617008712756e-05 0.01915619444295414 -0.013045734745251378 -0.0019349994749342932 -6.0907617008712756e-05 -0.0019349994749342932 0.004119641682640636" pbc="T T T"
C        4.50622406       4.52156877       3.58179435      -2.68037264      -2.11280123       0.02232491
C        8.90697393       8.90219978       3.55146427       0.09116356       0.53001158       5.14031894
N        5.34088658       5.37014966       2.99624491      -5.37084047      -5.06425241      -5.59324653
N        3.58617256       3.63085726       2.97263911       3.13407439       2.92666262       2.20048449
N        0.76062558       8.15608141       2.98910868       2.84123480      -2.89520343      -3.75801860
N        8.11324906       0.75626186       3.06198819      -1.71897040       1.56507146      -7.16705099
H        4.42188268       4.51046192       4.72405749       0.33795217       0.10666316      -1.54987327
H        5.90980083       5.79564862       3.57415345       4.23345751       3.32482287       3.15247375
H        5.38052428       5.28212793       1.90516190       0.61546340       0.89012255       2.44851817
H        3.51792461       3.51398358       1.97574526      -0.15761261      -0.14488002      -0.49382601
H        3.01209978       3.09012322       3.61868315      -0.04515800      -0.04730616      -0.21335628
H        0.01408201       8.92879368       4.64296247      -0.06463205      -0.19814376       0.14641383
H        1.38686210       7.70244664       3.58873306       1.42240451      -1.29991867       0.74258774
H        0.89855651       8.04097586       1.97342284      -0.08153723       0.06932057       0.43477647
H        8.03210564       0.90284163       1.98626028      -0.03076839      -0.16874758       2.15210603
H        7.59155326       1.32382532       3.60482485      -2.35478365       2.43886114       2.24437994
Pb       8.92162758       4.53542941       6.26298137       0.15543595      -0.10372336       0.00639931
Pb       4.51134284       0.01240770       6.31446655      -0.22753488       0.06500923      -0.05687197
I        0.04075414       4.44725639       3.09181379      -0.09672325       0.01425922      -0.00376872
I        4.54323599       8.86859133       3.08784603      -0.10048883       0.06990311       0.06349814
I        1.89044339       1.97825387       6.17786859       0.11885326      -0.12676764       0.03619305
I        2.57459228       6.35729830       6.22420148       0.00843859       0.14773575       0.05783692
I        6.45744835       2.52415861       6.27046064      -0.08553214      -0.02218824       0.02424456
I        6.96155608       7.00147746       6.29227869       0.05647642       0.03548924      -0.03654390
24
Lattice="8.95158397 0.0 0.0 0.0 8.95158397 0.0 0.0 0.0 6.32897243" Properties=species:S:1:pos:R:3:forces:R:3 config_id=t-FAPI3_all_rattle_10 phase=t-FAPI3 mode=all_rattle seed=2055787085 source=t-FAPI3/CONTCAR energy=-110.75982008 stress="-0.00955558630131273 0.017919714522899623 -0.009700747600623085 0.017919714522899623 -0.011715118711835844 0.002790069054788694 -0.009700747600623085 0.002790069054788694 -0.012846118912734544" pbc="T T T"
C        4.47414301       4.38516167       3.68026722       1.62327333       3.84373322      -7.42458863
C        8.87546919       8.92861322       3.62003059       7.78186579      -8.41060219       1.66538369
N        5.29217582       5.37541105       2.95431851      -3.01344779      -4.15198851       1.86090799
N        3.58744261       3.69811919       2.96615008       1.33169660       0.52455440       3.34782145
N        0.74520800       8.08014423       3.01947863      -0.82527680       0.77553091      -2.38349156
N        8.19320461       0.79379361       3.15329235      -6.68427682       8.05689203     -11.32670803
H        4.36670297       4.44348115       4.68857183       0.08013135       0.14298597       3.03628223
H        5.86987434       5.98922832       3.47988929       0.73055452       0.50375477       0.63789119
H        5.42054735       5.32007334       1.93117341      -0.14682806      -0.00944464       0.62683743
H        3.61530433       3.53529811       2.01334771       0.18216372      -0.09540123      -2.65547519
H        3.03843319       3.05391218       3.48855745      -0.81906240      -0.79436678       0.49736132
H        8.92135062       8.84144807       4.59994102       0.01015855      -0.40674698       5.04941462
H        1.43025186       7.53329089       3.45260212       0.95836329      -0.89229973       1.56678919
H        0.85828369       8.03669073       2.00256757      -0.26938994       0.25481046       0.06638329
H        8.14062256       0.91708333       1.95580646       0.17622795      -0.28341646       3.86330445
H        7.47535651       1.32663808       3.55296747      -1.11664814       1.00140492       1.35391256
Pb       0.03492801       4.49814230       6.25988056       0.09645344       0.05962572       0.09886315
Pb       4.54293397       0.07583021       6.32457417      -0.15398817      -0.16590870      -0.05030323
I        0.00764591       4.43411762       3.17075671      -0.00874750      -0.06083552      -0.17565994
I        4.45445508       8.94898658       3.10677289       0.03770573       0.07797706       0.01781055
I        1.87850664       1.93092147       6.31891981       0.11547130      -0.19711180      -0.00206079
I        2.56226093       6.34271536       6.17810492       0.11916549       0.19660169       0.09344677
I        6.39173531       2.61820959       6.18853361      -0.08155618      -0.17964428       0.11799883
I        6.98243888       6.93776340       6.12103252      -0.12400925       0.20989567       0.11787864
24
Lattice="8.95158397 0.0 0.0 0.0 8.95158397 0.0 0.0 0.0 6.32897243" Properties=species:S:1:pos:R:3:forces:R:3 config_id=t-FAPI3_all_rattle_11 phase=t-FAPI3 mode=all_rattle seed=1906171184 source=t-FAPI3/CONTCAR energy=-110.93953205 stress="-0.004492170948297987 -0.0024006060443445463 -0.0018445415078671957 -0.0024006060443445463 -0.002306933569005927 0.009019444175127489 -0.0018445415078671957 0.009019444175127489 -0.013071613895815501" pbc="T T T"
C        4.40415881       4.46086790       3.62523345       3.30833760       2.95519193      -1.72630344
C        8.91550792       0.05532240       3.65104597       4.17653017      -4.98243845      -3.69391094
N        5.29878504       5.36967084       2.96387602      -3.03730189      -3.15628834       6.68740313
N        3.62117952       3.60297379       3.04551906       6.28608165       6.49806716      -7.29462491
N        0.82864231       8.00015448       2.98828889      -7.14231846       6.76707145       4.04842653
N        8.14924884       0.84853658       3.00864267      -0.87017630       0.54466029      -3.25648356
H        4.44936485       4.48330747       4.72372541      -0.07299264       0.05043999      -0.33422618
H        5.87563021       5.87061482       3.66319981      -0.18258325      -0.02310727      -1.00064336
H        5.38337160       5.45521737       2.01792299       0.39593045       0.39603608      -3.27129882
H        3.53877652       3.56759677       2.00955723      -0.16658711      -0.25348200       0.78220758
H        3.12509169       3.11706471       3.56101900      -6.60910251      -6.50137117       6.22443060
H        0.01919918       0.00781572       4.69727834      -0.10322048       0.27353137       1.55325186
H        1.41781453       7.53503555       3.51965049       3.61909467      -2.88806273       3.23113409
H        0.86815013       7.99997142       2.06222940       0.42145880      -0.17983095      -5.10260896
H        7.96313476       0.93758246       1.91828597       0.73357991      -0.43640816       2.54583057
H        7.58774114       1.45465397       3.55501375      -0.91815551       0.99756347       0.68993171
Pb       8.92666339       4.45246541       0.02867708       0.27543473       0.16784819      -0.05964817
Pb       4.55487672       0.07073837       6.26402857      -0.33224068      -0.35354974       0.03319290
I        0.02225113       4.48892709       3.13709518      -0.03505871      -0.11626256       0.06239695
I        4.44805962       8.91534590       3.13078115       0.06803060       0.10705894      -0.01398085
I        1.99948165       1.96489076       6.31390682      -0.10933348       0.04629007      -0.00779417
I        2.51406686       6.47574458       6.31054347      -0.08385015      -0.13843564      -0.03433476
I        6.38224197       2.52439027       6.21971658       0.24799534       0.14768127       0.07109933
I        6.90290996       6.90061379       0.04119838       0.13044726       0.07779680      -0.13344713
24
Lattice="8.95158397 0.0 0.0 0.0 8.95158397 0.0 0.0 0.0 6.32897243" Properties=species:S:1:pos:R:3:forces:R:3 config_id=t-FAPI3_all_rattle_12 phase=t-FAPI3 mode=all_rattle seed=3997102086 source=t-FAPI3/CONTCAR energy=-111.58280723 stress="-0.008427826030352222 0.0054845836569580786 0.009787048135910486 0.0054845836569580786 -0.007011416833926129 -0.004967090866690046 0.009787048135910486 -0.004967090866690046 -0.004925445845077707" pbc="T T T"
C        4.46769698       4.43941740       3.73801953       1.14103173       1.74954895     -10.68664390
C        8.92742803       8.92258281       3.57313145      -3.55171661       3.75672869       3.01514065
N        5.27851230       5.28484134       3.02966442       0.19492070      -0.34445449       2.42357436
N        3.57484343       3.72285000       3.08235615       1.72126794       0.71610357      -3.57293272
N        0.80496430       8.16946045       3.05284782       4.25329678      -4.57170524      -4.30699933
N        8.10804426       0.84489588       2.99994394       4.25918703      -3.95186340      -5.95259663
H        4.45581205       4.50945782       4.68364428      -0.02136163       0.27876740       7.21340341
H        5.97621370       5.86512329       3.51515357      -0.48296342      -0.38004049       0.35705788
H        5.46611396       5.37717540       2.04204606      -0.65931981      -0.64830342      -0.65513833
H        3.53568455       3.41637471       2.01207128       0.42643641       1.23120005       2.51497412
H        3.11266501       3.10510933       3.62639475      -2.37443397      -2.70583014       2.31012914
H        8.81580169       0.04554987       4.66390434       0.46304052      -0.43713800      -0.02470292
H        1.45445229       7.48418107       3.55927549      -1.26682979       1.32058727      -0.40413245
H        0.85981996       8.03512877       1.96498050      -0.01042808       0.37050939       2.22720492
H        7.96338979       0.90035515       1.94867656       0.26450477       0.01242734       1.51122361
H        7.53188021       1.31621531       3.51790293      -4.30791717       3.53609222       3.89192939
Pb       8.93881292       4.52096356       6.18086694       0.14646214      -0.28230338       0.11081461
Pb       4.54819786       8.88659646       6.29880709      -0.11859658       0.25107366      -0.05420193
I        8.91136540       4.53257457       3.11973316       0.02551655       0.01953389      -0.10704408
I        4.51973513       8.94747842       3.09625464      -0.05290023       0.02335317       0.04166077
I        1.94920741       1.95799419       6.19582452       0.12071485       0.02734972       0.12208407
I        2.54463052       6.53315816       6.28095331      -0.22595880      -0.26421147      -0.01696766
I        6.41906861       2.50059070       6.22970990       0.12787231       0.18004190       0.02945199
I        7.07709910       7.01182621       0.04512792      -0.07182564       0.11253280       0.01271105
24
Lattice="8.95158397 0.0 0.0 0.0 8.95158397 0.0 0.0 0.0 6.32897243" Properties=species:S:1:pos:R:3:forces:R:3 config_id=t-FAPI3_all_rattle_13 phase=t-FAPI3 mode=all_rattle seed=2994406834 source=t-FAPI3/CONTCAR energy=-112.81334263 stress="0.0041813792518423445 0.001447997942225372 -0.0010461390762044006 0.001447997942225372 0.005443180899522461 -0.0024080197463333254 -0.0010461390762044006 -0.0024080197463333254 0.0010222647919941488" pbc="T T T"
C        4.46050823       4.44273361       3.63160761       3.22163767       3.61942365      -0.18736832
C        8.88777914       0.01613926       3.58340432       1.25384584      -0.89017270      -1.67243256
N        5.35983636       5.30174801       3.04470623      -0.75552308      -0.55151585       1.92660448
N        3.64520897       3.67811777       3.00339697      -1.57416286      -1.81440647       0.58452973
N        0.77903952       8.07723272       3.01704742      -1.51737492       1.76958463      -0.06181658
N        8.09540542       0.86568916       2.89686460       1.80557673      -2.00394968       4.33881118
H        4.48870250       4.54776541       4.72308384      -0.43447478      -0.49873132      -0.16509863
H        5.92363022       5.98286518       3.66323000      -1.08061165      -1.40721755      -1.15484405
H        5.46049540       5.35679479       2.03434142       0.12151337       0.17681669      -0.07564058
H        3.62715506       3.59182441       1.97737472      -0.20796004      -0.15268175       0.46290350
H        3.03816384       3.07535212       3.63591903       0.63065385       0.63242111      -1.40403784
H        0.01714864       0.02119726       4.68525291      -0.68804658       0.29895444      -0.43724995
H        1.40489238       7.47448498       3.50442381       0.36572709      -0.34353473       1.20422701
H        0.96299144       8.03981385       2.02961038      -0.25121846       0.10358632      -0.82213723
H        7.99526799       0.98586462       1.95080683      -0.08051934       0.02452560      -3.05874579
H        7.47966258       1.35826922       3.49530920      -0.92964029       0.98903277       0.50236040
Pb       0.01777892       4.37320719       6.30933268      -0.06644284       0.31942743      -0.01062645
Pb       4.46555316       0.02678180       6.20362814       0.06050868      -0.19571646       0.03635501
I        8.91235240       4.46848463       3.14590606       0.07431365      -0.01121276      -0.03760668
I        4.41399902       8.89867975       3.06150440       0.00547541       0.08010882       0.00599696
I        1.88365935       1.89361610       6.27161188      -0.01892122       0.00878917      -0.01292051
I        2.55009323       6.43644892       6.25598387      -0.16871669      -0.14091877       0.03238108
I        6.34356299       2.55923619       6.21617805       0.08994010       0.05977069       0.05329861
I        6.91621819       6.99361654       6.25795535       0.14442036      -0.07238329      -0.04694278
24
Lattice="8.95158397 0.0 0.0 0.0 8.95158397 0.0 0.0 0.0 6.32897243" Properties=species:S:1:pos:R:3:forces:R:3 config_id=t-FAPI3_all_rattle_14 phase=t-FAPI3 mode=all_rattle seed=442853200 source=t-FAPI3/CONTCAR energy=-112.71324547 stress="-0.0024072442513074525 -0.005999284813680887 -0.009694926719280213 -0.005999284813680887 -0.0017813901557088556 -0.0005403615798411232 -0.009694926719280213 -0.0005403615798411232 -0.005013123182380169" pbc="T T T"
C        4.43706761       4.46831186       3.58417190       3.03359351       3.20092989       3.92899591
C        0.00067558       0.01193819       3.63337959       1.90596690      -2.35145893      -4.33537684
N        5.27142971       5.34965671       3.04427251      -1.95962600      -2.06242726      -2.68811047
N        3.65163684       3.68082876       3.01371984      -2.83058685      -2.96731643      -0.44952274
N        0.84811872       8.06531664       2.97009373      -3.43629406       3.67221886       4.07895857
N        8.13918091       0.79961411       2.97295759      -1.10901950       1.36561680       3.58195643
H        4.44766315       4.48144983       4.72541170      -0.09969570      -0.14271578      -1.35121252
H        5.88571668       5.88832060       3.56599971       1.35091722       1.21691173       1.48964391
H        5.37545894       5.38609315       2.01107656       0.06092496       0.20024339       0.71588639
H        3.57706155       3.59738272       2.02081507      -0.18989954      -0.17031520      -0.98995061
H        3.05254930       3.03724397       3.58751169       0.61284179       0.68565177      -0.66014152
H        0.02040505       8.94519191       4.68100117      -0.08731653       0.10319227       1.53822127
H        1.39160572       7.53343743       3.58675658       1.32715768      -1.29489954       0.53090863
H        0.86769127       8.06050087       2.00841459       0.44188864      -0.43050275      -2.70883100
H        8.06316128       0.92721205       1.98844162      -0.00909310      -0.00854361      -1.08026908
H        7.53983092       1.43219400       3.61622782       0.94182967      -1.01851976      -1.54047872
Pb       8.92263965       4.43015216       6.29497813       0.03505317       0.14109027      -0.08485392
Pb       4.45388236       8.93980351       6.27491294       0.00829520      -0.11074425       0.01081561
I        8.91790453       4.49609624       3.04685992       0.01560149      -0.06855649       0.13685828
I        4.52648042       0.03077116       3.11469030      -0.03208015       0.03853883      -0.00085275
I        1.92787113       1.94697694       6.30019928       0.05674356      -0.05461718      -0.04351162
I        2.51184329       6.43618225       6.24819873      -0.05235028      -0.07038549      -0.01410554
I        6.43664908       2.46968867       6.26629060       0.03031897       0.04191706      -0.04336143
I        6.96423932       6.93925482       6.27030203      -0.01517105       0.08469181      -0.02166624
24
Lattice="8.95158397 0.0 0.0 0.0 8.95158397 0.0 0.0 0.0 6.32897243" Properties=species:S:1:pos:R:3:forces:R:3 config_id=t-FAPI3_all_rattle_15 phase=t-FAPI3 mode=all_rattle seed=2457972471 source=t-FAPI3/CONTCAR energy=-111.97226949 stress="-0.0055890239900821806 -0.006330584810890282 -0.0022096893401379485 -0.006330584810890282 -0.002083647056548037 0.013659379519014886 -0.0022096893401379485 0.013659379519014886 -0.016459081107320576" pbc="T T T"
C        4.49768953       4.52600974       3.60432271      -6.01586559      -6.78898367      -0.52638200
C        8.93147638       0.05731771       3.61795766       4.53831531      -5.18856863      -0.01067207
N        5.29523054       5.22081325       3.02652310       5.99641526       6.13580733      -4.09312224
N        3.70195503       3.59993929       2.98089931      -0.05307717       0.51856987       4.44328946
N        0.90725163       8.08689095       2.99047618      -5.43177324       5.63327382       1.58876192
N        8.10746724       0.77911355       2.99401857      -2.12722054       2.50287328       1.93319715
H        4.45861649       4.46793831       4.62880810      -0.03483979       0.16774081       2.59853948
H        5.89682407       5.85067749       3.60254636      -0.34624474      -0.36113246      -0.57668107
H        5.40617021       5.36462197       1.97707181      -0.24181645      -0.39957071       1.44546075
H        3.53546049       3.53327640       2.02758505      -0.18396493      -0.01504348      -2.36781323
H        3.06052355       3.02970773       3.60270547       0.91323177       0.87057803      -0.92096457
H        8.91324344       8.93260652       4.71867830       0.01805110       0.31534769      -0.44751494
H        1.45244006       7.52282792       3.51865247       2.09558137      -2.13751861       2.21401035
H        0.92303050       8.03852044       2.01962675       0.24761944      -0.25066132      -2.14878224
H        8.06674755       0.94014306       2.04484580       0.11404040       0.07833379      -3.03177901
H        7.52450795       1.48485232       3.50657882       0.50122289      -0.84862467      -0.10038158
Pb       0.01941992       4.52610741       6.31074493       0.04233207      -0.11901248      -0.08991203
Pb       4.51368467       0.01572059       0.00890986      -0.22433128       0.05326555      -0.09241476
I        0.04675206       4.49533831       3.05611212      -0.10152684      -0.06471804       0.12403903
I        4.46855517       0.07163693       3.07545447       0.07171198      -0.11984814       0.10890188
I        1.91930276       1.95449529       6.21426177       0.01266363       0.00248466       0.00039634
I        2.52926790       6.39659575       6.29137061       0.10961740       0.03863367      -0.03212114
I        6.46085487       2.47271296       6.24799101       0.04800498       0.11132081      -0.03137963
I        6.97187565       7.02892409       6.21539642       0.05185296      -0.13454708       0.01332412
24
Lattice="8.95158397 0.0 0.0 0.0 8.95158397 0.0 0.0 0.0 6.32897243" Properties=species:S:1:pos:R:3:forces:R:3 config_id=t-FAPI3_all_rattle_16 phase=t-FAPI3 mode=all_rattle seed=461500476 source=t-FAPI3/CONTCAR energy=-112.63647017 stress="-0.01099082686726969 0.006020825965606301 -0.001626855139540431 0.006020825965606301 -0.01067249793687665 0.0029684707842168013 -0.001626855139540431 0.0029684707842168013 0.0015652863095379404" pbc="T T T"
C        4.48523770       4.43939646       3.60078304      -1.17008497      -0.32400562       1.30465752
C        8.94662766       0.01800924       3.55818393       1.82008925      -1.72849457       6.37487482
N        5.28495824       5.29100477       3.06203211       0.10162018      -0.06012136      -4.55557758
N        3.61408807       3.64700743       2.98904305       1.49609769       1.23603241       1.67466859
N        0.81331371       8.16617360       3.03856998       2.48354093      -2.83260251      -3.77912420
N        8.14338233       0.79371565       3.06275172      -4.67604557       4.87501645      -5.48508364
H        4.46542829       4.46635639       4.69327564      -0.08511996      -0.30331501       0.01206430
H        5.90778609       5.90381884       3.52723152       0.64617070       0.58012413       1.06614700
H        5.34361502       5.36779298       1.97802147      -0.00798229      -0.03540252       2.09523856
H        3.61333346       3.56894792       2.01122504      -0.35813548      -0.41064918      -1.74987283
H        3.04698661       3.07810634       3.58312173      -0.59557593      -0.66792206       0.14740976
H        0.01490851       0.01112333       4.66330961      -0.00259381       0.01659716      -0.15240317
H        1.39222517       7.51422545       3.58701316      -0.34899862       0.46394651      -0.09024105
H        0.87253792       8.03072996       1.98319111       0.05799060       0.13866314       1.49705922
H        8.09378805       0.87144234       1.98777936      -0.18706821       0.05944668       1.76771997
H        7.53583171       1.49329688       3.55562614       0.80843242      -0.98724194      -0.14279257
Pb       0.05256818       4.47350512       6.27464156      -0.10987346      -0.02100793       0.00850581
Pb       4.48982028       8.91765872       6.26361642       0.04308423       0.17638618      -0.02380890
I        0.00555508       4.48948934       3.11890217      -0.03346432       0.00380673       0.00736375
I        4.44954245       8.93911996       3.07840554       0.03284774       0.00461620       0.06255562
I        1.93795724       1.95324484       6.25961721      -0.00902658       0.01956900      -0.00351886
I        2.55561098       6.49017659       6.29529787      -0.20958189      -0.26684624      -0.02004928
I        6.41378968       2.49211686       6.25544085       0.16540510       0.17512064       0.01013256
I        6.97698315       7.02118411       0.02893328       0.13827225      -0.11171628      -0.02592539
24
Lattice="8.95158397 0.0 0.0 0.0 8.95158397 0.0 0.0 0.0 6.32897243" Properties=species:S:1:pos:R:3:forces:R:3 config_id=t-FAPI3_all_rattle_17 phase=t-FAPI3 mode=all_rattle seed=4214912556 source=t-FAPI3/CONTCAR energy=-113.20207076 stress="-0.008638804018428979 -0.0024290152093573727 0.002111180700109739 -0.0024290152093573727 -0.007328883424935319 -0.0020758119403460965 0.002111180700109739 -0.0020758119403460965 -0.0007023539948037169" pbc="T T T"
C        4.47686098       4.46166701       3.58121006       1.14229224       1.22258163       3.80586886
C        8.95127058       8.93160985       3.59676541      -0.84171862       1.56454927       1.71959470
N        5.29402584       5.27964423       3.02578008       1.65849420       1.70033997      -0.21117139
N        3.66275972       3.69790265       2.99801139      -2.55769180      -2.73444584      -0.63294864
N        0.84409606       8.14728943       3.03270783       0.54686689      -0.78120019      -2.06943746
N        8.14186522       0.84876753       3.02267907       1.03353976      -1.41497236      -2.16185847
H        4.48722629       4.46122901       4.72068225      -0.09829182      -0.11578764      -1.31946236
H        5.90355074       5.91934527       3.56184929      -0.44991947      -0.53509069      -0.06226315
H        5.36494145       5.38172925       2.03241095       0.06520741       0.07167283      -0.88284972
H        3.55293014       3.53492931       2.00956792       0.15035236       0.21653980      -0.66872480
H        3.09755035       3.05890197       3.56633590       0.08084700       0.17251069      -0.03654643
H        0.01020015       0.01306072       4.69897178      -0.07635934      -0.14322050      -0.30566931
H        1.43051924       7.51956874       3.55874297       0.19927453      -0.22028132       0.40815190
H        0.92255678       8.07286757       2.00376273       0.03829418      -0.02867866       0.50489532
H        8.02606117       0.90356760       1.98681862       0.06435187       0.07058773       0.88504733
H        7.56618116       1.42647895       3.56937090      -0.98549763       0.94297462       0.99856413
Pb       0.02778455       4.49503753       6.28994843      -0.09782220      -0.04594964      -0.01802980
Pb       4.47432768       8.95096040       6.26798057       0.03603326       0.02743378       0.03372744
I        0.00254682       4.48090728       3.10362998       0.00521212       0.02048251       0.03027024
I        4.43888532       0.04284658       3.13471549       0.02113898      -0.02767094      -0.04714537
I        1.98197083       1.97348285       6.24404205      -0.03723375       0.01726680       0.01979897
I        2.52563436       6.39937862       6.31445345       0.08094312       0.08243559      -0.01140923
I        6.45563959       2.50695760       6.27969562      -0.02901881      -0.01404714       0.00615063
I        6.98854976       7.01623701       6.25248724       0.05070553      -0.04803028       0.01544660
24
Lattice="8.95158397 0.0 0.0 0.0 8.95158397 0.0 0.0 0.0 6.32897243" Properties=species:S:1:pos:R:3:forces:R:3 config_id=t-FAPI3_cage_rattle_01 phase=t-FAPI3 mode=cage_rattle seed=2646302049 source=t-FAPI3/CONTCAR energy=-113.49991689 stress="-0.0008717729630223799 -2.8634071552668613e-05 -4.7650071164988005e-05 -2.8634071552668613e-05 -0.0009532960911871022 -1.5776225711856302e-05 -4.7650071164988005e-05 -1.5776225711856302e-05 0.0016557378728166748" pbc="T T T"
C        4.47580863       4.47581213       3.61395769      -0.00553032       0.00301821      -0.00189642
C        0.00000662       8.95157287       3.61395307       0.01512483      -0.01635918      -0.00186496
N        5.30254327       5.30254703       3.01626364       0.00787920      -0.00141112      -0.00481840
N        3.64903040       3.64903389       3.01626877       0.00907754      -0.01519419       0.00022118
N        0.82676525       8.12481523       3.01626668       0.00207545       0.00875452       0.00752553
N        8.12482239       0.82675782       3.01626820      -0.00823134       0.00707903      -0.01226934
H        4.47579449       4.47579807       4.70497829      -0.00738730       0.00934811      -0.00355847
H        5.90092282       5.90092640       3.58290572       0.00102362      -0.00184379       0.00132413
H        5.38933711       5.38934016       2.00382742      -0.00466161      -0.00030581      -0.00183603
H        3.56224775       3.56225070       2.00383501      -0.00619855       0.00958226       0.00366674
H        3.05066696       3.05067028       3.58291604      -0.00332655       0.00712603      -0.00682165
H        0.00000349       8.95157627       4.70497583       0.00297354      -0.00222062      -0.00333735
H        1.42512583       7.52645429       3.58289566      -0.00177020      -0.00627524       0.00691672
H        0.91354602       8.03803589       2.00382147       0.00517686      -0.00498477      -0.01299801
H        8.03803678       0.91354495       2.00382628       0.01449346      -0.00313485       0.01584189
H        7.52645591       1.42512386       3.58291357       0.00615103      -0.00155208      -0.01247929
Pb       8.94095898       4.44566391       6.30266182       0.15911328       0.05591202      -0.02824562
Pb       4.52005981       0.01957076       6.27816452      -0.09347596      -0.11255983       0.03221815
I        0.02084699       4.45801862       3.10236722      -0.01350283       0.00209337       0.04259235
I        4.51386979       0.00034204       3.14219222      -0.01727788      -0.00075352      -0.04345973
I        1.94523514       1.92657360       6.27473858       0.07386760      -0.06051664       0.00675661
I        2.50933684       6.42345820       6.28482468       0.08447233       0.06686478      -0.00826727
I        6.43252302       2.55562351       6.25353893      -0.09597967      -0.09494695       0.01979215
I        7.03368553       6.94670272       6.26335852      -0.12408652       0.15228026       0.00499711
24
Lattice="8.95158397 0.0 0.0 0.0 8.95158397 0.0 0.0 0.0 6.32897243" Properties=species:S:1:pos:R:3:forces:R:3 config_id=t-FAPI3_cage_rattle_02 phase=t-FAPI3 mode=cage_rattle seed=2497439315 source=t-FAPI3/CONTCAR energy=-113.49865494 stress="-0.0009056551575914745 0.00019017836488455144 8.720258939381973e-05 0.00019017836488455144 -0.0007740043163161354 -5.654582573721701e-06 8.720258939381973e-05 -5.654582573721701e-06 0.001488672259372417" pbc="T T T"
C        4.47580863       4.47581213       3.61395769      -0.00895181       0.00533666      -0.00640843
C        0.00000662       8.95157287       3.61395307      -0.03005854       0.00901869      -0.00101574
N        5.30254327       5.30254703       3.01626364       0.00678469       0.01889801      -0.00770977
N        3.64903040       3.64903389       3.01626877      -0.00616206       0.00741950      -0.01969210
N        0.82676525       8.12481523       3.01626668       0.02540844      -0.03450179      -0.00620727
N        8.12482239       0.82675782       3.01626820       0.00491713      -0.02087509      -0.00129776
H        4.47579449       4.47579807       4.70497829      -0.00421184       0.00174229      -0.00884992
H        5.90092282       5.90092640       3.58290572      -0.00222380      -0.00328318       0.00443588
H        5.38933711       5.38934016       2.00382742      -0.00167180      -0.00242814      -0.00593962
H        3.56224775       3.56225070       2.00383501       0.01522774       0.01612843       0.00739127
H        3.05066696       3.05067028       3.58291604       0.00235874       0.00048928       0.00451288
H        0.00000349       8.95157627       4.70497583      -0.00772415      -0.00639244      -0.00684768
H        1.42512583       7.52645429       3.58289566      -0.00309153       0.00311370      -0.01000913
H        0.91354602       8.03803589       2.00382147      -0.00669514      -0.00842316       0.00412384
H        8.03803678       0.91354495       2.00382628      -0.00330435      -0.01002833       0.01377900
H        7.52645591       1.42512386       3.58291357      -0.00308773       0.00228294      -0.00935240
Pb       0.01454910       4.45247741       6.32793834      -0.07958806       0.07629341      -0.05712152
Pb       4.45605679       0.03317117       6.31938575       0.08811980      -0.15442205      -0.02832921
I        8.93970683       4.40673821       3.09542023       0.00569354       0.03895320       0.07454344
I        4.47971555       0.03788266       3.11216878      -0.00745087      -0.04331034       0.03383381
I        1.97632767       1.94830670       6.22066909      -0.08171660      -0.00480609       0.02056942
I        2.52693145       6.36359529       6.29537945       0.05280179       0.09044272      -0.00704622
I        6.36847372       2.54240202       6.25469479       0.05739538      -0.00244689       0.01917899
I        7.01220110       6.98885743       6.27337171      -0.01276896       0.02079866      -0.00654176
24
Lattice="8.95158397 0.0 0.0 0.0 8.95158397 0.0 0.0 0.0 6.32897243" Properties=species:S:1:pos:R:3:forces:R:3 config_id=t-FAPI3_cage_rattle_03 phase=t-FAPI3 mode=cage_rattle seed=4180180312 source=t-FAPI3/CONTCAR energy=-113.47013516 stress="-0.0012253266678050382 -0.00021005154215267404 9.867559415581755e-05 -0.00021005154215267404 -0.0010114972962161951 0.00012906354849738676 9.867559415581755e-05 0.00012906354849738676 0.0010938757046179463" pbc="T T T"
C        4.47580863       4.47581213       3.61395769      -0.01447598      -0.02172113      -0.01198644
C        0.00000662       8.95157287       3.61395307      -0.00848534       0.00331026       0.00236480
N        5.30254327       5.30254703       3.01626364       0.01250402       0.03309945      -0.00895147
N        3.64903040       3.64903389       3.01626877       0.00534876       0.00890221      -0.03387474
N        0.82676525       8.12481523       3.01626668      -0.01991172      -0.01231297      -0.01633718
N        8.12482239       0.82675782       3.01626820      -0.03269856      -0.00683426      -0.00646678
H        4.47579449       4.47579807       4.70497829       0.00597939      -0.01408060      -0.00373814
H        5.90092282       5.90092640       3.58290572      -0.00252567      -0.01383265      -0.01579545
H        5.38933711       5.38934016       2.00382742       0.00366289      -0.02386280       0.01480470
H        3.56224775       3.56225070       2.00383501       0.01398054       0.00047215      -0.00282780
H        3.05066696       3.05067028       3.58291604      -0.01817589      -0.01398859       0.02958672
H        0.00000349       8.95157627       4.70497583       0.00275870       0.00600421      -0.01362191
H        1.42512583       7.52645429       3.58289566      -0.00201397       0.00936059      -0.01260811
H        0.91354602       8.03803589       2.00382147      -0.00677016       0.01202138       0.01506667
H        8.03803678       0.91354495       2.00382628       0.00270446       0.01484876      -0.01038791
H        7.52645591       1.42512386       3.58291357       0.01279915       0.01233832       0.00408551
Pb       0.01652597       4.57080284       6.23258503      -0.07671094      -0.26881685       0.15840762
Pb       4.45859823       8.92681995       6.29920145       0.03982103       0.24659326      -0.01867657
I        8.93880899       4.48012509       3.18954584       0.01137946       0.01736109      -0.21825081
I        4.39960344       8.91985078       3.11377374       0.06685826       0.02305147      -0.00028871
I        1.92282593       1.98190987       6.19523586       0.12699139      -0.07740225       0.06857715
I        2.52635533       6.43206667       6.24992799       0.14581203       0.08781021       0.03310335
I        6.46311193       2.59082329       6.29158871      -0.14607200      -0.15542568       0.01401621
I        7.03772198       7.03127451       6.26408673      -0.12275985       0.13310443       0.03379931
24
Lattice="8.95158397 0.0 0.0 0.0 8.95158397 0.0 0.0 0.0 6.32897243" Properties=species:S:1:pos:R:3:forces:R:3 config_id=t-FAPI3_cage_rattle_04 phase=t-FAPI3 mode=cage_rattle seed=3254529144 source=t-FAPI3/CONTCAR energy=-113.47618242 stress="-0.001521391991591343 0.00023490361494107756 6.243782907657817e-05 0.00023490361494107756 -0.0006790721234321484 -2.4543455128165107e-05 6.243782907657817e-05 -2.4543455128165107e-05 0.0007831665895695487" pbc="T T T"
C        4.47580863       4.47581213       3.61395769       0.01337475      -0.01713162      -0.00612394
C        0.00000662       8.95157287       3.61395307      -0.03072827       0.02192962       0.00982210
N        5.30254327       5.30254703       3.01626364       0.01550231       0.00815731      -0.00798613
N        3.64903040       3.64903389       3.01626877       0.00200629      -0.00048841       0.00603141
N        0.82676525       8.12481523       3.01626668       0.02789334      -0.03346884      -0.00938186
N        8.12482239       0.82675782       3.01626820       0.02496925      -0.02359396       0.03842863
H        4.47579449       4.47579807       4.70497829       0.00393551      -0.00154705       0.00047239
H        5.90092282       5.90092640       3.58290572      -0.00329135       0.00465702       0.00887795
H        5.38933711       5.38934016       2.00382742      -0.01394746       0.00642047      -0.00724056
H        3.56224775       3.56225070       2.00383501       0.00035378       0.01816667       0.00559939
H        3.05066696       3.05067028       3.58291604       0.00653404       0.00454628      -0.01001541
H        0.00000349       8.95157627       4.70497583      -0.00337434      -0.00356880      -0.00441499
H        1.42512583       7.52645429       3.58289566      -0.00366805       0.00231872      -0.01757312
H        0.91354602       8.03803589       2.00382147      -0.00368009       0.00114095       0.01242046
H        8.03803678       0.91354495       2.00382628      -0.01455628       0.00635807      -0.01434094
H        7.52645591       1.42512386       3.58291357       0.00731335      -0.00997817      -0.01470944
Pb       8.93960711       4.50809539       6.22845253       0.00441694       0.05462421       0.11109124
Pb       4.43973312       0.07474009       6.32500258       0.08466128      -0.22448906      -0.12138673
I        0.01297819       4.45456876       3.16087611      -0.01267340       0.00451515      -0.11856182
I        4.47175169       0.03850085       3.05729912      -0.00194100      -0.04219160       0.17159522
I        1.97457145       1.91190607       6.26723084      -0.24387337       0.18299726       0.00060134
I        2.56136049       6.33469653       6.28873130       0.04127752       0.11899329       0.01691520
I        6.45415524       2.49337724       0.00898050      -0.02198399       0.04426245      -0.04959011
I        6.96796452       7.02670974       6.25954924       0.12147925      -0.12262997      -0.00053027
24
Lattice="8.95158397 0.0 0.0 0.0 8.95158397 0.0 0.0 0.0 6.32897243" Properties=species:S:1:pos:R:3:forces:R:3 config_id=t-FAPI3_cage_rattle_05 phase=t-FAPI3 mode=cage_rattle seed=1532174073 source=t-FAPI3/CONTCAR energy=-113.40279892 stress="-0.0019018923260024144 0.00020139136085938324 0.00018064273703824604 0.00020139136085938324 -0.002319948351352201 2.5330852711940913e-05 0.00018064273703824604 2.5330852711940913e-05 0.001543753889483793" pbc="T T T"
C        4.47580863       4.47581213       3.61395769       0.01734474       0.01087170      -0.00421346
C        0.00000662       8.95157287       3.61395307      -0.02326625       0.03354311      -0.00152186
N        5.30254327       5.30254703       3.01626364      -0.01898751       0.02508653      -0.01126571
N        3.64903040       3.64903389       3.01626877      -0.00196974       0.00501610      -0.00274978
N        0.82676525       8.12481523       3.01626668       0.02842266       0.00046818      -0.00943073
N        8.12482239       0.82675782       3.01626820       0.01061308      -0.01313614       0.00279215
H        4.47579449       4.47579807       4.70497829       0.01271283      -0.00951072      -0.00243251
H        5.90092282       5.90092640       3.58290572       0.02586735      -0.00703436       0.01062239
H        5.38933711       5.38934016       2.00382742       0.01523774      -0.00927173      -0.00165136
H        3.56224775       3.56225070       2.00383501       0.01871897       0.00010141       0.00446227
H        3.05066696       3.05067028       3.58291604      -0.00004858       0.01657081      -0.00846418
H        0.00000349       8.95157627       4.70497583      -0.01516717      -0.00398697      -0.00368118
H        1.42512583       7.52645429       3.58289566      -0.02399064      -0.00725840      -0.02441417
H        0.91354602       8.03803589       2.00382147      -0.02962397      -0.01594001       0.02097946
H        8.03803678       0.91354495       2.00382628      -0.02767016      -0.01200440      -0.01642880
H        7.52645591       1.42512386       3.58291357       0.00144425       0.01854658       0.01655716
Pb       0.11514637       4.45007444       6.31806514      -0.71098162       0.18234479       0.01773240
Pb       4.41102665       0.00282584       6.22472514       0.32799050      -0.00443430      -0.02834034
I        8.94174072       4.48213141       3.16285416      -0.00404653      -0.00231092      -0.05877676
I        4.42331682       0.01864302       3.00438859       0.00182433      -0.01992675       0.11505914
I        1.94456539       2.07411951       6.25442100       0.31874436      -0.50255254      -0.01758308
I        2.46693990       6.35105188       6.26854138       0.40329015       0.38186394      -0.00033319
I        6.43761567       2.52380699       6.26693110      -0.13633238      -0.13657930      -0.01293465
I        7.03986463       7.04194945       6.24936908      -0.19012642       0.06953338       0.01601681
24
Lattice="8.95158397 0.0 0.0 0.0 8.95158397 0.0 0.0 0.0 6.32897243" Properties=species:S:1:pos:R:3:forces:R:3 config_id=t-FAPI3_cage_rattle_06 phase=t-FAPI3 mode=cage_rattle seed=794477069 source=t-FAPI3/CONTCAR energy=-113.49999821 stress="-0.0009434378896661529 0.0001168409322478612 1.6419201015968292e-05 0.0001168409322478612 -0.0010151535722621376 5.232691509263097e-05 1.6419201015968292e-05 5.232691509263097e-05 0.0014151787765245615" pbc="T T T"
C        4.47580863       4.47581213       3.61395769      -0.03369590      -0.02818399      -0.00425862
C        0.00000662       8.95157287       3.61395307       0.00444432       0.00846327      -0.00389061
N        5.30254327       5.30254703       3.01626364       0.04026863       0.02539179      -0.02831726
N        3.64903040       3.64903389       3.01626877       0.03327633       0.01194570       0.00820241
N        0.82676525       8.12481523       3.01626668       0.00510940      -0.00543139       0.00043648
N        8.12482239       0.82675782       3.01626820      -0.00348997       0.00049485      -0.02129833
H        4.47579449       4.47579807       4.70497829      -0.00533754       0.00437494      -0.00614697
H        5.90092282       5.90092640       3.58290572      -0.00128646       0.00021190      -0.00051589
H        5.38933711       5.38934016       2.00382742      -0.00942752      -0.00763063       0.00869315
H        3.56224775       3.56225070       2.00383501      -0.00118268      -0.00003835      -0.00186111
H        3.05066696       3.05067028       3.58291604      -0.00398947       0.00376520      -0.00142532
H        0.00000349       8.95157627       4.70497583       0.00235703       0.00630264      -0.00691592
H        1.42512583       7.52645429       3.58289566      -0.00382724      -0.00041250      -0.00360146
H        0.91354602       8.03803589       2.00382147       0.00444931      -0.00069485      -0.00462515
H        8.03803678       0.91354495       2.00382628       0.01136579      -0.00838083       0.00879828
H        7.52645591       1.42512386       3.58291357      -0.00133356       0.00298390       0.00509244
Pb       0.01429120       4.44715775       6.27606076      -0.01709371       0.03675251       0.09091233
Pb       4.51710005       8.92430769       6.28698774      -0.08417739       0.05218810       0.00783501
I        0.05143840       4.44675582       3.19154523      -0.04700124       0.03550803      -0.14666459
I        4.49172008       0.01379779       3.12346118      -0.01749561      -0.00607001      -0.01661377
I        1.93001862       1.97096746       6.27068329       0.10070466      -0.11179796       0.02318455
I        2.51735254       6.43066100       6.29075930       0.03627237       0.02213482       0.00456921
I        6.41708351       2.54225576       6.22613802      -0.01885467      -0.01943138       0.05132145
I        7.01381454       7.02178377       6.24544847       0.00994512      -0.02244579       0.03708970
24
Lattice="8.95158397 0.0 0.0 0.0 8.95158397 0.0 0.0 0.0 6.32897243" Properties=species:S:1:pos:R:3:forces:R:3 config_id=t-FAPI3_cage_rattle_07 phase=t-FAPI3 mode=cage_rattle seed=3410854411 source=t-FAPI3/CONTCAR energy=-113.50533554 stress="-0.0008719870467853978 0.00021606574175770171 1.2433173559887212e-05 0.00021606574175770171 -0.0010123132299796945 -2.8803141551870538e-05 1.2433173559887212e-05 -2.8803141551870538e-05 0.0016135118728103715" pbc="T T T"
C        4.47580863       4.47581213       3.61395769       0.00245356       0.01333206      -0.00080380
C        0.00000662       8.95157287       3.61395307       0.01076568      -0.01790452      -0.00154642
N        5.30254327       5.30254703       3.01626364      -0.01368083      -0.00304212       0.00421944
N        3.64903040       3.64903389       3.01626877      -0.00979797       0.00166190      -0.01114686
N        0.82676525       8.12481523       3.01626668       0.00052349       0.00908367       0.01081027
N        8.12482239       0.82675782       3.01626820      -0.00332490       0.01334179      -0.00596829
H        4.47579449       4.47579807       4.70497829      -0.00288604       0.00441557      -0.00369795
H        5.90092282       5.90092640       3.58290572       0.00270890      -0.00586586       0.00610778
H        5.38933711       5.38934016       2.00382742      -0.00204363       0.00431882      -0.01269562
H        3.56224775       3.56225070       2.00383501       0.00689793       0.00813098       0.00161367
H        3.05066696       3.05067028       3.58291604       0.00639516       0.00284348      -0.00010712
H        0.00000349       8.95157627       4.70497583      -0.00365538      -0.00613462       0.00061456
H        1.42512583       7.52645429       3.58289566      -0.00176426      -0.00467045      -0.00520020
H        0.91354602       8.03803589       2.00382147       0.00252870      -0.00869688      -0.00126420
H        8.03803678       0.91354495       2.00382628      -0.00500859      -0.00692996       0.00957997
H        7.52645591       1.42512386       3.58291357      -0.00395236       0.00009490      -0.01003284
Pb       8.94784060       4.40915460       6.27898564       0.02454629       0.13182181       0.03210244
Pb       4.47990551       8.93639895       6.24455799       0.03658083      -0.09116272       0.04037375
I        8.93878079       4.48676233       3.14966288       0.01681012      -0.01615200      -0.05799034
I        4.47685561       0.02329641       3.11542908       0.00371093      -0.01707731      -0.03437806
I        1.98787378       1.95624488       6.25318071      -0.02903171      -0.03618592       0.01555429
I        2.54892970       6.40929599       6.28838410      -0.06100660      -0.01689475       0.00616821
I        6.40432625       2.53362840       6.26737944       0.02320594      -0.02204070       0.01945550
I        6.99171129       6.94523081       6.27477339      -0.00097526       0.06371284      -0.00176817
24
Lattice="8.95158397 0.0 0.0 0.0 8.95158397 0.0 0.0 0.0 6.32897243" Properties=species:S:1:pos:R:3:forces:R:3 config_id=t-FAPI3_cage_rattle_08 phase=t-FAPI3 mode=cage_rattle seed=3404292951 source=t-FAPI3/CONTCAR energy=-113.50697063 stress="-0.0008414564739603022 -7.060758379030269e-05 -5.122766050538041e-05 -7.060758379030269e-05 -0.0009402054183313671 2.5640362907984336e-05 -5.122766050538041e-05 2.5640362907984336e-05 0.001716254028614521" pbc="T T T"
C        4.47580863       4.47581213       3.61395769       0.00623407       0.01282115      -0.00069996
C        0.00000662       8.95157287       3.61395307       0.02264782      -0.02238322      -0.00057228
N        5.30254327       5.30254703       3.01626364       0.00681857      -0.01675181       0.00428806
N        3.64903040       3.64903389       3.01626877       0.00465978      -0.02033480       0.00044304
N        0.82676525       8.12481523       3.01626668      -0.02489406       0.01249153       0.01195570
N        8.12482239       0.82675782       3.01626820      -0.02651659       0.01107493      -0.01140477
H        4.47579449       4.47579807       4.70497829      -0.00618614       0.00890212      -0.00122927
H        5.90092282       5.90092640       3.58290572      -0.00478675       0.00108828      -0.00432222
H        5.38933711       5.38934016       2.00382742      -0.00886946       0.00428039       0.00256941
H        3.56224775       3.56225070       2.00383501      -0.00864343       0.00458214      -0.00145183
H        3.05066696       3.05067028       3.58291604      -0.00593051       0.00560736      -0.00469856
H        0.00000349       8.95157627       4.70497583       0.00366110       0.00104717      -0.00184831
H        1.42512583       7.52645429       3.58289566       0.00628060       0.00024686       0.00519620
H        0.91354602       8.03803589       2.00382147       0.00889114      -0.00221015      -0.01185805
H        8.03803678       0.91354495       2.00382628       0.01177215      -0.00507373       0.00976303
H        7.52645591       1.42512386       3.58291357       0.01122238      -0.00054478      -0.00879047
Pb       8.94578012       4.48545415       6.28948888       0.11333820       0.07709954       0.01489556
Pb       4.51430412       0.04524900       6.29452902      -0.10535231      -0.06739335      -0.02151995
I        0.00258584       4.46327982       3.13513136      -0.00442361       0.01704587      -0.02185652
I        4.46773547       8.90822044       3.10104985       0.01278449       0.05014037       0.03922707
I        1.93226215       1.97140089       6.28407299       0.05678684      -0.04080904      -0.00512403
I        2.53359564       6.46959180       6.28255758      -0.02095045      -0.02888981      -0.01234610
I        6.44778914       2.55453482       6.26118572      -0.04916093      -0.01532444       0.01196629
I        6.99722090       7.01547711       6.26693394       0.00061711       0.01328741       0.00741795
24
Lattice="8.95158397 0.0 0.0 0.0 8.95158397 0.0 0.0 0.0 6.32897243" Properties=species:S:1:pos:R:3:forces:R:3 config_id=t-FAPI3_cage_rattle_09 phase=t-FAPI3 mode=cage_rattle seed=1209422841 source=t-FAPI3/CONTCAR energy=-113.45138338 stress="-0.0016496765935083105 0.00036866088440678363 5.023303233560703e-05 0.00036866088440678363 -0.0018390233022678745 0.00029144840458777965 5.023303233560703e-05 0.00029144840458777965 0.001608002779814374" pbc="T T T"
C        4.47580863       4.47581213       3.61395769      -0.07765094      -0.07080584      -0.01602044
C        0.00000662       8.95157287       3.61395307       0.00012066       0.01851829      -0.01098780
N        5.30254327       5.30254703       3.01626364       0.05242565       0.07008458      -0.08545648
N        3.64903040       3.64903389       3.01626877       0.07286857       0.06696767      -0.00764834
N        0.82676525       8.12481523       3.01626668      -0.03069284      -0.01463719      -0.03793361
N        8.12482239       0.82675782       3.01626820      -0.03634624      -0.01621030      -0.01949377
H        4.47579449       4.47579807       4.70497829       0.00380003      -0.01298293      -0.01375553
H        5.90092282       5.90092640       3.58290572       0.00205024      -0.00286652       0.01341434
H        5.38933711       5.38934016       2.00382742      -0.00428839      -0.04435948       0.02391625
H        3.56224775       3.56225070       2.00383501       0.00827761      -0.00987705      -0.02183350
H        3.05066696       3.05067028       3.58291604      -0.01781121      -0.00664418       0.03829804
H        0.00000349       8.95157627       4.70497583       0.01205072       0.01630204      -0.01147190
H        1.42512583       7.52645429       3.58289566       0.01301005      -0.00543935       0.00249001
H        0.91354602       8.03803589       2.00382147      -0.00468302       0.00701554       0.02156412
H        8.03803678       0.91354495       2.00382628       0.00372077       0.01644085       0.00739647
H        7.52645591       1.42512386       3.58291357      -0.00477597       0.02103501       0.00857619
Pb       0.02713628       4.54490018       6.26539069      -0.22776893      -0.23443666      -0.01601859
Pb       4.47631816       8.88998803       6.28890700      -0.00389620       0.31582887       0.00886402
I        0.05505913       4.42511295       3.05642673      -0.06884670       0.07224628       0.03439783
I        4.38879879       0.01424510       3.12596720       0.05307682      -0.01362122      -0.05650164
I        1.95405595       2.11514462       6.20569405       0.17971554      -0.30998746       0.00923596
I        2.49515771       6.42731338       6.19817270       0.09814913       0.13190569       0.03445926
I        6.36567904       2.57752213       6.23960114       0.05123681      -0.08542172       0.03554062
I        6.98264082       7.01644756       6.16056778      -0.07374217       0.09094509       0.05896849
24
Lattice="8.95158397 0.0 0.0 0.0 8.95158397 0.0 0.0 0.0 6.32897243" Properties=species:S:1:pos:R:3:forces:R:3 config_id=t-FAPI3_cage_rattle_10 phase=t-FAPI3 mode=cage_rattle seed=2008487984 source=t-FAPI3/CONTCAR energy=-113.47265745 stress="-0.0017642416218685095 0.00031619806045293656 -3.6356235163957774e-05 0.00031619806045293656 -0.0012843493365747157 0.00021229734324182197 -3.6356235163957774e-05 0.00021229734324182197 0.0014259501919702462" pbc="T T T"
C        4.47580863       4.47581213       3.61395769      -0.03367932      -0.01921676       0.00868461
C        0.00000662       8.95157287       3.61395307       0.00728982      -0.02298448      -0.00306325
N        5.30254327       5.30254703       3.01626364      -0.01019384       0.02086360       0.02889422
N        3.64903040       3.64903389       3.01626877       0.00463995       0.03932113       0.00581837
N        0.82676525       8.12481523       3.01626668      -0.03933410      -0.01365960      -0.01278880
N        8.12482239       0.82675782       3.01626820      -0.01940890      -0.02189973       0.02805803
H        4.47579449       4.47579807       4.70497829      -0.00675421      -0.00732678       0.00175076
H        5.90092282       5.90092640       3.58290572      -0.01744564      -0.02003256      -0.03540359
H        5.38933711       5.38934016       2.00382742      -0.00500753       0.00956713       0.00685434
H        3.56224775       3.56225070       2.00383501      -0.00499342      -0.00932349      -0.02085602
H        3.05066696       3.05067028       3.58291604      -0.00563332      -0.01410403       0.02168055
H        0.00000349       8.95157627       4.70497583       0.01096178       0.00239893       0.00815662
H        1.42512583       7.52645429       3.58289566       0.01765181      -0.00183206       0.02330547
H        0.91354602       8.03803589       2.00382147       0.01147876       0.01717207      -0.00516581
H        8.03803678       0.91354495       2.00382628       0.00234922       0.00826029      -0.00320544
H        7.52645591       1.42512386       3.58291357       0.01411910       0.00276492      -0.01766239
Pb       8.93239437       4.48830021       0.05887141       0.16337766      -0.07392906      -0.08468062
Pb       4.56872276       8.94446764       6.26779842      -0.40236267       0.10317911       0.04071583
I        8.86879892       4.44183621       3.15203320       0.04242048       0.04073195       0.06024854
I        4.41986276       0.01603166       3.13326925       0.04002495      -0.01484074      -0.02852098
I        1.97350890       1.98803123       6.26500076      -0.06381877       0.05338453       0.00990836
I        2.49592710       6.42434996       6.22613815       0.00865789       0.05571762       0.03454875
I        6.43999178       2.49973869       6.31918126       0.00219879       0.07187017      -0.03052413
I        6.93905878       7.03619466       0.02040746       0.28346152      -0.20608216      -0.03675342
24
Lattice="8.95158397 0.0 0.0 0.0 8.95158397 0.0 0.0 0.0 6.32897243" Properties=species:S:1:pos:R:3:forces:R:3 config_id=t-FAPI3_cage_rattle_11 phase=t-FAPI3 mode=cage_rattle seed=156576312 source=t-FAPI3/CONTCAR energy=-113.48109525 stress="-0.0011762193103648116 4.468289517559786e-05 -0.0001838808382142634 4.468289517559786e-05 -0.0014182338267209348 2.5754738562716143e-05 -0.0001838808382142634 2.5754738562716143e-05 0.0013928982429450767" pbc="T T T"
C        4.47580863       4.47581213       3.61395769       0.00828930       0.03559001      -0.01315670
C        0.00000662       8.95157287       3.61395307       0.05278946      -0.03611426      -0.00822751
N        5.30254327       5.30254703       3.01626364      -0.01715112      -0.03447175      -0.05824215
N        3.64903040       3.64903389       3.01626877      -0.01138514      -0.02232309      -0.02328246
N        0.82676525       8.12481523       3.01626668      -0.03448697       0.02244508      -0.01240753
N        8.12482239       0.82675782       3.01626820      -0.03536435       0.02905182      -0.04686106
H        4.47579449       4.47579807       4.70497829      -0.00941604       0.01907167      -0.01319779
H        5.90092282       5.90092640       3.58290572       0.00988362       0.01728934       0.03536005
H        5.38933711       5.38934016       2.00382742      -0.02900275      -0.00769026       0.01039175
H        3.56224775       3.56225070       2.00383501      -0.00837085       0.00672564      -0.00693706
H        3.05066696       3.05067028       3.58291604      -0.00228833       0.00235118       0.00952326
H        0.00000349       8.95157627       4.70497583       0.01219504       0.00380087      -0.00936065
H        1.42512583       7.52645429       3.58289566       0.02216842      -0.01117837       0.02652628
H        0.91354602       8.03803589       2.00382147       0.01428948      -0.00274464      -0.00948382
H        8.03803678       0.91354495       2.00382628       0.01550558      -0.00985453       0.03054704
H        7.52645591       1.42512386       3.58291357      -0.00001966       0.00457036      -0.00819276
Pb       8.91739152       4.45068225       6.32423121       0.21557191       0.13665968      -0.04765897
Pb       4.53614061       0.04411206       6.25329368      -0.17303350      -0.15695658       0.08046780
I        8.91301643       4.47657077       3.09863826       0.02953366      -0.00266754       0.02082416
I        4.47729138       8.90345390       3.14653845       0.00589397       0.06036873      -0.12771537
I        1.98538658       1.99301154       6.25907336      -0.02026585      -0.02601982      -0.00155250
I        2.55306175       6.46733627       6.23072988      -0.11817837      -0.04831073       0.03423765
I        6.40898519       2.56608469       6.20556443       0.04428868       0.00302475       0.05199382
I        6.97423394       6.97294393       6.13514562       0.02855382       0.01738243       0.08640451
24
Lattice="8.95158397 0.0 0.0 0.0 8.95158397 0.0 0.0 0.0 6.32897243" Properties=species:S:1:pos:R:3:forces:R:3 config_id=t-FAPI3_cage_rattle_12 phase=t-FAPI3 mode=cage_rattle seed=4205212233 source=t-FAPI3/CONTCAR energy=-113.47155396 stress="-0.0010959564177907145 6.755289560145853e-05 8.081412393556755e-06 6.755289560145853e-05 -0.0015564961800246487 0.00013059409760674497 8.081412393556755e-06 0.00013059409760674497 0.0011435772225194113" pbc="T T T"
C        4.47580863       4.47581213       3.61395769      -0.01689818      -0.00533109       0.00248443
C        0.00000662       8.95157287       3.61395307       0.05410266      -0.03485890      -0.00237946
N        5.30254327       5.30254703       3.01626364       0.02534896       0.00633163      -0.00326919
N        3.64903040       3.64903389       3.01626877       0.03849363      -0.00216066       0.00762399
N        0.82676525       8.12481523       3.01626668      -0.03026165       0.05039167       0.02469972
N        8.12482239       0.82675782       3.01626820      -0.03600186       0.03546241      -0.03304731
H        4.47579449       4.47579807       4.70497829      -0.01127747       0.01118513      -0.00145431
H        5.90092282       5.90092640       3.58290572       0.00083914      -0.00132291      -0.00744031
H        5.38933711       5.38934016       2.00382742      -0.00257907       0.00699107       0.00248567
H        3.56224775       3.56225070       2.00383501      -0.01677886       0.01174854      -0.00604164
H        3.05066696       3.05067028       3.58291604      -0.00765335       0.01132598      -0.00143923
H        0.00000349       8.95157627       4.70497583       0.00033101      -0.00348178       0.00042335
H        1.42512583       7.52645429       3.58289566       0.00076306      -0.00813564       0.00752096
H        0.91354602       8.03803589       2.00382147      -0.00417819      -0.02191824      -0.01752733
H        8.03803678       0.91354495       2.00382628       0.00800103      -0.01549888       0.01189437
H        7.52645591       1.42512386       3.58291357       0.00704264      -0.00069039      -0.00210815
Pb       8.91986797       4.45538005       6.20259627       0.11175753       0.20756322       0.13529867
Pb       4.46147070       0.05735906       6.28477525       0.00376959      -0.17994036      -0.02430215
I        0.04262288       4.49464608       3.14982211      -0.03110120      -0.01755361      -0.16392698
I        4.44718174       8.93165398       3.09958203       0.03430326       0.02921274       0.02665258
I        1.94968856       2.03358808       6.27524104       0.19546492      -0.23890263       0.00249492
I        2.51040342       6.45940919       6.28390553       0.07154472       0.05159685      -0.00742865
I        6.45750976       2.55000371       6.23493744      -0.13964952      -0.11355256       0.03144715
I        7.07509314       6.99098460       6.28068193      -0.25538279       0.22153843       0.01733891
24
Lattice="8.95158397 0.0 0.0 0.0 8.95158397 0.0 0.0 0.0 6.32897243" Properties=species:S:1:pos:R:3:forces:R:3 config_id=t-FAPI3_cage_rattle_13 phase=t-FAPI3 mode=cage_rattle seed=2137877002 source=t-FAPI3/CONTCAR energy=-113.50191253 stress="-0.0009944702221434387 0.00017079045870945717 0.00010388658643445361 0.00017079045870945717 -0.0009088943635146071 6.304199467694543e-05 0.00010388658643445361 6.304199467694543e-05 0.0017568006944169237" pbc="T T T"
C        4.47580863       4.47581213       3.61395769      -0.01499874      -0.03910239       0.01184383
C        0.00000662       8.95157287       3.61395307       0.01134134       0.00067247      -0.00982797
N        5.30254327       5.30254703       3.01626364       0.04009829      -0.01156815       0.01733301
N        3.64903040       3.64903389       3.01626877       0.04541252      -0.00186452       0.01370876
N        0.82676525       8.12481523       3.01626668      -0.00319086       0.02272565       0.01427843
N        8.12482239       0.82675782       3.01626820      -0.00091751       0.02452459      -0.01555674
H        4.47579449       4.47579807       4.70497829      -0.00647672      -0.00132778      -0.00522917
H        5.90092282       5.90092640       3.58290572      -0.02203648       0.00038945      -0.02685619
H        5.38933711       5.38934016       2.00382742       0.00251630       0.01195565      -0.00130588
H        3.56224775       3.56225070       2.00383501      -0.01184808       0.00385692      -0.00875633
H        3.05066696       3.05067028       3.58291604       0.00178533       0.00478241       0.00012034
H        0.00000349       8.95157627       4.70497583      -0.00288905       0.00147152       0.00643861
H        1.42512583       7.52645429       3.58289566       0.00386277      -0.00281416      -0.01007249
H        0.91354602       8.03803589       2.00382147      -0.00571841      -0.00419049       0.00463853
H        8.03803678       0.91354495       2.00382628       0.00549463      -0.00761774      -0.00106330
H        7.52645591       1.42512386       3.58291357      -0.01045596      -0.00494403       0.01348308
Pb       8.89407139       4.50814328       6.22850816       0.04956748      -0.05419897       0.00778634
Pb       4.42246695       8.94822901       6.30610079       0.01543520      -0.00267905      -0.00192578
I        0.08356330       4.51309216       3.06143282      -0.07278025      -0.03512140       0.05110626
I        4.47978430       8.91096195       3.14887277      -0.00264404       0.02873287      -0.02237903
I        1.97501599       1.96966062       6.28365357      -0.09393237       0.04742598      -0.01294936
I        2.52702750       6.40493872       6.27405151      -0.02321507      -0.00730778      -0.00206756
I        6.41752017       2.49736571       6.23319280       0.04823265       0.03970002       0.01935688
I        6.98430931       7.01607222       0.01357603       0.04735702      -0.01350107      -0.04210426
24
Lattice="8.95158397 0.0 0.0 0.0 8.95158397 0.0 0.0 0.0 6.32897243" Properties=species:S:1:pos:R:3:forces:R:3 config_id=t-FAPI3_cage_rattle_14 phase=t-FAPI3 mode=cage_rattle seed=2621594004 source=t-FAPI3/CONTCAR energy=-113.44917011 stress="-0.0015142861707647258 0.00013697749495958692 4.7159625860894353e-05 0.00013697749495958692 -0.0017886321662645998 4.3194382630202465e-05 4.7159625860894353e-05 4.3194382630202465e-05 0.0007682550375659558" pbc="T T T"
C        4.47580863       4.47581213       3.61395769      -0.00022979      -0.03188005       0.00137339
C        0.00000662       8.95157287       3.61395307      -0.03974382       0.04160897       0.01044983
N        5.30254327       5.30254703       3.01626364       0.01850049       0.01341332       0.00543242
N        3.64903040       3.64903389       3.01626877       0.05250999       0.01555915       0.01957038
N        0.82676525       8.12481523       3.01626668       0.03958732       0.00184142       0.00164168
N        8.12482239       0.82675782       3.01626820       0.04959584      -0.02460311       0.03477563
H        4.47579449       4.47579807       4.70497829       0.00936826      -0.00587973       0.00847790
H        5.90092282       5.90092640       3.58290572       0.00571281       0.00562795       0.01074443
H        5.38933711       5.38934016       2.00382742       0.02171659       0.00111839      -0.02121069
H        3.56224775       3.56225070       2.00383501       0.00325487       0.00467073       0.00754640
H        3.05066696       3.05067028       3.58291604       0.00375837       0.01112403      -0.01512310
H        0.00000349       8.95157627       4.70497583      -0.01515431      -0.00739870       0.00532992
H        1.42512583       7.52645429       3.58289566      -0.01826470      -0.00485424      -0.02030252
H        0.91354602       8.03803589       2.00382147      -0.02065211      -0.02125124       0.00576345
H        8.03803678       0.91354495       2.00382628      -0.02395014       0.00448832      -0.02529024
H        7.52645591       1.42512386       3.58291357      -0.00599572      -0.00574028       0.00661573
Pb       0.04137064       4.40683212       6.15132577      -0.35378907       0.24220378       0.15717642
Pb       4.38328846       8.90448199       6.30022301       0.30287171       0.02856779      -0.08190266
I        0.10677646       4.46167731       3.11510270      -0.07967473       0.02186451      -0.15264810
I        4.50258873       0.04469186       3.06705200      -0.03816045      -0.02492522       0.10674942
I        1.94397807       2.01964581       6.26582264       0.22291972      -0.29914186       0.00787677
I        2.49122501       6.41117690       6.30167994       0.10894138       0.08567380      -0.00940433
I        6.48360255       2.50651119       6.30359819      -0.14835898      -0.10752187      -0.03827933
I        6.99659921       6.98362129       6.29372271      -0.09476351       0.05543412      -0.02536280
24
Lattice="8.95158397 0.0 0.0 0.0 8.95158397 0.0 0.0 0.0 6.32897243" Properties=species:S:1:pos:R:3:forces:R:3 config_id=t-FAPI3_cage_rattle_15 phase=t-FAPI3 mode=cage_rattle seed=4017507702 source=t-FAPI3/CONTCAR energy=-113.49375622 stress="-0.0007929674316216311 -2.340839924456848e-05 -2.4024823168858963e-05 -2.340839924456848e-05 -0.0010292249047902224 0.00012033874261860657 -2.4024823168858963e-05 0.00012033874261860657 0.001206765692932523" pbc="T T T"
C        4.47580863       4.47581213       3.61395769      -0.01390756      -0.02768121       0.00865278
C        0.00000662       8.95157287       3.61395307       0.02712211      -0.03975082      -0.00705432
N        5.30254327       5.30254703       3.01626364       0.03354350       0.00249243      -0.00080879
N        3.64903040       3.64903389       3.01626877       0.03485528      -0.00995339       0.01524438
N        0.82676525       8.12481523       3.01626668      -0.04087163       0.01216901      -0.00452165
N        8.12482239       0.82675782       3.01626820      -0.05157677       0.01303076      -0.00974161
H        4.47579449       4.47579807       4.70497829      -0.00574856       0.00230431      -0.00620872
H        5.90092282       5.90092640       3.58290572      -0.01249382      -0.00677869      -0.01750844
H        5.38933711       5.38934016       2.00382742      -0.00340091       0.00416086       0.00390007
H        3.56224775       3.56225070       2.00383501      -0.01688044       0.00295661      -0.00647771
H        3.05066696       3.05067028       3.58291604      -0.00670542       0.00834229      -0.00819540
H        0.00000349       8.95157627       4.70497583       0.00816683       0.00063287       0.00156125
H        1.42512583       7.52645429       3.58289566       0.01060005      -0.00889021       0.01558356
H        0.91354602       8.03803589       2.00382147      -0.00162240       0.00617728      -0.00453025
H        8.03803678       0.91354495       2.00382628       0.01661979       0.00108026       0.00590998
H        7.52645591       1.42512386       3.58291357       0.01474604      -0.00257049      -0.01039069
Pb       8.91057506       4.48116768       6.25609267       0.15368049      -0.01932839      -0.01421980
Pb       4.49671613       0.01262505       6.22562189      -0.14921923      -0.05615333       0.13087659
I        0.04478469       4.45619339       3.07962672      -0.05056432       0.01330644       0.03920575
I        4.42043924       8.90589992       3.17626291       0.05119449       0.03767556      -0.16658560
I        1.92086840       1.95902112       6.30215449       0.07773339      -0.07668295      -0.00735584
I        2.50810484       6.41123723       6.22898042       0.03218569       0.04539675       0.03943371
I        6.41491015       2.52189054       6.27458890      -0.02894333       0.00257350       0.00692911
I        7.01768601       6.99612057       6.30231682      -0.07851329       0.09549053      -0.00369837
24
Lattice="8.95158397 0.0 0.0 0.0 8.95158397 0.0 0.0 0.0 6.32897243" Properties=species:S:1:pos:R:3:forces:R:3 config_id=t-FAPI3_cage_rattle_16 phase=t-FAPI3 mode=cage_rattle seed=2438464306 source=t-FAPI3/CONTCAR energy=-113.47103095 stress="-0.0013396431592718446 0.00023163227148745573 -9.066223293626031e-05 0.00023163227148745573 -0.0019370819170050893 -0.0001131580611315334 -9.066223293626031e-05 -0.0001131580611315334 0.0008833721710989032" pbc="T T T"
C        4.47580863       4.47581213       3.61395769       0.01831804      -0.00646272       0.00417601
C        0.00000662       8.95157287       3.61395307       0.01839254       0.00286966      -0.00794379
N        5.30254327       5.30254703       3.01626364       0.01121506      -0.01895781      -0.03278468
N        3.64903040       3.64903389       3.01626877       0.02480459      -0.01285395       0.02299600
N        0.82676525       8.12481523       3.01626668       0.00359080       0.01135634      -0.01841746
N        8.12482239       0.82675782       3.01626820       0.00503247       0.00282064      -0.00603928
H        4.47579449       4.47579807       4.70497829       0.00115379       0.00831757      -0.00514125
H        5.90092282       5.90092640       3.58290572       0.00869853       0.00898187       0.01873390
H        5.38933711       5.38934016       2.00382742      -0.01656068       0.00764404       0.00087228
H        3.56224775       3.56225070       2.00383501      -0.01812650       0.00214932      -0.00844669
H        3.05066696       3.05067028       3.58291604       0.00105090       0.02165025      -0.01866771
H        0.00000349       8.95157627       4.70497583       0.00552520      -0.00055638       0.00084741
H        1.42512583       7.52645429       3.58289566       0.00939010      -0.01793569       0.01601802
H        0.91354602       8.03803589       2.00382147      -0.00387412      -0.00214593       0.00018658
H        8.03803678       0.91354495       2.00382628      -0.00474207      -0.00708769       0.00289431
H        7.52645591       1.42512386       3.58291357       0.00341803      -0.00203937      -0.00342971
Pb       8.92942567       4.49243441       6.25703923       0.10946617       0.06751882       0.03400757
Pb       4.45220170       0.09632594       6.16356246      -0.01898784      -0.32255978       0.15448932
I        0.02839648       4.47171633       3.13909393      -0.02198123      -0.02498299      -0.08028601
I        4.49184790       8.92825480       3.12223621      -0.00629730       0.01256151      -0.16417539
I        1.98986712       1.98720975       6.32678020      -0.04464260      -0.05016564      -0.03039547
I        2.54427416       6.41145592       6.22228678      -0.04806481       0.00994980       0.05160874
I        6.43037473       2.46840393       6.25963449       0.13340969       0.15832086       0.01505815
I        7.03870728       6.95229674       6.20937029      -0.17018877       0.15160727       0.05383915
24
Lattice="8.95158397 0.0 0.0 0.0 8.95158397 0.0 0.0 0.0 6.32897243" Properties=species:S:1:pos:R:3:forces:R:3 config_id=t-FAPI3_cage_rattle_17 phase=t-FAPI3 mode=cage_rattle seed=2872200326 source=t-FAPI3/CONTCAR energy=-113.44672807 stress="-0.001254206623609721 -7.713147751356828e-05 -0.0001890996760698707 -7.713147751356828e-05 -0.0018644451686658891 0.00015112044880489123 -0.0001890996760698707 0.00015112044880489123 0.0005162309131605075" pbc="T T T"
C        4.47580863       4.47581213       3.61395769       0.01465724       0.03168294       0.01477467
C        0.00000662       8.95157287       3.61395307       0.05981843      -0.03942854      -0.01796622
N        5.30254327       5.30254703       3.01626364      -0.00253913      -0.04133018       0.01724685
N        3.64903040       3.64903389       3.01626877      -0.02140584      -0.02379944      -0.01416033
N        0.82676525       8.12481523       3.01626668      -0.02205057       0.03961378      -0.02209132
N        8.12482239       0.82675782       3.01626820      -0.01809591       0.06999853      -0.02012968
H        4.47579449       4.47579807       4.70497829      -0.00785745       0.01167541      -0.01834650
H        5.90092282       5.90092640       3.58290572      -0.01892270       0.00480588      -0.01285831
H        5.38933711       5.38934016       2.00382742      -0.00685583       0.01814663      -0.00524426
H        3.56224775       3.56225070       2.00383501      -0.00469136      -0.00161900      -0.00468686
H        3.05066696       3.05067028       3.58291604       0.01068729       0.00755898      -0.00570862
H        0.00000349       8.95157627       4.70497583       0.00474854      -0.00891796       0.00502771
H        1.42512583       7.52645429       3.58289566       0.03208187      -0.01361936       0.04057697
H        0.91354602       8.03803589       2.00382147      -0.00258217       0.00689115      -0.00623118
H        8.03803678       0.91354495       2.00382628       0.00568636      -0.02546136       0.02655723
H        7.52645591       1.42512386       3.58291357      -0.00515147      -0.01572501      -0.02045980
Pb       8.90708233       4.41476044       0.00568848       0.14442799       0.19800783      -0.18811085
Pb       4.52283211       0.02570000       6.21806510      -0.12546488      -0.10339663       0.09971902
I        8.93938618       4.52777428       3.02501098       0.01486272      -0.02986713       0.22447682
I        4.52275629       8.90719665       3.13325527      -0.02347714       0.07437141      -0.11957382
I        1.96292016       1.98206259       6.29669891      -0.04922065       0.00386578      -0.02648133
I        2.61001531       6.51076192       6.17862440      -0.30498113      -0.23023388       0.05613658
I        6.37233812       2.57263734       6.24381706       0.16017894       0.13514834       0.02776144
I        6.96726147       7.02121866       6.30731064       0.16614689      -0.06836816      -0.03022820
24
Lattice="9.06739973 0.04257377 -0.04977039 0.04257377 8.82553356 0.0162128 -0.03518879 0.01146282 6.35188446" Properties=species:S:1:pos:R:3:forces:R:3 config_id=t-FAPI3_mixed_01 phase=t-FAPI3 mode=mixed seed=1915546367 source=t-FAPI3/CONTCAR energy=-112.28463104 stress="-0.003165876323589904 0.005319251360530151 -0.0018624581467866096 0.005319251360530151 -0.00044547729678118644 -0.0012268678711704743 -0.0018624581467866096 -0.0012268678711704743 0.005542456670954314" pbc="T T T"
C        4.56344070       4.42948676       3.65889903      -0.39410419       0.51172715      -2.42449355
C        8.82814629       0.15074381       3.59613208      -2.10615065       1.33830325      -6.13978019
N        5.33337201       5.28087606       2.97148031       0.60866366       0.48082649       5.21875533
N        3.71837875       3.63495454       3.03245171      -0.41272899      -0.73452010       0.24991075
N        0.96470851       8.35728829       3.70582722      -0.12787321      -0.20914165       2.54984920
N        8.22845135       0.48893003       2.36545289       8.40471836      -4.41899899       1.13679754
H        4.49134276       4.43252017       4.73964340       0.42318339       0.27371633       0.21419811
H        5.95680233       5.90222686       3.54631342      -0.70955120      -0.73820778      -0.50285590
H        5.53965082       5.35945403       2.03458529       0.01312444      -0.33290474      -2.96572803
H        3.64332435       3.52726842       2.01123953       0.13853222       0.20211326       0.37846857
H        3.07825981       3.03827774       3.57690243       0.37197219       0.28216955      -0.18289115
H        8.15787226       0.47735190       4.35050662       0.15329602      -0.08519693       1.78130740
H        1.24211861       8.15304406       4.68255378       0.47265177      -0.19712962      -0.55362572
H        1.61979675       8.05809000       2.98503330      -0.31007122       0.18571309      -0.36457737
H        8.75856444       0.18195141       1.46473706      -1.43895580       0.89225500       1.84710240
H        7.40625198       0.89768026       2.28903061      -4.97602380       2.48346193      -0.27116843
Pb      -0.00147615       4.41147945       6.30425581       0.04610141      -0.02018119      -0.00161458
Pb       4.60441424       8.83984112      -0.00237881       0.00227818       0.01283506      -0.07719095
I        0.04809430       4.41974269       3.10441993      -0.00672565       0.02154469       0.05235721
I        4.53861059       8.83401496       3.10948750       0.02230814       0.02971908       0.07409159
I        1.99460731       1.90222701       6.32654144      -0.05799862       0.06389651       0.02617852
I        2.62305267       6.32844692       6.27915382      -0.03703398      -0.03102749       0.14964909
I        6.52892492       2.53159369       6.29349024      -0.11746905       0.04078507      -0.07988342
I        7.06006617       6.90314201       6.27609610       0.03785658      -0.05175798      -0.11485644
24
Lattice="9.07469497 0.01090893 0.0040716 0.01090893 8.87089172 0.03000688 0.00287871 0.02121554 6.40524506" Properties=species:S:1:pos:R:3:forces:R:3 config_id=t-FAPI3_mixed_02 phase=t-FAPI3 mode=mixed seed=3947787327 source=t-FAPI3/CONTCAR energy=-112.53734628 stress="-0.007857314609742682 0.0007391977729700248 0.0015486464337253173 0.0007391977729700248 -0.007927598515111225 0.0028570606327499347 0.0015486464337253173 0.0028570606327499347 0.019343760549024237" pbc="T T T"
C        4.60239302       4.47836244       3.67717434      -2.77693517      -2.31184279       4.00444568
C        0.01986280       8.86216383       3.63673121      -2.36008521       2.00199605       4.02596106
N        5.39976221       5.28172138       3.12177189      -0.69644869      -0.64645151      -5.09671540
N        3.73553294       3.63759449       3.15032994      -0.66777744      -0.62755257      -4.02049292
N        0.97430957       8.17261414       3.20715685       2.35921289      -2.10584206      -3.71390122
N        8.26257315       0.75653620       2.95034425      -2.03337873       1.29430423      -1.90356638
H        4.55821848       4.49817349       4.81964813       0.25588796      -0.06947251      -1.34317196
H        5.95929083       5.85342970       3.63692325       2.13136180       2.17851954       1.71515982
H        5.38494876       5.33401807       2.06990727       0.52435507       0.31159691       1.16821926
H        3.57152604       3.50154341       2.02823442       0.67986378       0.53422165       3.17276879
H        3.10995825       3.00339227       3.66962083       0.55477121       0.58948181       0.29995278
H        8.92727942       0.05191058       4.75899043       0.35671052      -0.19580929      -1.70031503
H        1.58296966       7.68492576       3.83406498       0.46535107      -0.48065143       0.54651458
H        1.13394435       7.98949179       2.16626937      -0.09022264       0.33800384       1.57505294
H        8.19429205       0.84440531       1.89310327       0.31787509      -0.24823881       1.45233205
H        7.48384487       1.25124897       3.44598751       0.91152579      -0.59462262      -0.35913721
Pb       0.04208218       4.49811868       6.37925836      -0.12546793      -0.12645752       0.00151920
Pb       4.52384665       8.88638909       6.35378426       0.17895726       0.16694374       0.04290472
I        0.05513588       4.49660340       3.18146186      -0.01422756      -0.01353257      -0.04042831
I        4.53498260       8.84547785       3.19291469       0.05615430       0.03474279      -0.05063580
I        1.96943065       1.95407519       6.32022050       0.10862372      -0.04171474       0.06818964
I        2.56669600       6.46425437       6.32089737      -0.12772328      -0.18683350       0.08403535
I        6.49739543       2.51162615       6.31332210       0.15056756       0.07820725       0.04458510
I        7.13949503       6.94195217       6.35608690      -0.15895138       0.12100408       0.02672327
24
Lattice="8.8270481 0.05893346 -0.05450631 0.05893346 9.08358416 -0.03251377 -0.0385372 -0.02298797 6.38507336" Properties=species:S:1:pos:R:3:forces:R:3 config_id=t-FAPI3_mixed_03 phase=t-FAPI3 mode=mixed seed=3250864131 source=t-FAPI3/CONTCAR energy=-111.46771745 stress="-0.0075042182265751866 0.0046679624661266315 -0.0017655022257081732 0.0046679624661266315 0.0031337497781567933 0.003387121257137246 -0.0017655022257081732 0.003387121257137246 -0.007955736817352517" pbc="T T T"
C        4.46285593       4.62022537       3.60899779      -4.69049919      -5.61612055      -4.95989947
C        8.68146124       0.06619464       3.55257069      -4.17400812       0.60613376       0.72689211
N        5.20642758       5.44071881       3.03552545       2.41411338       2.78233406      -2.76599942
N        3.63270962       3.65053273       2.89500083       1.96623356       2.81961812      13.54468265
N        1.15585305       8.84178863       3.49435944       0.75599277      -0.20000314      -4.21711054
N        7.83534998       0.24229457       2.51310422       0.35653833       0.28775484       2.03978503
H        4.44251251       4.53019679       4.61399965      -0.16941744      -0.18234696       3.39545387
H        5.78566842       6.05263465       3.59309221       0.31137069       0.29587783       0.33635822
H        5.33581593       5.59348840       1.99974468      -0.36956618      -0.43245686       1.10193657
H        3.54887697       3.53351218       2.02270233      -0.63753849      -0.86104688      -8.89833339
H        3.02464608       3.06463085       3.57897609       1.25302412       1.20270729      -1.70843852
H        8.19146622       0.09911460       4.61538611       0.86068547       0.08921950      -1.86068463
H        1.72664480       8.65709331       4.23856487       1.64215743      -0.59349873       2.64594719
H        1.58657458       8.70678955       2.55268424      -0.15478517       0.15664677       0.84470687
H        8.09696550       0.24321255       1.51687981      -0.07933008       0.05140278       0.56280227
H        6.84846247       0.47946396       2.81957688       0.98195954      -0.28653660      -0.88436627
Pb       8.80833914       4.61286701       6.25955266       0.01528942      -0.35165001      -0.03265583
Pb       4.46549625       9.00626431       6.12272751      -0.05733615       0.37367071       0.12501783
I        0.03694028       4.49344047       3.08827622      -0.09129594       0.06255262       0.04225866
I        4.49476807       0.03058169       3.02143303      -0.18408444      -0.05093203       0.04756565
I        1.91285691       2.05993928       6.26244570       0.14750872      -0.21880042       0.02734008
I        2.45419846       6.58293499       6.31531766       0.08033673       0.01981015       0.05845877
I        6.25560513       2.56566806       6.29146116       0.03736880       0.03492305      -0.02010057
I        6.93260312       7.10026902       6.30620675      -0.21471777       0.01074070      -0.15161715
24
Lattice="9.0503235 0.06350515 -0.05547004 0.06350515 8.91237629 0.01777943 -0.03921857 0.01257046 6.33296021" Properties=species:S:1:pos:R:3:forces:R:3 config_id=t-FAPI3_mixed_04 phase=t-FAPI3 mode=mixed seed=743749397 source=t-FAPI3/CONTCAR energy=-113.09119411 stress="-0.001119238832173577 0.006034817051051554 0.0027244069931693766 0.006034817051051554 -0.001559600900150646 0.0022038702126591413 0.0027244069931693766 0.0022038702126591413 0.004347588736204333" pbc="T T T"
C        4.64927955       4.64749531       3.57855291      -0.34953724      -0.74783030       0.66167342
C        9.00633768       0.09045738       3.56802816       1.36515060      -1.41603004       0.24201113
N        5.31884627       5.14673823       2.58879946       1.80885217       1.69732586      -0.57825119
N        3.68026839       3.77260874       3.49049370      -1.56693976      -1.59188847      -1.93986783
N        0.84708399       8.12870618       3.02253883       1.46826709      -1.47760716       1.24889995
N        8.18164781       0.87896183       3.00397779      -0.21364309       0.17750184      -3.52306456
H        4.93237772       4.91800775       4.59508419       0.13604806       0.21868459       0.02036386
H        6.11767589       5.81943005       2.77219757      -1.21807305      -0.97969389      -0.18519105
H        5.13999018       4.97882733       1.59733466      -0.12706714      -0.17963825       0.16442955
H        3.29039384       3.32806883       2.56674487       1.08564922       1.20428481       1.88393210
H        3.24407063       3.35862638       4.32885731       0.23520880       0.32436510      -0.12979956
H        9.01182761       0.07930592       4.63857144       0.13375647      -0.07507359       0.75158073
H        1.46806584       7.50789300       3.64052028      -1.06748992       1.05658280      -1.16872237
H        0.95138471       7.99587363       2.01097414      -0.16385190       0.18213533       0.22152471
H        8.12529143       0.94976531       1.95777757      -0.16886891       0.11383507       1.10840616
H        7.64801013       1.49024808       3.53955526      -1.36629741       1.41969219       1.12607336
Pb      -0.00360083       4.44912725       6.29503910      -0.11422621       0.05956199       0.04475654
Pb       4.50670323       8.93846663       6.25605644       0.19243217      -0.06109981       0.02328673
I        9.05675027       4.54414301       3.11796168      -0.01217973      -0.02125580      -0.07144700
I        4.58848305       8.94106696       3.10977971      -0.01437634       0.00197457      -0.01355660
I        1.96876035       1.95188801       6.26397519      -0.04310846       0.01100669       0.13982292
I        2.53628471       6.42056926       6.28368423       0.00192610       0.01929619      -0.00563460
I        6.48775335       2.56030120       6.25588000       0.00777282      -0.04078384      -0.01869833
I        7.10304341       7.00154676       6.26454552      -0.00940435       0.10465413      -0.00252807
24
Lattice="8.97586185 -0.0456095 -0.02537461 -0.0456095 8.8530572 -0.04967732 -0.01794043 -0.03512299 6.2616645" Properties=species:S:1:pos:R:3:forces:R:3 config_id=t-FAPI3_mixed_05 phase=t-FAPI3 mode=mixed seed=3469388101 source=t-FAPI3/CONTCAR energy=-112.03256201 stress="-0.01473288715086461 -0.009561962508447059 -0.014763679205473028 -0.009561962508447059 -0.0010691981693907388 -0.0060489840034994476 -0.014763679205473028 -0.0060489840034994476 -0.021938454489773565" pbc="T T T"
C        4.52504849       4.18767529       3.46004571       5.51876503       3.85350587       2.41225925
C        8.96412260      -0.06027441       3.59031832       1.59503742      -1.42227597      -5.94599711
N        5.26473241       5.26605651       3.14508579      -7.33298986      -2.93042238      -7.04230055
N        3.62934130       3.65841139       2.82258870      -5.99359783      -2.64914839      -5.15296617
N        0.83364296       8.00005147       2.95175035      -2.70150046       2.68598521       1.22397760
N        8.13674009       0.74578933       2.96838772      -0.20807059       0.29998011       0.28744252
H        4.87912987       3.73856024       4.35084497       0.10047568      -0.70787698       1.23056699
H        5.88213452       5.59894069       3.68465730       6.12058584       2.98146972       5.71709087
H        5.09978221       5.84457840       2.27771155       0.06977119      -0.86292323       1.01008659
H        3.25570797       4.04854823       1.88227686       0.68632141      -0.63565191       1.68092563
H        3.16285966       2.75706032       3.10177664       0.67317504       1.04832148      -0.09098802
H        8.87427309       8.65970352       4.51443039      -0.35191066      -0.07357998       4.89226436
H        1.41708055       7.45286295       3.53147053       0.81024085      -0.87411243       0.59799138
H        0.88464954       7.95623207       1.96130146       0.37940101      -0.22614693      -1.11303237
H        8.06979374       0.87148235       1.95314384       0.18815339      -0.12425576       0.18444172
H        7.50391121       1.33515696       3.52660962       0.22054955      -0.26400298      -0.11748955
Pb       8.91740525       4.32612437       6.17725327       0.00307042       0.17563823      -0.10202603
Pb       4.41962257       0.00821952       6.12939709       0.15384284      -0.24311571      -0.06972401
I        8.92896098       4.37570561       2.98715698       0.03700681      -0.05013110       0.10504642
I        4.45470187      -0.00180787       2.95190541       0.02549482       0.05693433       0.15982278
I        1.96122841       1.86213377       6.18448587      -0.21617068       0.09910841      -0.02637075
I        2.42337530       6.29923362       6.21318097       0.20136708       0.03102760      -0.04679426
I        6.46557209       2.42103196       6.13034018      -0.07302599      -0.23171048       0.08414106
I        6.89118809       6.80678096       6.08609367       0.09400769       0.06338327       0.12163165
24
Lattice="8.8363546 0.00744555 0.00208574 0.00744555 8.94245841 0.05589132 0.00147466 0.03951643 6.24365475" Properties=species:S:1:pos:R:3:forces:R:3 config_id=t-FAPI3_mixed_06 phase=t-FAPI3 mode=mixed seed=312317121 source=t-FAPI3/CONTCAR energy=-113.24197118 stress="-0.00826358195352341 0.0020877555174471313 0.0005331988801418416 0.0020877555174471313 -0.009976008045866501 0.0020916446829230876 0.0005331988801418416 0.0020916446829230876 -0.010742539628000545" pbc="T T T"
C        4.22803606       4.50886158       3.53169649      -0.74475206      -1.27797049      -0.45317456
C        8.81553204       0.03321795       3.57485329       1.88899197      -1.88662700       0.96090867
N        5.02902578       5.50207523       3.28688191      -0.66886728       0.79750191       2.31893161
N        3.98415704       3.49225600       2.71807861       0.28172208       1.25306922       0.74241575
N        0.82670128       8.12288018       3.03681225      -1.42626223       1.38796062      -0.53465012
N        8.00314942       0.83441521       3.00583872      -0.42692546       0.44669711      -1.72807240
H        3.65704652       4.49187580       4.46595318       0.24051990       0.21337849       0.04288710
H        5.10906065       6.22499392       4.02661606       0.09856199      -0.39046941      -0.57564439
H        5.57134158       5.63714079       2.47996678       0.94998104       0.08656981      -1.56861947
H        4.43945320       3.39805237       1.83027380       0.36017705      -0.18660064      -0.74345641
H        3.37419823       2.76037496       3.01995667      -0.46847834      -0.55548947       0.15432513
H        8.82531677       8.97828662       4.72194482       0.09272309      -0.05290535       0.01604941
H        1.41451495       7.55692823       3.59721111       0.74190685      -0.75706691       0.70350239
H        0.89291662       8.04196106       2.02280974       0.08874831      -0.07752794       0.02138398
H        7.92071578       0.94731967       2.00267913      -0.02681979       0.00932183      -0.36819581
H        7.45732733       1.44470527       3.55287297      -0.91024237       0.95563342       0.89590059
Pb       8.83596212       4.48899665       6.20944672       0.15309708       0.10314585       0.06824454
Pb       4.44223946       0.06055011       6.20778312      -0.10514161      -0.06337721       0.05920036
I        0.00911431       4.49014738       3.12298445      -0.01373545      -0.02344016      -0.08352848
I        4.40941725       0.03407187       3.11084314       0.01127532      -0.00447297      -0.06543666
I        1.93231264       1.98141307       6.19164230      -0.06020487      -0.04210376       0.00553052
I        2.50189692       6.48230800       6.21721279      -0.01009906       0.06019425       0.05522280
I        6.36192825       2.58057771       6.22571832      -0.09218081      -0.04047514      -0.06331373
I        6.89442712       7.01630563       6.22924000       0.04600467       0.04505397       0.13958919
24
Lattice="8.85111781 0.03014284 -0.02341251 0.03014284 8.83757745 -0.041112 -0.01655317 -0.02906712 6.23903456" Properties=species:S:1:pos:R:3:forces:R:3 config_id=t-FAPI3_mixed_07 phase=t-FAPI3 mode=mixed seed=3191567480 source=t-FAPI3/CONTCAR energy=-112.33315601 stress="-0.004387658232392552 0.006552041150593227 0.0037931679011552833 0.006552041150593227 -0.006978247769223721 -0.0003369795520611307 0.0037931679011552833 -0.0003369795520611307 -0.017714506466726742" pbc="T T T"
C        4.59527137       4.42291911       3.57650154      -2.79169980      -1.72168337      -6.37887884
C        8.73711370       0.17962846       3.54431769      -0.63413959      -0.26131536      -3.87086608
N        4.81527073       5.50184655       2.86676253       1.28503850       1.42607028       2.07132847
N        3.98390101       3.32966563       3.00432764       1.97578715       1.68525215       5.18495583
N        0.82292508       8.03525273       3.50537266      -2.04244750       2.74795053       5.32447449
N        8.13444058       0.64956338       2.42303502       2.25641612      -2.14432447       0.43412513
H        4.72145973       4.42968661       4.56331695       0.81223044      -0.04417896       4.07595514
H        5.17240126       6.36077394       3.41294244      -0.54927907      -1.34592115      -1.31513181
H        4.64948665       5.59981099       1.87002550      -0.06543156      -0.03679265      -0.15187867
H        3.79884796       3.25530203       2.06659221      -0.58802506      -0.25270885      -2.92951093
H        3.89364072       2.50119326       3.61792976      -0.12694738       0.40355148      -0.67455159
H        8.37676632       0.56602625       4.44844983      -0.28080100       0.59654588       1.50663477
H        1.23085919       7.82374464       4.43047619       0.11310724      -0.38589972      -0.57662501
H        1.16606289       7.65412120       2.73271477       1.95833109      -2.18501003      -4.27680976
H        8.38261099       0.29428525       1.45600016      -0.42141472       0.59090027       1.39835968
H        7.47101648       1.37361682       2.51318800      -0.95235921       1.02401160      -0.04536085
Pb       0.03819142       4.37294490       6.15957032      -0.08420078      -0.03305814       0.00476850
Pb       4.48355391       8.82187633       6.17629649      -0.05892078       0.10460508       0.02121683
I        8.84996983       4.39137944       3.01503375      -0.01472504       0.02633668       0.01455428
I        4.45802571       8.83596267       3.05730346      -0.00521486      -0.04225856       0.01493220
I        1.92300691       1.85881862       6.16580691      -0.04679258       0.00279217       0.05296851
I        2.51687582       6.30864056       6.18346586       0.14066584      -0.01791148       0.14243474
I        6.34840024       2.49117802       6.13680475      -0.07240703       0.02815355       0.01110065
I        6.91772002       6.95227604       6.12349729       0.19322959      -0.16510694      -0.03819569
24
Lattice="8.84127333 -0.03633983 0.01820494 -0.03633983 8.86189995 -0.05975414 0.0128713 -0.04224753 6.25243344" Properties=species:S:1:pos:R:3:forces:R:3 config_id=t-FAPI3_mixed_08 phase=t-FAPI3 mode=mixed seed=563541034 source=t-FAPI3/CONTCAR energy=-112.20266544 stress="-0.01122503298732444 -0.0019549086095364903 -0.002233247111178918 -0.0019549086095364903 -0.014315740357356738 -0.005541870112651191 -0.002233247111178918 -0.005541870112651191 -0.019733295698830863" pbc="T T T"
C        4.37439042       4.15581333       3.53577633       3.83824246       8.33934187      -2.50868183
C       -0.01122577       8.82993079       3.55025797      -0.59280776       0.47039890       1.36670575
N        5.03463983       5.39660060       3.35363460      -1.75517434      -4.48981373       2.26634986
N        3.79718900       3.62108270       2.57859374      -0.85875384      -0.89977057      -0.78364987
N        0.81556905       8.06064928       2.94492288       1.41450712      -1.64918177      -1.39816949
N        8.05829226       0.74421709       3.01782865      -1.54544040       1.33735926      -0.55475758
H        4.27796364       3.80326764       4.45759978      -0.12001733      -1.61912917       4.06835315
H        5.38195649       5.74320843       4.23477846       0.52846290       0.79548155      -0.04765141
H        5.10795947       5.87852247       2.48652213       0.13562607       0.43873166      -0.74005678
H        3.80936150       3.84150653       1.64292408       0.15753609       1.03361144      -2.75115388
H        3.45987492       2.76563402       2.79948686      -1.92521647      -3.79479251       0.33745060
H        8.80005687       8.74248451       4.68808253       0.02684045       0.27128491      -0.93759848
H        1.43608016       7.45901489       3.50002101      -0.20741124       0.09073032      -0.35004164
H        0.81793113       7.95347237       1.90699556       0.22190509       0.07365447       0.92980465
H        7.86569922       0.90249917       2.00868126       0.69314302      -0.53790246       0.49621226
H        7.44620165       1.33122765       3.57706311      -0.02009002      -0.01353570       0.32065438
Pb       0.00690380       4.42372180       6.17907669      -0.02205381      -0.23489271       0.01025442
Pb       4.42409640       8.72960439       6.16017341      -0.12770787       0.29718698       0.03633788
I        0.06033202       4.42803838       3.04558722      -0.01462329      -0.01061511      -0.02003090
I        4.38702714       8.79377487       3.04373088      -0.00720911       0.18292840      -0.07407791
I        1.92771385       1.86899818       6.14099685       0.04949602      -0.03502672       0.04230740
I        2.51296739       6.27879650       6.08023720       0.06724968      -0.03790581       0.08184425
I        6.36864804       2.41244610       6.22875394      -0.01488811       0.00622962       0.00689976
I        6.94154048       6.91049755       6.13496909       0.07838466      -0.01437311       0.20269542
24
Lattice="9.05159767 -0.01166094 0.05919829 -0.01166094 8.96334042 0.00347707 0.04185453 0.00245837 6.41568832" Properties=species:S:1:pos:R:3:forces:R:3 config_id=t-FAPI3_mixed_09 phase=t-FAPI3 mode=mixed seed=3374372360 source=t-FAPI3/CONTCAR energy=-112.71763091 stress="0.0002797080884729385 0.0013254219181775741 -0.0028672688643441727 0.0013254219181775741 0.0026107225231581663 -0.005312455349492016 -0.0028672688643441727 -0.005312455349492016 0.007205888795353468" pbc="T T T"
C        4.57546630       4.28099730       3.67957265       1.94831641       1.73534882      -1.23308215
C        9.01712958       8.78440236       3.69463346      -0.40375422       1.48838194       1.08014796
N        5.61150522       5.00206136       3.14645847      -2.02924977      -1.84522440       2.13256992
N        3.46327967       4.13701619       3.02814227      -2.30155601      -1.61117711      -0.01788399
N        0.27771177       8.00356868       2.67519891       0.89843504      -1.03838010      -3.16913135
N        8.82643932       1.14254177       3.55934325      -0.05618334      -2.80735934       2.74522207
H        4.69653011       3.83513222       4.71096544      -0.01450444       0.34667031      -1.08736683
H        6.37560491       5.08649178       3.78788787       0.81084527       0.42755157       0.05973783
H        5.58791397       5.54299730       2.29793556      -0.10590244       0.17734461      -0.42126211
H        3.14965805       4.42676952       2.08153358       0.98997336       0.34206670       0.43318221
H        2.74794106       3.49411502       3.42155580       0.57580017       0.50506954       0.02360577
H        8.88984299       8.31820004       4.70826176       0.08796595       0.56678781      -0.72436114
H        0.42401428       6.98286024       2.80778661      -0.18033080       0.54601217       0.26979715
H        0.43210285       8.29747882       1.65298760      -0.31850497      -0.21860642       1.84022662
H        8.87953134       1.62543863       2.71609505       0.10946425       1.06486436      -1.78687510
H        8.60277182       1.61373645       4.43870928      -0.09968817       0.29133968      -0.43997613
Pb       0.04372613       4.50750355       6.39695211      -0.10196302      -0.06893745      -0.03286510
Pb       4.52268663       8.92186706       6.38920800       0.13918153       0.18106638       0.00534797
I        9.03965524       4.47058807       3.22358474       0.12690135       0.17423720      -0.00390872
I        4.54920502      -0.00241341       3.18270348      -0.00704834      -0.00206053      -0.00707971
I        2.03506924       1.98190078       6.39151566      -0.11518101       0.06223211       0.07873643
I        2.61913215       6.46583271       6.38827432      -0.21568775      -0.30897379       0.03650116
I        6.50283667       2.53475886       6.40353336       0.27841290       0.10742081       0.08099700
I        7.10065805       6.97704626       6.31944417      -0.01574194      -0.11567489       0.13772023
24
Lattice="8.92936113 -0.01610516 -0.01496479 -0.01610516 8.94383928 0.01190172 -0.01058045 0.00841479 6.30398774" Properties=species:S:1:pos:R:3:forces:R:3 config_id=t-FAPI3_mixed_10 phase=t-FAPI3 mode=mixed seed=317851060 source=t-FAPI3/CONTCAR energy=-112.68136035 stress="-0.00389312847848541 0.0007699855271786525 -0.008460149938545403 0.0007699855271786525 -0.0012384849237215884 0.005356121871080046 -0.008460149938545403 0.005356121871080046 -0.01950326038610986" pbc="T T T"
C        4.49907665       4.44456798       3.60343119      -1.02320816      -1.39956102      -1.22711013
C        8.77891148       0.09464634       3.55588835       5.04187608      -2.28102638       2.96945600
N        5.02938798       5.47900128       3.02572162       0.60628845       0.83543754       1.50921599
N        3.91072401       3.42751682       2.95787545       0.57257673       1.04627631       2.55907264
N        1.09255780       8.57958114       3.42536284      -1.48166127       0.78331176      -0.89590833
N        7.97115641       0.28714939       2.66140663      -5.60025698       1.52242421      -5.91674764
H        4.50041906       4.39597211       4.67352549       0.13214730      -0.07034584       0.66702130
H        5.44256496       6.24269500       3.58244577      -0.20505464      -0.49689492      -0.11250863
H        4.98791605       5.65250264       2.05838828      -0.02960206       0.10095363      -1.71704129
H        3.78831320       3.34349431       1.98561915      -0.07497975       0.05972811      -1.69176886
H        3.53177204       2.67188764       3.52388544      -0.05415484       0.03917775      -0.00442419
H        8.38678691       0.15781841       4.53897707       0.05719078       0.26988646       1.33434051
H        1.63479438       8.45425554       4.25329767       0.52691360      -0.17564002       0.59662596
H        1.55924245       8.44572093       2.50815849      -0.52748709       0.11654822       0.69038531
H        8.11852354       0.17988536       1.64163927       0.52525503      -0.05273376       0.53963226
H        6.92910210       0.49894766       2.78623272       1.37917955      -0.13973334       0.54301275
Pb       8.88821891       4.51926103       6.21312640       0.01752446      -0.24933289       0.04859722
Pb       4.42330468       8.91271245       6.28303324       0.03159567       0.21685138       0.02323965
I        8.91269739       4.45638871       3.12175096       0.01076386      -0.00145546      -0.05775507
I        4.51003910       0.04451178       3.12834755       0.09309826      -0.10338357      -0.04153831
I        1.97056414       1.94849279       6.28055746       0.00378016      -0.01877409       0.04991763
I        2.47926948       6.46981964       6.24628138       0.10270423      -0.05523652       0.12937420
I        6.38669574       2.50050513       6.25646518      -0.00483914      -0.01374404       0.03532242
I        6.94603782       6.97094318       6.23994224      -0.09965023       0.06726648      -0.03041139
24
Lattice="8.82108286 -0.0607326 0.01158526 -0.0607326 8.90575885 0.06224571 0.00819104 0.04400913 6.32366408" Properties=species:S:1:pos:R:3:forces:R:3 config_id=t-FAPI3_mixed_11 phase=t-FAPI3 mode=mixed seed=2227301912 source=t-FAPI3/CONTCAR energy=-113.28625078 stress="-0.00841551898520875 -0.0036305365116959276 0.00022854090194947879 -0.0036305365116959276 -0.009069103656464989 0.0031850010315666692 0.00022854090194947879 0.0031850010315666692 -0.0005171976105769425" pbc="T T T"
C        4.43797096       4.43059892       3.64072270      -1.00894755      -0.91019534       1.95529559
C        0.08143148       0.09547268       3.58925074       1.35848449      -1.31819117       0.38158676
N        5.16164101       5.27939276       3.00963633       1.60674482       1.44145761       0.01759624
N        3.55068144       3.63709814       3.10203716       0.15901910       0.28802339      -1.98288013
N        0.68861465       8.02700100       3.03410453      -0.14857120       0.74813630       1.68894468
N        8.03488156       0.82440246       3.07371601      -0.41408150      -0.25275238      -1.42715522
H        4.52342774       4.37477476       4.76346158       0.05710080       0.10006965      -1.06551119
H        5.83684464       5.83727869       3.55888145      -0.36714428      -0.21887454      -0.48575844
H        5.15944193       5.40339374       2.00244940       0.02802487       0.07892539      -0.23542856
H        3.37087579       3.58386855       2.06891420       0.15911443       0.03212596       1.11476158
H        3.05123900       3.00903513       3.68469906      -0.67296547      -0.77728167       0.65048118
H        0.30684269       0.27459125       4.63911926       0.15079077      -0.16173492       0.12272162
H        1.35131785       7.47631622       3.59417847      -0.24289714       0.17356523      -0.29398437
H        0.54901655       7.76578754       2.08113181      -0.13226656      -0.21363099      -0.90563824
H        7.74760765       0.72504537       2.10851144      -0.18032658       0.10580574      -0.37084050
H        7.57612107       1.52626522       3.60356798      -0.48696825       0.82650792       0.74561417
Pb       8.79029697       4.40953116       6.31913129       0.06868848       0.16086221      -0.01688774
Pb       4.41003851       0.04765066       6.26351508       0.00563141      -0.15436776       0.05372030
I        8.78986234       4.41024251       3.13977625      -0.02007512      -0.00451150       0.03783670
I        4.33126201       8.86495318       3.20946612       0.03554449       0.04041527      -0.06881092
I        1.92272767       1.98999931       6.28314918       0.03916345       0.02108903       0.07411504
I        2.45611531       6.43090823       6.30779711       0.02534748      -0.07551224      -0.00198303
I        6.33304971       2.51113941       6.28446753      -0.04571243      -0.01363157       0.04763738
I        6.86077583       6.94739763       6.35930451       0.02630147       0.08370037      -0.03543290
24
Lattice="8.85468224 -0.05322532 0.03780508 -0.05322532 8.92542885 -0.01584305 0.02672905 -0.01120139 6.36808329" Properties=species:S:1:pos:R:3:forces:R:3 config_id=t-FAPI3_mixed_12 phase=t-FAPI3 mode=mixed seed=1826210991 source=t-FAPI3/CONTCAR energy=-113.04402994 stress="-0.009284346611282171 -0.001412109352132671 0.00217876385454744 -0.001412109352132671 -0.012750221863679315 -0.0008268409817005864 0.00217876385454744 -0.0008268409817005864 0.00860848352855955" pbc="T T T"
C        4.42123698       4.40789993       3.60952543       1.05430178       1.09984461       4.03938752
C        8.76417582       8.74818106       3.62354496       0.34190479      -1.12175313       2.03122509
N        5.24447149       5.21638730       3.03236695       1.18638994       1.28608090       0.51719115
N        3.60607086       3.61624222       3.04056744      -1.73841245      -1.74182170      -1.58702321
N        0.57967655       8.01054222       2.83504969       2.06813324      -1.58318514      -3.02196455
N        8.22935481       0.89445103       3.27956182      -1.26818994       2.43797448      -0.75298297
H        4.47129543       4.46077447       4.79228979      -0.34117269      -0.39083192      -2.29468546
H        5.82725063       5.83755020       3.61905548      -0.33801337      -0.37871812      -0.43128478
H        5.30708207       5.33655047       2.04259835       0.12736454       0.12563142      -0.93942390
H        3.50237547       3.50347755       2.01263120       0.10716484       0.11066371       0.66704778
H        3.02237750       3.01288793       3.61237867      -0.09685562      -0.11556716       0.03047629
H        8.70532254       8.43731569       4.68188103      -0.17859776       0.26929832      -0.28253324
H        1.03732585       7.16132577       3.21616742      -0.42088828       0.62772258      -0.17483348
H        0.78468640       8.17731532       1.79169454      -0.46031187      -0.20458716       1.83555786
H        8.27354779       1.31043259       2.33593891      -0.03949106      -0.33100238       0.39324361
H        7.72177509       1.43460615       3.98481762      -0.00113263       0.01956425      -0.12794665
Pb       0.01385055       4.42461343       6.28523785      -0.02183430       0.01760778       0.01563594
Pb       4.41276134       8.81846580       6.35611225       0.01151641       0.22416150      -0.01155864
I        8.81955178       4.42157975       3.14857159       0.05772472      -0.01300908       0.02037996
I        4.42746446      -0.03094898       3.16938723      -0.00317493      -0.00088148       0.00694897
I        1.94214247       1.90846865       6.31801225      -0.08407037       0.04573205       0.02454871
I        2.50813981       6.40317027       6.33380381      -0.10813256      -0.20211777       0.00024024
I        6.38093367       2.47062070       6.34941418      -0.00060235       0.04107883       0.02741689
I        6.87773802       6.94686387       6.33266160       0.14637993      -0.22188541       0.01493690
24
Lattice="8.95913117 0.05536812 -0.01783932 0.05536812 8.85552514 0.02317412 -0.0126128 0.01638462 6.32779615" Properties=species:S:1:pos:R:3:forces:R:3 config_id=t-FAPI3_mixed_13 phase=t-FAPI3 mode=mixed seed=3935123146 source=t-FAPI3/CONTCAR energy=-112.83026289 stress="-0.0040494117850505594 0.00520980070588732 0.003959876387930376 0.00520980070588732 -0.0058779008367365135 -0.007363202737354536 0.003959876387930376 -0.007363202737354536 -0.008929059146336035" pbc="T T T"
C        4.65119908       4.69791288       3.51709352      -0.15318611       0.03138067      -0.06525203
C        0.14447657       8.75990825       3.62752522      -2.86872125       3.23892293       1.79622072
N        5.30603004       4.85208028       2.36370183      -1.95720512      -0.85098085       2.21959181
N        3.62467077       3.86628037       3.70612951       0.05286648       0.71981470       1.39169809
N        0.77848692       8.07588509       2.81685604       3.77280922      -3.96867403      -4.01850263
N        8.09555546       0.82670990       3.31322750       0.90099822      -1.17448705      -1.52299725
H        4.97388018       5.33008077       4.39935529      -0.33524845      -0.65141484      -0.93350988
H        6.03124245       5.50581693       2.27963087       1.34926694       1.16842810      -0.11417710
H        5.04347654       4.33421973       1.55636754      -0.14761524      -0.56258864      -0.96759013
H        3.22031824       3.21282965       3.03475323       0.28729767       0.17768318      -0.24893983
H        3.13354083       3.85613093       4.65216310       0.85909286       0.00181323      -1.32335247
H        0.40908306       8.70916769       4.63100780       0.46337042      -0.32852238       2.03900244
H        1.53737463       7.40481575       3.14786160      -1.20093455       1.09244627      -0.48888544
H        0.65656826       8.10783765       1.77566891       0.03346450      -0.07626758       1.03067594
H        7.80483907       1.04397958       2.38130009      -0.20270505       0.02432488      -0.90052808
H        7.68501394       1.38527071       3.99034835      -0.88382334       1.19200091       1.99859770
Pb       8.93920500       4.44915335       6.27807952       0.04146175       0.05981496      -0.03252440
Pb       4.53670455       8.82515424       0.03976567      -0.02314114       0.05400712      -0.03409631
I        8.92164800       4.49931601       3.05902814       0.06893047      -0.01188995       0.10262192
I        4.53369039       8.83979330       3.16440535      -0.05538659       0.00639417      -0.00009565
I        1.99162822       1.96988085       6.25175276      -0.12915992      -0.02828446       0.18890156
I        2.50252921       6.42747924       6.25552584      -0.06287643      -0.07995184      -0.02006841
I        6.44678544       2.52808670       6.26300836      -0.00373258      -0.08944316      -0.03921160
I        7.00318862       6.96163112       6.29968075       0.19417724       0.05547366      -0.05757899
24
Lattice="8.87415206 0.0164571 0.04140319 0.0164571 8.83457915 0.00608962 0.029273 0.0043055 6.39786219" Properties=species:S:1:pos:R:3:forces:R:3 config_id=t-FAPI3_mixed_14 phase=t-FAPI3 mode=mixed seed=2532100801 source=t-FAPI3/CONTCAR energy=-113.24333317 stress="-0.007941400994633713 0.001307443675563088 0.003165726814480303 0.001307443675563088 -0.0033597902004787513 -0.004024256924171441 0.003165726814480303 -0.004024256924171441 0.010483204418257855" pbc="T T T"
C        4.44722259       4.40974978       3.68708212       1.66417108       1.56903679      -0.99159923
C        0.04031004       8.77572500       3.65964385      -1.49939298       0.52496777       0.66726189
N        5.28706446       5.26488097       3.05889700      -1.66404726      -1.65769727       0.36805916
N        3.64070452       3.59572246       3.06494153      -0.18703360      -0.07108297      -0.36999072
N        0.98677362       8.23853973       2.95414804       0.66894330      -0.39234286      -0.29364067
N        7.90068143       0.69958927       3.20511894       2.44092251      -1.23105177      -0.95484855
H        4.49668999       4.42423829       4.78350795      -0.21818866      -0.15349834      -0.24098287
H        5.88216973       5.82658720       3.63581935       0.51680933       0.49358153       0.17068068
H        5.33435732       5.32430210       2.03591682       0.14681376       0.13828616       0.34928405
H        3.54006754       3.52423071       2.03248832       0.05357461       0.04382663       0.79081899
H        3.04295454       3.03178605       3.65447838      -0.33673290      -0.36009878      -0.09293869
H        8.88830500       8.56594642       4.80304251       0.03988764       0.26456118      -0.98916772
H        1.66453074       7.65451006       3.45108019       0.01808946       0.12129434      -0.34612822
H        1.10878528       8.38943029       1.94316535       0.00291950      -0.13765581       0.37892996
H        7.83297034       0.94271061       2.20845078      -0.14324045       0.01666434       0.41852028
H        7.24568704       1.03131236       3.84849581      -1.48284573       0.89147853       1.05280211
Pb       0.04488890       4.42542756       6.34876744      -0.03110647       0.01414342       0.01519891
Pb       4.47615844       0.01747441       6.39055729      -0.00834782      -0.04547151      -0.00602210
I        0.02849443       4.43166178       3.16335480       0.01744467      -0.00051063      -0.01254709
I        4.43463726       0.02281365       3.17244989      -0.00413869      -0.01017818       0.01568210
I        1.98209991       1.94174215       6.35834173      -0.04647787      -0.03979626      -0.00054945
I        2.51582242       6.37265632       6.36565117       0.07573468      -0.01065196      -0.02571581
I        6.40349536       2.49512305       6.35942574      -0.01159229       0.04124013       0.06899343
I        6.97428434       6.92674234       6.36455913      -0.01216582      -0.00904447       0.02789959
24
Lattice="8.85947435 -0.00551659 0.02076153 -0.00551659 8.94079627 0.06525739 0.01467887 0.04613845 6.39871811" Properties=species:S:1:pos:R:3:forces:R:3 config_id=t-FAPI3_mixed_15 phase=t-FAPI3 mode=mixed seed=2570233932 source=t-FAPI3/CONTCAR energy=-112.02288952 stress="-0.0037363095755391517 -0.0024538624200101675 0.005754951826344863 -0.0024538624200101675 -0.0068037708505301895 0.0011516747380065128 0.005754951826344863 0.0011516747380065128 0.0012163467714482832" pbc="T T T"
C        4.54220920       4.75273526       3.62027193       0.01921966       0.72659190      -1.71867343
C        8.76462658       8.92662756       3.72012307       0.88381951       0.95201472      -0.22075158
N        4.83531951       5.30238544       2.48986692       1.04113837       1.18105860      -2.14373083
N        4.00799617       3.62274097       3.68977333      -3.38028352      -7.62631254       2.81036434
N        0.84511124       8.23935115       3.07168519       0.29290291      -1.38354610       4.41873826
N        7.95463407       0.87160848       3.09394524       3.29679953      -4.20352523      -3.41241842
H        4.63879903       5.30830618       4.49130282       0.45687051       1.12623282       1.79625368
H        5.22174528       6.25710173       2.56466438      -0.15205249      -0.48928125      -0.69495127
H        4.74937091       4.79912797       1.55775551       0.19310882       0.96361128       1.44281226
H        3.72734868       2.82134395       2.96701132       1.06096163       2.50697922       1.13693744
H        3.74973577       3.16708006       4.71259728       0.62709706       1.53740477      -2.66331800
H        8.83350532       8.88658582       4.80669877      -0.30185469       0.03487141       0.06728813
H        1.40902747       7.55008818       3.70515591      -1.15516510       1.42602297      -1.47802189
H        0.90300124       8.08625190       2.11938547       0.16340429      -0.25701757      -2.69479737
H        7.95318704       0.88106756       2.04899431      -0.44661539       0.61152102       1.04318654
H        7.46536422       1.45752893       3.63716277      -2.56550998       2.82617292       2.26903172
Pb       8.78711910       4.52792281       6.39709055       0.36316075      -0.08889925      -0.00492347
Pb       4.57079489       8.96306322       6.40566119      -0.62849276       0.05796836       0.01438702
I        0.00985787       4.46324246       3.14674738      -0.02718416       0.04123750       0.02560139
I        4.44856151       0.03670618       3.14876992      -0.04661699      -0.03465435      -0.03584994
I        1.95468176       2.00677953       6.30432736      -0.02697559       0.01561721       0.09748398
I        2.45294969       6.47205650       6.40733868      -0.00108060       0.12891003      -0.15070492
I        6.34797855       2.55264645       6.32588501       0.00943270       0.09570615       0.08954164
I        6.93240883       7.10944410       6.42766503       0.32391553      -0.14868461       0.00651475
24
Lattice="9.00061437 -0.02425172 0.06442853 -0.02425172 8.83408659 -0.05175118 0.04555243 -0.03658926 6.34170116" Properties=species:S:1:pos:R:3:forces:R:3 config_id=t-FAPI3_mixed_16 phase=t-FAPI3 mode=mixed seed=337318137 source=t-FAPI3/CONTCAR energy=-112.38437109 stress="-0.0024210339107701953 -0.0010651120843018609 -0.006467247440438996 -0.0010651120843018609 -0.014817836992369625 0.0057134639409662765 -0.006467247440438996 0.0057134639409662765 -0.01028553606765999" pbc="T T T"
C        4.67594779       4.42174483       3.54221079       0.27792050      -0.86227516       3.25378568
C        9.02181103       0.04622782       3.72840417       4.11998496      -4.68256790      -0.85765978
N        4.74789237       5.52290265       2.86232206       0.59826103      -1.67431898       2.32879974
N        4.20073825       3.25194936       3.16879317       1.54359445       2.95442226       1.87236986
N        0.85728957       8.06455713       2.96139448       0.04079235       0.12939748       2.21425977
N        8.20767344       0.73933512       3.08380812      -4.00748396       4.03522588       0.08764306
H        5.02849747       4.47627345       4.65998942      -0.58792755      -0.08504139      -2.00053660
H        5.11453427       6.30610544       3.33552827       0.57960356       1.46913548       0.25931012
H        4.50108896       5.53651370       1.94423525      -0.91842229       0.57586012      -3.52704842
H        3.87657703       3.08307889       2.29854931      -1.45461346      -0.68263572      -3.80365681
H        4.07723648       2.53709647       3.81628378      -0.10519456      -1.51998790       1.54411535
H        0.04250459       8.77117167       4.68053171      -0.35154965       0.60432013       0.50571560
H        1.45534207       7.42824469       3.54818580      -0.74120438       0.81075860      -0.79889629
H        0.88278152       7.92305866       1.95839514      -0.02967385       0.09512141      -0.20109614
H        8.14923512       0.86714392       2.06849528       0.13528191      -0.18543869       0.18726881
H        7.57109180       1.36636034       3.67058648       0.81199689      -0.81796121      -1.14989403
Pb       9.02566314       4.28296583       6.33715205       0.06131168       0.12991120      -0.04077315
Pb       4.55636180       8.72851236       6.23429056      -0.02054508       0.00745681       0.06175049
I        8.99077418       4.38217636       3.10943941       0.00187711      -0.00930364       0.06584134
I        4.58282836       0.02598316       3.14733232       0.02766210      -0.15218529      -0.02637438
I        1.99899375       1.90530159       6.27427132       0.20692995      -0.21572409       0.08185311
I        2.57088811       6.32788395       6.20528936      -0.07249621      -0.10508467      -0.02814935
I        6.50046787       2.41626257       6.33507973       0.01136228      -0.01287397      -0.02584707
I        7.07237957       6.79756623       6.26589584      -0.12746777       0.19378926      -0.00278092
24
Lattice="8.91097689 0.0488895 -0.0278266 0.0488895 8.98228674 0.05797905 -0.01967404 0.0409925 6.42384976" Properties=species:S:1:pos:R:3:forces:R:3 config_id=t-FAPI3_mixed_17 phase=t-FAPI3 mode=mixed seed=469458426 source=t-FAPI3/CONTCAR energy=-112.21987495 stress="0.0015884203195583168 0.002584845706918457 -0.0005655867450790354 0.002584845706918457 0.002704573549348349 0.002752554457946064 -0.0005655867450790354 0.002752554457946064 0.010921153612429495" pbc="T T T"
C        4.47008368       4.51637403       3.74379703       0.79887597       0.98012199      -4.68491932
C        0.04939211       0.09182046       3.64067541      -3.80530637       2.03452134       0.56385857
N        5.35368621       5.33436336       3.11524268      -0.46988923      -0.17067466       0.18779207
N        3.63161914       3.74126611       3.04475591       1.18246751       1.01487388       2.16445621
N        0.93918284       8.09997836       3.51422874      -3.27509627       2.49846843      -8.80424249
N        8.09413224       0.80076234       2.75919883       3.24955379      -2.87358640      -1.52241710
H        4.42135481       4.55789828       4.78192198      -0.16046873      -0.09225612       1.89075660
H        5.92629172       5.98420170       3.71986001      -0.64415822      -0.81220468      -0.96047648
H        5.42863748       5.41772326       2.03776200      -0.06836961      -0.12516119       2.20131099
H        3.65985749       3.57740264       2.06818592       0.16407349       0.02373656      -1.29240179
H        3.08917020       3.10679941       3.58349724      -0.81559185      -0.75816185       0.48520392
H        8.68397717       0.38609691       4.65296939       0.64325132       0.02967559      -0.11936759
H        1.38748678       7.76668926       4.24400278       3.23718199      -2.60310951       4.44059651
H        1.07150313       7.81373647       2.44127780       0.35484228       0.08703025       2.98833574
H        8.16307682       0.60060294       1.71012640      -0.26318227       0.47849322       1.69812618
H        7.42604036       1.50180308       3.02818693      -0.09046808       0.27693846       0.59093318
Pb       0.01751369       4.52483064       6.42606485       0.17307640       0.03854880      -0.00220584
Pb       4.50366598       0.15874148       6.38677843       0.00666782      -0.18015615      -0.03850387
I        0.02382954       4.48173304       3.16434251       0.00670756      -0.00242529       0.02986194
I        4.49517557       0.07728106       3.07537828      -0.01096818      -0.00483972       0.08617734
I        2.02840352       2.02258846       6.33392841      -0.04795562       0.04066795      -0.00836438
I        2.45708975       6.53385766       6.41403385       0.26879623       0.18019437       0.15270472
I        6.48659865       2.64958132       6.32141644      -0.29457092      -0.19867749      -0.01841607
I        7.03830493       7.05570389       6.40431268      -0.13946900       0.13798220      -0.02879907
24
Lattice="8.95158397 0.0 0.0 0.0 8.95158397 0.0 0.0 0.0 6.32897243" Properties=species:S:1:pos:R:3:forces:R:3 config_id=t-FAPI3_small_rotation_01 phase=t-FAPI3 mode=small_rotation seed=3862067677 source=t-FAPI3/CONTCAR energy=-113.51147919 stress="-0.0008337550571253474 4.79776817374965e-05 -0.00013826534298658517 4.79776817374965e-05 -0.0008817552207787153 0.0004991969047711123 -0.00013826534298658517 0.0004991969047711123 0.0015977816033302089" pbc="T T T"
C        4.49306747       4.48272803       3.61354567      -0.01669542      -0.00074072      -0.00137794
C        8.90425668       0.02310377       3.61064168       0.03891007      -0.00297366      -0.00829369
N        5.28882399       5.30468566       2.96904881       0.01345776       0.01061103       0.00727442
N        3.64821160       3.64106967       3.06383068       0.01134547       0.01429491      -0.01108278
N        0.84696907       8.12711265       3.15661785      -0.04163286       0.03361957      -0.04390709
N        8.14449027       0.80498972       2.87870653      -0.02907358       0.02941561       0.01817115
H        4.53782682       4.50065456       4.70350029       0.00348968      -0.00140824      -0.00130787
H        5.90578899       5.91603901       3.50083863      -0.01190086      -0.01266341      -0.01452351
H        5.33339231       5.37536056       1.95262761       0.00316030      -0.00370977       0.00850450
H        3.52055781       3.53710767       2.05736109       0.00359397      -0.00053174      -0.00769422
H        3.07777057       3.04836811       3.66422118      -0.01381759      -0.01098925       0.01196072
H        8.78145840       0.08307204       4.69307191      -0.00415743       0.00091836      -0.00001047
H        1.38174914       7.56860354       3.81935259       0.04185322      -0.04110057       0.04458265
H        1.04772910       7.98595020       2.16673124      -0.01115211       0.00285768      -0.01799416
H        8.17162736       0.83486760       1.85965146       0.00022559      -0.00189125       0.02619337
H        7.48215380       1.42579102       3.34032039       0.03132159      -0.02895464      -0.03709330
Pb       8.95158102       4.47579055       6.28333845      -0.02867880      -0.00802547       0.00160991
Pb       4.47578930       0.00000027       6.28333839       0.02740395       0.01503406       0.00131863
I        8.95158316       4.47578867       3.11507574      -0.00350968       0.00000636       0.00116762
I        4.47579118       0.00000331       3.11507567       0.00473101       0.00386241       0.00193973
I        1.95657823       1.95658119       6.26906953      -0.00777891      -0.01164642       0.00825620
I        2.51920391       6.43237577       6.26906579       0.00551667       0.00062138       0.03286462
I        6.43237067       2.51920901       6.26906839      -0.01559854       0.01112789      -0.01576173
I        6.99499616       6.99499911       6.26906560      -0.00101350       0.00226587      -0.00479677
24
Lattice="8.95158397 0.0 0.0 0.0 8.95158397 0.0 0.0 0.0 6.32897243" Properties=species:S:1:pos:R:3:forces:R:3 config_id=t-FAPI3_small_rotation_02 phase=t-FAPI3 mode=small_rotation seed=1062581836 source=t-FAPI3/CONTCAR energy=-113.49296825 stress="0.0003146635854343382 0.00012126051989386264 -8.270783525341528e-05 0.00012126051989386264 -0.0022696637891172506 0.0008851396229286434 -8.270783525341528e-05 0.0008851396229286434 0.001266449356243159" pbc="T T T"
C        4.49747380       4.49503673       3.61295764      -0.01282911      -0.00988420      -0.01013952
C        8.86573891       0.03118508       3.60391449       0.06691657       0.00620948      -0.02447715
N        5.19149332       5.38168584       2.93737693       0.05301378      -0.02898602       0.01464430
N        3.74183076       3.55370105       3.09599794      -0.01686997       0.06252038      -0.01286485
N        0.77112811       8.05629882       3.24123418      -0.03809911       0.08389033      -0.06886520
N        8.25277651       0.86899614       2.79975690      -0.08695644       0.00106986       0.02546191
H        4.55367005       4.54488953       4.70138882       0.00685171      -0.00259056      -0.00113134
H        5.74529587       6.06910393       3.44527298      -0.01936664      -0.01387980      -0.02648571
H        5.21542690       5.43136077       1.91901900       0.00493545      -0.00902317       0.01682986
H        3.61358705       3.41148455       2.09429305      -0.00043127       0.00800176      -0.01020884
H        3.24642871       2.91810090       3.71869863      -0.02530680      -0.01436901       0.01056256
H        8.64301822       0.11211922       4.66889144      -0.01207560      -0.00183302       0.00443132
H        1.18738277       7.45989103       3.95409419       0.07360169      -0.05342363       0.05917746
H        1.05495106       7.88860513       2.27612785      -0.01481590       0.00962051      -0.02341635
H        8.38230342       0.88649461       1.78831293       0.01086472      -0.00586084       0.03944200
H        7.60517363       1.54947416       3.19311614       0.05619741      -0.02923761      -0.05374127
Pb       8.95158102       4.47579055       6.28333845      -0.04517797      -0.00918003       0.00270129
Pb       4.47578930       0.00000027       6.28333839       0.04437550       0.01704282       0.00099512
I        8.95158316       4.47578867       3.11507574      -0.00571951      -0.00190603       0.00179776
I        4.47579118       0.00000331       3.11507567       0.00729935       0.00241971       0.00390369
I        1.95657823       1.95658119       6.26906953      -0.00132930      -0.03097426       0.00875401
I        2.51920391       6.43237577       6.26906579      -0.00313183      -0.00924375       0.06126935
I        6.43237067       2.51920901       6.26906839      -0.02547872       0.02523230      -0.01789198
I        6.99499616       6.99499911       6.26906560      -0.01646800       0.00438477      -0.00074844
24
Lattice="8.95158397 0.0 0.0 0.0 8.95158397 0.0 0.0 0.0 6.32897243" Properties=species:S:1:pos:R:3:forces:R:3 config_id=t-FAPI3_small_rotation_03 phase=t-FAPI3 mode=small_rotation seed=3138974028 source=t-FAPI3/CONTCAR energy=-113.51331815 stress="-0.0009909107206964932 2.032721584948495e-05 -0.0002430065605411186 2.032721584948495e-05 -0.000756965046334547 0.00010874514565878754 -0.0002430065605411186 0.00010874514565878754 0.001679240306637734" pbc="T T T"
C        4.47580863       4.47581213       3.61395769      -0.00232414      -0.00180829      -0.00086578
C        8.93911298       0.03069427       3.61264544      -0.00053698      -0.02598524      -0.00419869
N        5.30254327       5.30254703       3.01626364      -0.00014367       0.00267575      -0.00050682
N        3.64903040       3.64903389       3.01626877       0.00144611       0.00096870      -0.00061607
N        0.84447256       8.12889966       3.10109883      -0.02638124       0.01902648      -0.02345195
N        8.11762567       0.79680887       2.93253760      -0.01116728       0.02618229       0.01335884
H        4.47579449       4.47579807       4.70497829       0.00104720      -0.00131223      -0.00145958
H        5.90092282       5.90092640       3.58290572       0.00014299      -0.00163572      -0.00257853
H        5.38933711       5.38934016       2.00382742       0.00114133      -0.00195084      -0.00044317
H        3.56224775       3.56225070       2.00383501       0.00162619      -0.00032851      -0.00024640
H        3.05066696       3.05067028       3.58291604      -0.00037475       0.00097339      -0.00090775
H        8.90673976       0.11035387       4.70027454      -0.00021756       0.00249717      -0.00073680
H        1.43503353       7.58422442       3.72696313       0.02164699      -0.02641522       0.02527754
H        0.96259900       7.96998711       2.10064905      -0.00283941       0.00404124      -0.01258479
H        8.05957152       0.80789057       1.91439752       0.00173559       0.00100469       0.01545043
H        7.49343512       1.42423022       3.43642235       0.01898270      -0.02081774      -0.02435781
Pb       8.95158102       4.47579055       6.28333845      -0.01218773      -0.01258139       0.00125804
Pb       4.47578930       0.00000027       6.28333839       0.00896127       0.01373275       0.00143487
I        8.95158316       4.47578867       3.11507574      -0.00253366      -0.00225846       0.00116571
I        4.47579118       0.00000331       3.11507567       0.00088144       0.00147230       0.00232981
I        1.95657823       1.95658119       6.26906953       0.00348969      -0.00060314       0.00437085
I        2.51920391       6.43237577       6.26906579       0.00341440       0.00286834       0.02086998
I        6.43237067       2.51920901       6.26906839      -0.01452164       0.00798000      -0.01167695
I        6.99499616       6.99499911       6.26906560       0.00871219       0.01227369      -0.00088496
24
Lattice="8.95158397 0.0 0.0 0.0 8.95158397 0.0 0.0 0.0 6.32897243" Properties=species:S:1:pos:R:3:forces:R:3 config_id=t-FAPI3_small_rotation_04 phase=t-FAPI3 mode=small_rotation seed=827087127 source=t-FAPI3/CONTCAR energy=-113.50702434 stress="-0.0013275443683218675 -4.7945275822114905e-06 0.0003523367290917843 -4.7945275822114905e-06 -0.000534433681582779 -0.00027476307810570194 0.0003523367290917843 -0.00027476307810570194 0.001576986392884956" pbc="T T T"
C        4.43364918       4.52265496       3.60920887       0.06039122      -0.06783217      -0.01543835
C        0.00000662       8.95157287       3.61395307       0.00138966      -0.00083140       0.00109581
N        5.37291758       5.22661191       3.02061874      -0.02278348       0.03237527      -0.01082456
N        3.61416918       3.68551088       3.01591390       0.02116817      -0.00743349      -0.00104589
N        0.82676525       8.12481523       3.01626668      -0.00446603      -0.00272369      -0.00428374
N        8.12482239       0.82675782       3.01626820       0.00264890       0.00418710       0.00013600
H        4.32426163       4.64416412       4.68790981      -0.00521278       0.00659085       0.00717843
H        5.95257525       5.84742637       3.58256680       0.00087179      -0.00312986      -0.00088558
H        5.56672985       5.19473532       2.01986199      -0.01843181       0.00171528       0.00232965
H        3.62335780       3.49185840       2.01466521      -0.00202354       0.00401316      -0.00230245
H        2.92091877       3.19094151       3.57445832       0.00587138      -0.00752616      -0.00629795
H        0.00000349       8.95157627       4.70497583       0.00090393      -0.00117973      -0.00109244
H        1.42512583       7.52645429       3.58289566       0.00241838       0.00444036       0.00203681
H        0.91354602       8.03803589       2.00382147      -0.00068604       0.00351047       0.00043519
H        8.03803678       0.91354495       2.00382628      -0.00083829      -0.00155381      -0.00135364
H        7.52645591       1.42512386       3.58291357      -0.00147162      -0.00529648      -0.00424561
Pb       8.95158102       4.47579055       6.28333845       0.00895663       0.00253167       0.00085501
Pb       4.47578930       0.00000027       6.28333839      -0.00297860      -0.00819608       0.00098091
I        8.95158316       4.47578867       3.11507574       0.00400594      -0.00341539       0.00449079
I        4.47579118       0.00000331       3.11507567       0.00307657      -0.00329062       0.00020803
I        1.95657823       1.95658119       6.26906953      -0.01837477       0.00276053       0.00743952
I        2.51920391       6.43237577       6.26906579      -0.03412057       0.02131599       0.02077749
I        6.43237067       2.51920901       6.26906839      -0.02123888       0.03567954      -0.00128915
I        6.99499616       6.99499911       6.26906560       0.02092383      -0.00671136       0.00109571
24
Lattice="8.95158397 0.0 0.0 0.0 8.95158397 0.0 0.0 0.0 6.32897243" Properties=species:S:1:pos:R:3:forces:R:3 config_id=t-FAPI3_small_rotation_05 phase=t-FAPI3 mode=small_rotation seed=3711218338 source=t-FAPI3/CONTCAR energy=-113.50420844 stress="-0.0007397755869188627 -5.520596721467277e-05 0.00020124384903270212 -5.520596721467277e-05 -0.0010694986543645863 -0.0007598702066892625 0.00020124384903270212 -0.0007598702066892625 0.0014058023758175664" pbc="T T T"
C        4.38217247       4.51098943       3.60189169       0.09908838      -0.07754102      -0.02913050
C        0.00917519       0.00307854       3.61384168      -0.00954927      -0.00960570       0.00284377
N        5.32180923       5.29989351       3.13398987      -0.03295740      -0.02248180      -0.04442390
N        3.70863909       3.62205561       2.90870624      -0.04266064      -0.01095971       0.00402920
N        0.82906482       8.12981102       3.00417923      -0.00034912      -0.00404610      -0.00355235
N        8.11479975       0.81915945       3.02844938       0.00424409       0.00140885      -0.00282160
H        4.13924868       4.60223159       4.66160338      -0.01153136       0.00974831       0.01645746
H        5.77942906       5.95447165       3.76590036       0.03968770       0.02144411       0.03071758
H        5.63189899       5.30328017       2.16243128      -0.02192532       0.00172664      -0.01151936
H        3.84938699       3.44931251       1.91350051       0.00706378       0.01413941       0.01494588
H        2.99871412       3.06228558       3.37756740       0.03130554       0.02135182      -0.02815992
H        0.03295740       0.01109692       4.70457577       0.00379052       0.00047915      -0.00065303
H        1.44423755       7.54017027       3.56187619      -0.00545337       0.00440834      -0.00014490
H        0.89441998       8.03625497       1.99072834      -0.00030431       0.00496268       0.00256473
H        8.00529511       0.89784772       2.01754920       0.00346306       0.00211899      -0.00406663
H        7.52432758       1.41713072       3.60372696      -0.00057018      -0.00044848      -0.00204244
Pb       8.95158102       4.47579055       6.28333845       0.02769976      -0.01173420      -0.00006891
Pb       4.47578930       0.00000027       6.28333839      -0.02326970       0.00021852       0.00124783
I        8.95158316       4.47578867       3.11507574       0.00919356      -0.00791861       0.00064190
I        4.47579118       0.00000331       3.11507567       0.00113405      -0.00425874       0.00316992
I        1.95657823       1.95658119       6.26906953      -0.01187617      -0.01898506      -0.01033648
I        2.51920391       6.43237577       6.26906579      -0.03659465       0.04476124       0.02907932
I        6.43237067       2.51920901       6.26906839      -0.03922782       0.03000115       0.00215865
I        6.99499616       6.99499911       6.26906560       0.00959889       0.01121022       0.02906376
24
Lattice="8.95158397 0.0 0.0 0.0 8.95158397 0.0 0.0 0.0 6.32897243" Properties=species:S:1:pos:R:3:forces:R:3 config_id=t-FAPI3_small_rotation_06 phase=t-FAPI3 mode=small_rotation seed=1368476405 source=t-FAPI3/CONTCAR energy=-113.51313731 stress="-0.0009241290009965923 -3.0229376319207868e-06 0.00020953385890275502 -3.0229376319207868e-06 -0.0008477153469645736 -0.00014167780072003408 0.00020953385890275502 -0.00014167780072003408 0.0016904587264839962" pbc="T T T"
C        4.46094775       4.50246153       3.61284891       0.02525414      -0.03603984      -0.00393071
C        0.00571254       8.95086006       3.61391370      -0.00516971      -0.00197574      -0.00077627
N        5.32221769       5.27739192       2.99485551      -0.00105144       0.01502844       0.00215248
N        3.64187406       3.65174085       3.03861086       0.00817303       0.00585899      -0.00581415
N        0.81499249       8.11594448       3.00377506       0.00536134       0.00130047       0.00031438
N        8.13178878       0.83622905       3.02879292       0.00113972      -0.00544738      -0.00254483
H        4.42238066       4.57158199       4.70099452      -0.00203047       0.00279917       0.00051780
H        5.91028376       5.90159482       3.54417171      -0.00516554      -0.00738445      -0.00829118
H        5.44619570       5.29856778       1.98279111      -0.00568246       0.00268320       0.00370487
H        3.58945904       3.50226533       2.03114162      -0.00113899       0.00398974      -0.00417683
H        3.01377811       3.09936636       3.61959686      -0.00209727      -0.00924719       0.00466523
H        0.02051202       8.94901406       4.70483450       0.00060970      -0.00074341      -0.00132368
H        1.41425986       7.50998571       3.56129842      -0.00238778       0.00404352      -0.00353955
H        0.88705336       8.02991868       1.99011158       0.00019130       0.00179155       0.00248731
H        8.03225030       0.92569494       2.01775869      -0.00038588      -0.00133857      -0.00292226
H        7.54789155       1.44027200       3.60443809      -0.00417688       0.00110601       0.00058807
Pb       8.95158102       4.47579055       6.28333845       0.00340382       0.00587868       0.00125202
Pb       4.47578930       0.00000027       6.28333839      -0.00004322      -0.00864182       0.00115512
I        8.95158316       4.47578867       3.11507574       0.00146485      -0.00098768       0.00276438
I        4.47579118       0.00000331       3.11507567       0.00166164      -0.00262769       0.00094204
I        1.95657823       1.95658119       6.26906953      -0.00559982       0.00134010       0.00789236
I        2.51920391       6.43237577       6.26906579      -0.01310102       0.00516524       0.00675310
I        6.43237067       2.51920901       6.26906839      -0.01238861       0.02010433       0.00086224
I        6.99499616       6.99499911       6.26906560       0.01315956       0.00334433      -0.00273195
24
Lattice="8.95158397 0.0 0.0 0.0 8.95158397 0.0 0.0 0.0 6.32897243" Properties=species:S:1:pos:R:3:forces:R:3 config_id=t-FAPI3_small_rotation_07 phase=t-FAPI3 mode=small_rotation seed=1765817918 source=t-FAPI3/CONTCAR energy=-113.48587851 stress="-0.0027184383815470046 1.481769843086703e-05 -0.00019463284256656657 1.481769843086703e-05 0.0003958262789300589 -0.0004102082326428115 -0.00019463284256656657 -0.0004102082326428115 0.0012882170874328614" pbc="T T T"
C        4.46503120       4.50308859       3.61293321       0.01867977      -0.03518886      -0.01367405
C        0.05900159       0.05601749       3.60600799      -0.07965411      -0.08310775      -0.02860638
N        5.41436628       5.16726031       2.99498678      -0.05018596       0.06078360       0.00769435
N        3.54628573       3.76134423       3.03840859       0.06606529      -0.03143417       0.00351335
N        0.89097022       8.20181845       2.98727613      -0.04765247      -0.02795854       0.00624959
N        8.01092324       0.70255907       3.05195114       0.05197362       0.05277379      -0.02354647
H        4.43705141       4.57384316       4.70129749      -0.00314676       0.00236346       0.00138096
H        6.07587070       5.71279249       3.54453728      -0.00375413      -0.01016028      -0.01909594
H        5.53837239       5.17538772       1.98273694      -0.01300947       0.00169933       0.00645831
H        3.47419138       3.62188660       2.03071884       0.00463420      -0.00023475      -0.00368244
H        2.85575222       3.28933365       3.61938744      -0.00322413      -0.01014074      -0.00506559
H        0.21204324       0.20137027       4.67641988       0.00765516       0.00815755       0.01295982
H        1.63326627       7.75175474       3.51979732      -0.00082955       0.00218494      -0.01929572
H        0.84507554       7.99071728       1.99056316       0.00184116       0.00560714       0.00026400
H        7.77276751       0.64390507       2.06203004       0.02739853      -0.00404629       0.00458596
H        7.42759300       1.30360584       3.63129546      -0.01144199      -0.00181832       0.00420001
Pb       8.95158102       4.47579055       6.28333845       0.00910401      -0.00168221       0.00063088
Pb       4.47578930       0.00000027       6.28333839      -0.01340134      -0.00788953       0.00012983
I        8.95158316       4.47578867       3.11507574      -0.00211060      -0.00355962       0.00540540
I        4.47579118       0.00000331       3.11507567      -0.00579181      -0.00661681       0.00423087
I        1.95657823       1.95658119       6.26906953       0.02330845       0.05354700       0.04005011
I        2.51920391       6.43237577       6.26906579       0.00268317       0.00561541       0.01575209
I        6.43237067       2.51920901       6.26906839      -0.02727357       0.00977719       0.00058627
I        6.99499616       6.99499911       6.26906560       0.04813253       0.02132846      -0.00112520
24
Lattice="8.95158397 0.0 0.0 0.0 8.95158397 0.0 0.0 0.0 6.32897243" Properties=species:S:1:pos:R:3:forces:R:3 config_id=t-FAPI3_small_rotation_08 phase=t-FAPI3 mode=small_rotation seed=3491413932 source=t-FAPI3/CONTCAR energy=-113.50205389 stress="-0.0016077925408209779 1.0720472248199219e-05 0.000538179336039404 1.0720472248199219e-05 -0.0003323690491339867 0.00018908057705194548 0.000538179336039404 0.00018908057705194548 0.001506527132317521" pbc="T T T"
C        4.47580863       4.47581213       3.61395769       0.00066039      -0.00055743       0.00193321
C        8.92057801       8.88326109       3.60720708       0.05990113       0.07954611      -0.02197773
N        5.30254327       5.30254703       3.01626364      -0.00358333       0.00549267      -0.00440142
N        3.64903040       3.64903389       3.01626877       0.00413562      -0.00600732       0.00052918
N        0.91683430       8.24054238       2.96471302      -0.02286433      -0.05781677      -0.00070965
N        8.06087684       0.76857315       3.07350426       0.04684558      -0.00070108      -0.00999915
H        4.47579449       4.47579807       4.70497829       0.00028716       0.00228185      -0.00097529
H        5.90092282       5.90092640       3.58290572       0.00238878      -0.00682922       0.00184205
H        5.38933711       5.38934016       2.00382742      -0.00159877      -0.00373323       0.00013922
H        3.56224775       3.56225070       2.00383501      -0.00170474       0.00308362      -0.00171728
H        3.05066696       3.05067028       3.58291604      -0.00197378       0.00730794      -0.00486299
H        8.84011983       8.70604659       4.68073035      -0.00641336      -0.00920377       0.00946865
H        1.52914341       7.61307582       3.48288562      -0.01188995       0.01779850      -0.01647942
H        1.08635823       8.32734428       1.96279789      -0.01982016       0.00338410       0.01066302
H        8.04066765       1.01068584       2.08301172      -0.00156610      -0.00355208      -0.01109947
H        7.36499090       1.21196364       3.67042876      -0.00422019       0.02668884       0.00421945
Pb       8.95158102       4.47579055       6.28333845       0.00457652       0.01633257       0.00071254
Pb       4.47578930       0.00000027       6.28333839       0.00293240      -0.01216015       0.00109902
I        8.95158316       4.47578867       3.11507574       0.00380740       0.00372311      -0.00047733
I        4.47579118       0.00000331       3.11507567       0.00296509       0.00164844       0.00598610
I        1.95657823       1.95658119       6.26906953      -0.01945833      -0.04161417      -0.00261523
I        2.51920391       6.43237577       6.26906579       0.02989232       0.00631658      -0.00846079
I        6.43237067       2.51920901       6.26906839      -0.02209323      -0.01048620       0.02344531
I        6.99499616       6.99499911       6.26906560      -0.04120612      -0.02094288       0.02373800
24
Lattice="8.95158397 0.0 0.0 0.0 8.95158397 0.0 0.0 0.0 6.32897243" Properties=species:S:1:pos:R:3:forces:R:3 config_id=t-FAPI3_small_rotation_09 phase=t-FAPI3 mode=small_rotation seed=2344549124 source=t-FAPI3/CONTCAR energy=-113.51262074 stress="-0.0011371571001268727 5.582124894279321e-06 -1.4098726511638285e-05 5.582124894279321e-06 -0.0006472855779671605 0.00017607577487876422 -1.4098726511638285e-05 0.00017607577487876422 0.0016901300860624818" pbc="T T T"
C        4.47580863       4.47581213       3.61395769      -0.00142166      -0.00120626      -0.00080312
C        8.92731703       8.95157018       3.61325213       0.02486183       0.01159576      -0.00398210
N        5.30254327       5.30254703       3.01626364      -0.00178093       0.00362767      -0.00137080
N        3.64903040       3.64903389       3.01626877       0.00268647      -0.00123333       0.00026640
N        0.87028606       8.16107415       3.06628044      -0.02768301      -0.00210051      -0.01390040
N        8.10174852       0.79050122       2.96684481       0.00270595       0.02057147       0.00950732
H        4.47579449       4.47579807       4.70497829       0.00100657      -0.00029830      -0.00137518
H        5.90092282       5.90092640       3.58290572       0.00158776      -0.00306213      -0.00111700
H        5.38933711       5.38934016       2.00382742       0.00071252      -0.00253455      -0.00010611
H        3.56224775       3.56225070       2.00383501       0.00020046       0.00044299      -0.00069128
H        3.05066696       3.05067028       3.58291604      -0.00170092       0.00272500      -0.00229256
H        8.86434201       8.95156607       4.70245595      -0.00134000      -0.00018629      -0.00064464
H        1.46004049       7.58895058       3.66794806       0.01246778      -0.01481766       0.01348948
H        1.01899810       8.07810747       2.06074178      -0.00815762      -0.00241547      -0.00679962
H        8.06990379       0.87348912       1.95087176       0.00027258       0.00091673       0.00821114
H        7.44657761       1.36262193       3.49656202       0.01349864      -0.00982955      -0.01646487
Pb       8.95158102       4.47579055       6.28333845      -0.00824004      -0.00406284       0.00136903
Pb       4.47578930       0.00000027       6.28333839       0.00874724       0.00712434       0.00122825
I        8.95158316       4.47578867       3.11507574      -0.00006111       0.00020655       0.00059608
I        4.47579118       0.00000331       3.11507567       0.00205066       0.00236657       0.00323903
I        1.95657823       1.95658119       6.26906953      -0.00768070      -0.01635372      -0.00011407
I        2.51920391       6.43237577       6.26906579       0.01079161       0.00734315       0.01222335
I        6.43237067       2.51920901       6.26906839      -0.01581776       0.00084193      -0.00561473
I        6.99499616       6.99499911       6.26906560      -0.00770633       0.00033846       0.00514641
24
Lattice="8.95158397 0.0 0.0 0.0 8.95158397 0.0 0.0 0.0 6.32897243" Properties=species:S:1:pos:R:3:forces:R:3 config_id=t-FAPI3_small_rotation_10 phase=t-FAPI3 mode=small_rotation seed=2111823114 source=t-FAPI3/CONTCAR energy=-113.51420967 stress="-0.0010056023843335814 4.717270182251308e-07 5.7719578977394105e-05 4.717270182251308e-07 -0.0007591159577604543 -2.046259418242536e-05 5.7719578977394105e-05 -2.046259418242536e-05 0.0017185803576544114" pbc="T T T"
C        4.47580863       4.47581213       3.61395769      -0.00158424      -0.00171184      -0.00105874
C        0.00258334       8.94464542       3.61388800      -0.00011027       0.00646463      -0.00146582
N        5.30254327       5.30254703       3.01626364       0.00004643       0.00194864      -0.00084567
N        3.64903040       3.64903389       3.01626877       0.00218077      -0.00024984       0.00000570
N        0.84229464       8.14489972       2.99778811      -0.00331309      -0.01057743       0.00285139
N        8.10712260       0.81250869       3.03480152       0.01158112       0.00070792      -0.00425635
H        4.47579449       4.47579807       4.70497829      -0.00011726       0.00040338      -0.00136629
H        5.90092282       5.90092640       3.58290572       0.00044189      -0.00160811      -0.00171959
H        5.38933711       5.38934016       2.00382742      -0.00047730      -0.00071790      -0.00036105
H        3.56224775       3.56225070       2.00383501      -0.00025028       0.00109870      -0.00052369
H        3.05066696       3.05067028       3.58291604      -0.00076545       0.00136934      -0.00169225
H        0.00926462       8.92667708       4.70474235      -0.00000563      -0.00055645      -0.00132039
H        1.45615139       7.54962950       3.55093612      -0.00481166       0.00408357      -0.00681697
H        0.92461627       8.07659967       1.98355686      -0.00167768      -0.00125536       0.00336322
H        8.01238996       0.91417093       2.02445860       0.00174525       0.00001561      -0.00335375
H        7.50020315       1.38911620       3.61475298      -0.00354634       0.00594030       0.00357575
Pb       8.95158102       4.47579055       6.28333845       0.00271842       0.00281532       0.00130294
Pb       4.47578930       0.00000027       6.28333839      -0.00197311      -0.00305822       0.00130702
I        8.95158316       4.47578867       3.11507574       0.00054838       0.00049929       0.00117424
I        4.47579118       0.00000331       3.11507567      -0.00017568      -0.00034515       0.00249321
I        1.95657823       1.95658119       6.26906953      -0.00381335      -0.00794094       0.00142246
I        2.51920391       6.43237577       6.26906579       0.00966563      -0.00174288      -0.00135740
I        6.43237067       2.51920901       6.26906839      -0.00717450      -0.00066039       0.00593110
I        6.99499616       6.99499911       6.26906560       0.00086795       0.00507781       0.00271094
24
Lattice="8.95158397 0.0 0.0 0.0 8.95158397 0.0 0.0 0.0 6.32897243" Properties=species:S:1:pos:R:3:forces:R:3 config_id=t-FAPI3_small_rotation_11 phase=t-FAPI3 mode=small_rotation seed=2304314566 source=t-FAPI3/CONTCAR energy=-113.49908489 stress="-0.0021411233040506492 5.0538310788463105e-06 0.00031788432273196734 5.0538310788463105e-06 7.541528095676978e-05 0.00013427291798365006 0.00031788432273196734 0.00013427291798365006 0.0015571423197738876" pbc="T T T"
C        4.47529311       4.50856176       3.61267917       0.01421745      -0.03288660      -0.01588070
C        8.93288295       8.94443908       3.61347624       0.02315622       0.01602701      -0.00231782
N        5.40732622       5.16682697       2.96289439      -0.04236669       0.06050377       0.01262037
N        3.54468170       3.75716724       3.07071502       0.06524527      -0.01878258      -0.00066162
N        0.86804414       8.16301719       3.04133125      -0.02775403      -0.01590520      -0.00891757
N        8.09930196       0.79456506       2.99160527       0.01364460       0.02368453       0.00572906
H        4.47393498       4.59351480       4.70038637      -0.00094282       0.00434539       0.00055159
H        6.08068997       5.72108810       3.48879846      -0.01058606      -0.01238676      -0.02218686
H        5.50634300       5.16197503       1.94787449      -0.01155832       0.00057603       0.01168458
H        3.44816850       3.60433747       2.06701543       0.00601467      -0.00579751      -0.00892337
H        2.86994174       3.29117633       3.67465658      -0.00626369      -0.02462961      -0.00010841
H        8.88434737       8.92593526       4.70326188      -0.00172636      -0.00229863      -0.00059448
H        1.46537179       7.58051819       3.62531249       0.01158657       0.00034588       0.00660626
H        1.00336756       8.09710649       2.03264386      -0.00604837       0.00049128      -0.00217318
H        8.05404705       0.89483157       1.97770142      -0.00202514      -0.00360180       0.00387012
H        7.45155639       1.35784500       3.53961314       0.00256380      -0.01191926      -0.01192855
Pb       8.95158102       4.47579055       6.28333845      -0.00810610       0.00958529       0.00128387
Pb       4.47578930       0.00000027       6.28333839       0.01212767      -0.00728924       0.00120008
I        8.95158316       4.47578867       3.11507574       0.00053909       0.00166141       0.00620243
I        4.47579118       0.00000331       3.11507567       0.00277529       0.00095375       0.00051388
I        1.95657823       1.95658119       6.26906953      -0.03162336       0.01165735       0.01824569
I        2.51920391       6.43237577       6.26906579      -0.01346292       0.00294057       0.01319331
I        6.43237067       2.51920901       6.26906839      -0.00998927       0.02383160      -0.00632601
I        6.99499616       6.99499911       6.26906560       0.02058253      -0.02110666      -0.00168269
24
Lattice="8.95158397 0.0 0.0 0.0 8.95158397 0.0 0.0 0.0 6.32897243" Properties=species:S:1:pos:R:3:forces:R:3 config_id=t-FAPI3_small_rotation_12 phase=t-FAPI3 mode=small_rotation seed=935183908 source=t-FAPI3/CONTCAR energy=-113.49564156 stress="-0.000172964707137986 4.264508613656086e-05 0.0007375889241286825 4.264508613656086e-05 -0.00184574898398118 -0.00018333179762249592 0.0007375889241286825 -0.00018333179762249592 0.0013675237745673639" pbc="T T T"
C        4.45148664       4.52487459       3.61037650       0.05042132      -0.05844442      -0.01966404
C        8.94958786       8.88894284       3.60925798       0.03057855       0.06244074      -0.00988788
N        5.20111905       5.37774911       2.95092567       0.03782838      -0.04169567       0.01499431
N        3.77094238       3.53250388       3.08462338      -0.03216461       0.05971262      -0.02189514
N        0.80226298       8.13553573       2.89523268       0.03494329      -0.01472449       0.01230692
N        8.15101159       0.86879365       3.14125692       0.01028407      -0.04973488      -0.04182783
H        4.38838389       4.65213219       4.69211092      -0.00389351       0.00555373       0.00535283
H        5.68590945       6.11161527       3.46436299      -0.00748466      -0.01106533      -0.02576247
H        5.33473621       5.35650038       1.94009023      -0.00029286       0.00115634       0.00917287
H        3.75442752       3.31755200       2.08782472      -0.00601271       0.02560698      -0.00197529
H        3.22063096       2.93085959       3.69482708      -0.02003803      -0.01299922       0.01080307
H        8.94438967       8.72646980       4.68810279      -0.00159737      -0.00607925       0.00353935
H        1.37958178       7.44145963       3.36650853      -0.03258819       0.02184635      -0.03180259
H        0.89120439       8.19788754       1.88117718      -0.00752521       0.00010596       0.02107645
H        8.07170754       1.10799842       2.15302908       0.00158587      -0.01482690      -0.01376049
H        7.56829087       1.39410626       3.79060608      -0.02587346       0.04070350       0.03608872
Pb       8.95158102       4.47579055       6.28333845       0.01495823       0.03287995       0.00089342
Pb       4.47578930       0.00000027       6.28333839      -0.00118191      -0.03614714       0.00096368
I        8.95158316       4.47578867       3.11507574       0.00751013       0.00451008      -0.00037627
I        4.47579118       0.00000331       3.11507567       0.00615700      -0.00534964       0.00623775
I        1.95657823       1.95658119       6.26906953       0.00363926      -0.04501686       0.00938561
I        2.51920391       6.43237577       6.26906579      -0.00233337       0.01761384      -0.00158827
I        6.43237067       2.51920901       6.26906839      -0.02636856       0.01495056       0.02752011
I        6.99499616       6.99499911       6.26906560      -0.03055167       0.00900314       0.01020515
24
Lattice="8.95158397 0.0 0.0 0.0 8.95158397 0.0 0.0 0.0 6.32897243" Properties=species:S:1:pos:R:3:forces:R:3 config_id=t-FAPI3_small_rotation_13 phase=t-FAPI3 mode=small_rotation seed=1940470219 source=t-FAPI3/CONTCAR energy=-113.48447529 stress="-2.0068910994310273e-05 -1.6860325914949215e-05 0.00024700978335484146 -1.6860325914949215e-05 -0.0022607922890494846 0.0005410022582698768 0.00024700978335484146 0.0005410022582698768 0.0014143587545725846" pbc="T T T"
C        4.48596430       4.49639970       3.61332960      -0.00248609      -0.01586565       0.00114509
C        8.89527958       8.93525145       3.60984670       0.06067709       0.04208409      -0.03185017
N        5.30925168       5.28052211       2.95639042       0.01911434       0.01215304       0.00673912
N        3.63376733       3.65371683       3.07667109       0.00756829       0.01967836      -0.01526798
N        0.67981050       7.99199816       3.06883348       0.01867054       0.09048250       0.00894515
N        8.31921042       0.97332309       2.96716037      -0.07749539      -0.06264337       0.01214731
H        4.51229556       4.54979482       4.70272461       0.00209833       0.00130217      -0.00091317
H        5.92926533       5.89697544       3.47866191      -0.02734826      -0.00834121      -0.01629536
H        5.37275081       5.31635136       1.93915032      -0.00642645       0.00052791       0.01066079
H        3.52138377       3.51877340       2.07205931       0.00823922      -0.00080855      -0.00997331
H        3.04113621       3.09275722       3.68599816      -0.00225052      -0.02286778       0.01329867
H        8.74919564       8.89291511       4.69021603      -0.00839887      -0.00497216       0.00597325
H        1.07878125       7.27054776       3.66672252       0.03338298      -0.00137383      -0.01097896
H        0.88423746       7.92984695       2.07161052       0.00863127       0.00337741      -0.01040609
H        8.38590053       1.11406419       1.95926816       0.00221621      -0.02399153       0.01246691
H        7.76849626       1.65079973       3.49147947       0.00806930      -0.01311993      -0.02522124
Pb       8.95158102       4.47579055       6.28333845      -0.01872148       0.01088544       0.00125487
Pb       4.47578930       0.00000027       6.28333839       0.02263069      -0.00438625       0.00127821
I        8.95158316       4.47578867       3.11507574      -0.00039377       0.00303308       0.01057665
I        4.47579118       0.00000331       3.11507567       0.00229744      -0.00002658      -0.00170448
I        1.95657823       1.95658119       6.26906953      -0.04333859       0.00124337       0.00828072
I        2.51920391       6.43237577       6.26906579      -0.03440903      -0.03559609       0.03083355
I        6.43237067       2.51920901       6.26906839       0.02195627       0.04781941      -0.00720669
I        6.99499616       6.99499911       6.26906560       0.00571647      -0.03859385       0.00621714
24
Lattice="8.95158397 0.0 0.0 0.0 8.95158397 0.0 0.0 0.0 6.32897243" Properties=species:S:1:pos:R:3:forces:R:3 config_id=t-FAPI3_small_rotation_14 phase=t-FAPI3 mode=small_rotation seed=1662250830 source=t-FAPI3/CONTCAR energy=-113.48262071 stress="-0.002484332500128815 -1.4379001478936074e-05 -0.00026392041583334536 -1.4379001478936074e-05 0.00012792994064390732 -6.265301134520212e-05 -0.00026392041583334536 -6.265301134520212e-05 0.0014564468421932426" pbc="T T T"
C        4.47580863       4.47581213       3.61395769      -0.00314466      -0.00227332       0.00176927
C        0.01431134       0.03319740       3.61239595      -0.02928690      -0.03935420      -0.03205808
N        5.30254327       5.30254703       3.01626364      -0.00712375       0.01384607      -0.00133027
N        3.64903040       3.64903389       3.01626877       0.01030062      -0.01052434      -0.00275508
N        0.97068193       8.29508581       3.03450102      -0.09394814      -0.03405837       0.01780710
N        7.96885643       0.62851434       2.99934548       0.07863753       0.06793888       0.01299087
H        4.47579449       4.47579807       4.70497829       0.00002515      -0.00104883      -0.00135550
H        5.90092282       5.90092640       3.58290572       0.00643794      -0.01415889      -0.00424214
H        5.38933711       5.38934016       2.00382742       0.00174505      -0.00638384      -0.00028460
H        3.56224775       3.56225070       2.00383501      -0.00063859       0.00683333       0.00039314
H        3.05066696       3.05067028       3.58291604      -0.00727358       0.01336381      -0.00021688
H        0.05141521       0.11934825       4.69937899       0.00194737       0.00419245       0.00250023
H        1.69683299       7.87482049       3.61175425      -0.00036401      -0.02391585      -0.02006171
H        1.03876579       8.14770335       2.02764961      -0.00708409      -0.01084939      -0.00328423
H        7.83189621       0.61601641       1.98880699       0.02192808       0.00214210       0.00888592
H        7.28124329       1.13826784       3.55117035       0.00738070       0.00533030      -0.02157572
Pb       8.95158102       4.47579055       6.28333845      -0.00075285      -0.00730350       0.00154974
Pb       4.47578930       0.00000027       6.28333839      -0.00270149       0.00535052       0.00096272
I        8.95158316       4.47578867       3.11507574      -0.00086272      -0.00009924      -0.00122387
I        4.47579118       0.00000331       3.11507567      -0.00194781      -0.00099863       0.01100174
I        1.95657823       1.95658119       6.26906953       0.03255693      -0.00841240       0.01040180
I        2.51920391       6.43237577       6.26906579       0.04043548       0.03234254       0.02015625
I        6.43237067       2.51920901       6.26906839      -0.04309598      -0.03145369       0.00217836
I        6.99499616       6.99499911       6.26906560      -0.00317028       0.03949447      -0.00220909
24
Lattice="8.95158397 0.0 0.0 0.0 8.95158397 0.0 0.0 0.0 6.32897243" Properties=species:S:1:pos:R:3:forces:R:3 config_id=t-FAPI3_small_rotation_15 phase=t-FAPI3 mode=small_rotation seed=3391165254 source=t-FAPI3/CONTCAR energy=-113.50163061 stress="-0.0018503617588176457 8.695008914213211e-06 0.0006273053900250746 8.695008914213211e-06 -0.00011207535278497556 0.00014944795529499218 0.0006273053900250746 0.00014944795529499218 0.0015147631656166531" pbc="T T T"
C        4.47930038       4.49013735       3.61369851       0.00327578      -0.01395327       0.00027310
C        8.93164127       8.88747246       3.60855977       0.04803479       0.07077083      -0.01964514
N        5.32438344       5.27178876       2.98197492      -0.00614125       0.02420274       0.00353051
N        3.62424893       3.66772525       3.05077585       0.02172860      -0.00571647      -0.00624299
N        0.91780411       8.24695494       2.94927577      -0.02513501      -0.06285614       0.00449113
N        8.05058789       0.75861317       3.08780198       0.05470321       0.00087887      -0.01070950
H        4.48834318       4.52728740       4.70404888      -0.00037726       0.00354047      -0.00088392
H        5.94433863       5.87157488       3.52337250      -0.00542833      -0.01538198      -0.00922423
H        5.40521955       5.32149942       1.96655002      -0.00344288      -0.00081760       0.00645151
H        3.52661454       3.54905061       2.04257522      -0.00039975       0.00354342      -0.00681962
H        3.01371850       3.10655797       3.64197016      -0.00974701      -0.00419804       0.00463042
H        8.87988357       8.72118291       4.68559259      -0.00520129      -0.00886382       0.00677554
H        1.54909327       7.63108712       3.45851091      -0.01330357       0.02153031      -0.02099830
H        1.06128547       8.32447798       1.94254341      -0.01700255       0.00289496       0.01366487
H        8.00315443       0.98972839       2.09561340      -0.00097340      -0.00240246      -0.01310808
H        7.36553391       1.20175292       3.69730949      -0.00864390       0.02982602       0.00694057
Pb       8.95158102       4.47579055       6.28333845       0.00368628       0.02266746       0.00080866
Pb       4.47578930       0.00000027       6.28333839       0.00458789      -0.01974274       0.00125170
I        8.95158316       4.47578867       3.11507574       0.00304304       0.00363747       0.00036718
I        4.47579118       0.00000331       3.11507567       0.00293783      -0.00052048       0.00533290
I        1.95657823       1.95658119       6.26906953      -0.01923713      -0.03168383       0.00345854
I        2.51920391       6.43237577       6.26906579       0.02453741       0.00770720      -0.00859984
I        6.43237067       2.51920901       6.26906839      -0.02321579      -0.00787898       0.02499181
I        6.99499616       6.99499911       6.26906560      -0.02828568      -0.01718395       0.01326318
24
Lattice="8.95158397 0.0 0.0 0.0 8.95158397 0.0 0.0 0.0 6.32897243" Properties=species:S:1:pos:R:3:forces:R:3 config_id=t-FAPI3_small_rotation_16 phase=t-FAPI3 mode=small_rotation seed=1357441694 source=t-FAPI3/CONTCAR energy=-113.50508623 stress="-0.0014786727812924033 3.869977204450792e-05 -0.00013766921020846295 3.869977204450792e-05 -0.00038947530621712595 0.0003175713360153408 -0.00013766921020846295 0.0003175713360153408 0.0015552495009918447" pbc="T T T"
C        4.47580863       4.47581213       3.61395769      -0.00131623      -0.00106234       0.00004566
C        8.90143666       0.01203657       3.61077852       0.04479498       0.01336936      -0.01493955
N        5.30254327       5.30254703       3.01626364      -0.00507313       0.00759501      -0.00209463
N        3.64903040       3.64903389       3.01626877       0.00488490      -0.00400076       0.00000114
N        0.91815725       8.20776284       3.14671756      -0.06516247       0.00241196      -0.03956161
N        8.07567766       0.73366206       2.88849156       0.01145278       0.04665862       0.02080139
H        4.47579449       4.47579807       4.70497829       0.00209077      -0.00120531      -0.00155213
H        5.90092282       5.90092640       3.58290572       0.00399250      -0.00694137      -0.00098905
H        5.38933711       5.38934016       2.00382742       0.00245258      -0.00548522       0.00049812
H        3.56224775       3.56225070       2.00383501       0.00044835       0.00066242      -0.00051963
H        3.05066696       3.05067028       3.58291604      -0.00395149       0.00629014      -0.00260980
H        8.77132136       0.04329281       4.69356368      -0.00152511       0.00241840       0.00093990
H        1.49979931       7.68933812       3.80251315       0.03037981      -0.04445569       0.03621268
H        1.13305444       8.10122037       2.15546846      -0.02065380      -0.00351116      -0.01284791
H        8.10225643       0.78220722       1.87014028       0.00230047       0.00167513       0.02343636
H        7.35887858       1.28455472       3.35741336       0.02338761      -0.02400422      -0.03751953
Pb       8.95158102       4.47579055       6.28333845      -0.01930540      -0.01260199       0.00162822
Pb       4.47578930       0.00000027       6.28333839       0.01982224       0.01917620       0.00119256
I        8.95158316       4.47578867       3.11507574      -0.00017508       0.00010415      -0.00044411
I        4.47579118       0.00000331       3.11507567       0.00498398       0.00595683       0.00501618
I        1.95657823       1.95658119       6.26906953      -0.00577322      -0.02548071       0.00077146
I        2.51920391       6.43237577       6.26906579       0.02057860       0.02223135       0.03095317
I        6.43237067       2.51920901       6.26906839      -0.03212358      -0.00055942      -0.01247647
I        6.99499616       6.99499911       6.26906560      -0.01651008       0.00075861       0.00405757
24
Lattice="8.95158397 0.0 0.0 0.0 8.95158397 0.0 0.0 0.0 6.32897243" Properties=species:S:1:pos:R:3:forces:R:3 config_id=t-FAPI3_small_rotation_17 phase=t-FAPI3 mode=small_rotation seed=3545876699 source=t-FAPI3/CONTCAR energy=-113.5134149 stress="-0.0008276509485813614 -2.616647843673241e-05 0.00016046371958144606 -2.616647843673241e-05 -0.0009099835505476376 0.00023564114286693755 0.00016046371958144606 0.00023564114286693755 0.0016733912386396497" pbc="T T T"
C        4.50514441       4.49494238       3.61249519      -0.02403836      -0.00914695      -0.00419535
C        0.00000662       8.95157287       3.61395307      -0.00033036       0.00088056      -0.00087776
N        5.28264354       5.29651877       2.92170633       0.02531641       0.01979434       0.01487052
N        3.64421902       3.63894779       3.11205802       0.02524745       0.02669968      -0.02579081
N        0.82676525       8.12481523       3.01626668       0.00035931       0.00142081      -0.00132190
N        8.12482239       0.82675782       3.01626820       0.00118495      -0.00032545      -0.00104456
H        4.58123386       4.54455564       4.69972784       0.00222213       0.00101098      -0.00089762
H        5.91508871       5.92214175       3.41749689      -0.02284927      -0.02181783      -0.02747872
H        5.29802362       5.33747208       1.90279537       0.00035441      -0.00077871       0.01718055
H        3.48760667       3.50589878       2.11313105       0.00466761       0.00338758      -0.01407527
H        3.09084167       3.06489076       3.74561860      -0.02821968      -0.02601117       0.02898739
H        0.00000349       8.95157627       4.70497583      -0.00142503      -0.00122393      -0.00156991
H        1.42512583       7.52645429       3.58289566      -0.00034002      -0.00033898      -0.00162157
H        0.91354602       8.03803589       2.00382147      -0.00187980      -0.00112304      -0.00003445
H        8.03803678       0.91354495       2.00382628      -0.00077521      -0.00193611       0.00005464
H        7.52645591       1.42512386       3.58291357       0.00041727      -0.00024468      -0.00125103
Pb       8.95158102       4.47579055       6.28333845      -0.01312294       0.01416938       0.00131194
Pb       4.47578930       0.00000027       6.28333839       0.01497152      -0.01112225       0.00142248
I        8.95158316       4.47578867       3.11507574      -0.00223539       0.00259085       0.00149634
I        4.47579118       0.00000331       3.11507567       0.00193625      -0.00141111       0.00188774
I        1.95657823       1.95658119       6.26906953       0.00109171      -0.00069965       0.02323651
I        2.51920391       6.43237577       6.26906579       0.00852320      -0.00756003      -0.00004027
I        6.43237067       2.51920901       6.26906839      -0.00220983       0.00055265       0.00275627
I        6.99499616       6.99499911       6.26906560       0.01113368       0.01323304      -0.01300516
24
Lattice="8.95158397 0.0 0.0 0.0 8.95158397 0.0 0.0 0.0 6.32897243" Properties=species:S:1:pos:R:3:forces:R:3 config_id=t-FAPI3_small_rotation_18 phase=t-FAPI3 mode=small_rotation seed=2721125248 source=t-FAPI3/CONTCAR energy=-113.51450006 stress="-0.0009244789936208262 -6.182214789187367e-08 3.747712906334777e-05 -6.182214789187367e-08 -0.0008344445441554655 1.9360374878340007e-05 3.747712906334777e-05 1.9360374878340007e-05 0.0017217396535362053" pbc="T T T"
C        4.47580863       4.47581213       3.61395769      -0.00158183      -0.00161825      -0.00105045
C        8.94897637       8.94678145       3.61391762       0.00441997       0.00656902      -0.00116053
N        5.30254327       5.30254703       3.01626364       0.00059897       0.00132716      -0.00086804
N        3.64903040       3.64903389       3.01626877       0.00138037       0.00052672       0.00010543
N        0.83400449       8.13302795       3.01210987      -0.00261582      -0.00335051      -0.00053978
N        8.11978524       0.82258119       3.02045488       0.00345107      -0.00000132      -0.00151383
H        4.47579449       4.47579807       4.70497829       0.00011685       0.00023307      -0.00133494
H        5.90092282       5.90092640       3.58290572      -0.00017810      -0.00093602      -0.00159337
H        5.38933711       5.38934016       2.00382742      -0.00052844      -0.00069798      -0.00031836
H        3.56224775       3.56225070       2.00383501       0.00017019       0.00058102      -0.00054437
H        3.05066696       3.05067028       3.58291604      -0.00010086       0.00066893      -0.00175077
H        8.94219125       8.93435459       4.70484849      -0.00024387      -0.00041400      -0.00130463
H        1.43328528       7.53269471       3.57567183      -0.00083196       0.00112536      -0.00240014
H        0.92772310       8.05843377       1.99931207      -0.00145211      -0.00057493       0.00070424
H        8.03864880       0.92025291       2.00853617       0.00040418      -0.00070051      -0.00093761
H        7.51345400       1.41000785       3.59007183      -0.00015306       0.00151393      -0.00038799
Pb       8.95158102       4.47579055       6.28333845       0.00042370       0.00125317       0.00132463
Pb       4.47578930       0.00000027       6.28333839       0.00017756      -0.00088392       0.00132618
I        8.95158316       4.47578867       3.11507574       0.00036463       0.00038798       0.00159831
I        4.47579118       0.00000331       3.11507567       0.00023409       0.00015928       0.00208152
I        1.95657823       1.95658119       6.26906953      -0.00607137      -0.00759619       0.00118885
I        2.51920391       6.43237577       6.26906579       0.00629761      -0.00314681       0.00128543
I        6.43237067       2.51920901       6.26906839      -0.00546897       0.00286647       0.00297179
I        6.99499616       6.99499911       6.26906560       0.00118720       0.00270834       0.00311843
24
Lattice="8.84887406 0.06010461 -0.03175954 0.06010461 9.08647475 -0.0745327 -0.02245472 -0.0526963 6.42951475" Properties=species:S:1:pos:R:3:forces:R:3 config_id=t-FAPI3_strain_rattle_01 phase=t-FAPI3 mode=strain_rattle seed=2015970803 source=t-FAPI3/CONTCAR energy=-113.40863401 stress="0.0005822639888067951 0.003904176155608025 -0.0010821159836512328 0.003904176155608025 0.0029586669587233568 -0.002762992108691242 -0.0010821159836512328 -0.002762992108691242 0.015408755907119027" pbc="T T T"
C        4.44168388       4.54321970       3.61822282       0.41151756       0.42141130      -0.22280567
C        0.04728905       9.05637303       3.59683184      -0.19129168       0.18589504       0.22221251
N        5.26660423       5.39294017       3.00121703      -0.50994431      -0.47203213       0.01135788
N        3.62096127       3.70340795       3.02085626      -0.17917448      -0.20677515       0.01144292
N        0.86113086       8.22768468       2.99360106       0.31154092      -0.34758805      -0.34417324
N        8.02644839       0.86865551       3.02847476      -0.00304068       0.05092831      -0.33983192
H        4.43779894       4.53412128       4.72657560       0.10013539       0.09764292      -0.56497383
H        5.86012537       5.99963627       3.56975558      -0.08667912      -0.09180537      -0.06438288
H        5.35657701       5.49005369       1.97166661      -0.14338494      -0.14397396       0.72434175
H        3.53818370       3.62316407       1.99336941      -0.00944644      -0.02140613       0.56450426
H        3.02343534       3.08729196       3.60361036       0.42210595       0.42493341      -0.48751853
H        0.04341511       9.04729238       4.70518662      -0.04199096       0.03960464      -0.54936585
H        1.44659788       7.61960687       3.57209067      -0.06434066       0.05976201      -0.23287198
H        0.94992532       8.14861018       1.96548675      -0.01973799       0.00406993       0.61148009
H        7.94483334       0.96459751       1.99953444       0.07049668      -0.07580816       0.66991164
H        7.43695478       1.46730260       3.60126272      -0.08653164       0.08129289      -0.04801814
Pb       8.85407189       4.57053553       6.32622332      -0.03600941      -0.00779403      -0.00480507
Pb       4.37223177      -0.00687017       6.36609001       0.09171657      -0.03800605       0.00598877
I        8.86385558       4.59882287       3.07767701       0.01418352      -0.01645511       0.01418443
I        4.39125185       0.02312684       3.15169397       0.01271366      -0.01234564      -0.00682537
I        1.93659800       1.95021798       6.35347801      -0.10382556       0.06738639      -0.01365861
I        2.52520643       6.47983125       6.28988216       0.01168816       0.05194986       0.01505187
I        6.34169039       2.55873240       6.31351603       0.00133119      -0.03895901       0.01421571
I        6.94995358       7.10765861       6.27300408       0.02796827      -0.01192791       0.01453927
24
Lattice="8.86640395 -0.04797651 -0.06248381 -0.04797651 9.06586796 -0.07536793 -0.04417747 -0.05328683 6.44884774" Properties=species:S:1:pos:R:3:forces:R:3 config_id=t-FAPI3_strain_rattle_02 phase=t-FAPI3 mode=strain_rattle seed=3935958245 source=t-FAPI3/CONTCAR energy=-113.38560171 stress="0.0008725402442222431 -0.0030868424091287303 -0.0022855260727569346 -0.0030868424091287303 0.0029238281155675194 -0.0028302257947914753 -0.0022855260727569346 -0.0028302257947914753 0.01771094916229101" pbc="T T T"
C        4.38400397       4.47853829       3.61348250       0.58957369       0.61426306       0.20677504
C       -0.07319599       9.03542898       3.60703606      -0.05530172       0.04074672      -0.17553399
N        5.20261279       5.31642940       2.99173623      -0.35338919      -0.31721190      -0.32868670
N        3.57369621       3.65066807       3.01720506      -0.63365863      -0.66862384      -0.36789583
N        0.75429852       8.19871737       2.99921902      -0.08399241       0.05126299      -0.03795063
N        8.02202433       0.76837203       3.00972475       0.16164912      -0.13582921      -0.04988664
H        4.37637450       4.46933828       4.72516804       0.12339981       0.12995316      -0.64526949
H        5.78813606       5.91447033       3.55989605       0.19816068       0.20118922       0.09304326
H        5.29518257       5.41238964       1.95878714      -0.15531703      -0.15293443       0.85438284
H        3.49527145       3.57176624       1.98693151      -0.04814357      -0.05459987       0.64222089
H        2.98027823       3.04310128       3.60379966       0.24713489       0.24946226      -0.45715132
H       -0.08081467       9.02624657       4.71872358      -0.01244866       0.01284118      -0.66178911
H        1.34621708       7.58473954       3.57744159      -0.26714658       0.27035023      -0.33087685
H        0.84778569       8.11888931       1.96772226      -0.06115117       0.04694004       0.74616835
H        7.94266645       0.86525656       1.97798152       0.07779180      -0.08214458       0.77564338
H        7.42218942       1.37281345       3.58624156       0.22262195      -0.22652175      -0.27836959
Pb       8.77590283       4.42063000       6.30606652       0.05086299       0.01873268       0.00387407
Pb       4.34263341       8.97489984       6.32084933      -0.01892429      -0.00310269      -0.00567264
I        8.78443230       4.45112000       3.06920011       0.03747988       0.00182493       0.01014289
I        4.35451541       9.00462596       3.04665978       0.00970795       0.01580497       0.02620968
I        1.90610645       1.93055296       6.34913242      -0.03774001       0.05184503      -0.00955409
I        2.41148444       6.44596362       6.33819951       0.02854208       0.02292890      -0.01827523
I        6.30621897       2.47419824       6.32148987      -0.05422347      -0.05575937      -0.00193841
I        6.84974109       6.99962406       6.27771306       0.03451188      -0.03141773       0.01039012
24
Lattice="9.05313761 -0.0137926 -0.05993566 -0.0137926 9.03229559 -0.07960743 -0.04237587 -0.05628425 6.30273946" Properties=species:S:1:pos:R:3:forces:R:3 config_id=t-FAPI3_strain_rattle_03 phase=t-FAPI3 mode=strain_rattle seed=1228892460 source=t-FAPI3/CONTCAR energy=-113.46613147 stress="0.005465025831938541 -0.0008178751599469102 -0.0020398042997083286 -0.0008178751599469102 0.005253928755867663 -0.0028939317237601774 -0.0020398042997083286 -0.0028939317237601774 -0.00019092424394962187" pbc="T T T"
C        4.49549192       4.47713247       3.52920635       0.58335211       0.55367967      -0.29190957
C       -0.03798324       9.00014510       3.51936621      -0.12226402       0.08780594      -0.43588133
N        5.33433372       5.31536312       2.92110201      -0.67437150      -0.69605296       0.28264664
N        3.66460983       3.64948883       2.94688315      -0.24598672      -0.26138232       0.27671463
N        0.80343047       8.16997445       2.92597403      -0.21893129       0.18429611       0.35353167
N        8.19552721       0.79486952       2.94201357       0.35766501      -0.39666954       0.37215992
H        4.48817267       4.46741574       4.61570500       0.13329624       0.12568568       0.14366736
H        5.93478580       5.91317657       3.47606749       0.07711107       0.08147029       0.25115832
H        5.42875730       5.41180879       1.91150924      -0.10052861      -0.08786173      -0.06812541
H        3.58375516       3.57106057       1.93999866      -0.11358890      -0.10304347      -0.29675329
H        3.05658605       3.04161280       3.52050940       0.35974872       0.36449164      -0.29898542
H       -0.04529140       8.99044595       4.60586678      -0.02838828       0.01192075       0.14635893
H        1.40570738       7.56025737       3.49156933      -0.23193563       0.23531306      -0.09582154
H        0.89810833       8.09128274       1.91791600       0.01179161       0.00244401      -0.17678104
H        8.11440216       0.89157664       1.93357739       0.02370176      -0.01454584      -0.16080715
H        7.58565644       1.39451342       3.50499530       0.17120339      -0.17088525      -0.00421676
Pb       8.97248750       4.45381511       6.19458897       0.03434257       0.00121295      -0.01851179
Pb       4.44161070       8.96213497       6.19264750       0.00380709       0.01466772      -0.06185535
I       -0.00861027       4.42008319       3.07915612      -0.00512256       0.05029031       0.00456923
I        4.46121990       8.98445587       2.97869741       0.01995142       0.01704596       0.06950115
I        1.93338288       1.91980266       6.20073672       0.01590262       0.01981682      -0.00641029
I        2.54240317       6.40696960       6.12760478      -0.09865311      -0.01338477       0.02483477
I        6.47887980       2.45680157       6.13874927       0.00892166       0.00145456       0.01042608
I        7.00076465       6.98581812       6.17318279       0.03897535      -0.00776957      -0.01950979
24
Lattice="9.08677537 0.01771017 -0.06217802 0.01771017 9.0080583 -0.02388862 -0.04396127 -0.01688979 6.25728168" Properties=species:S:1:pos:R:3:forces:R:3 config_id=t-FAPI3_strain_rattle_04 phase=t-FAPI3 mode=strain_rattle seed=3550014847 source=t-FAPI3/CONTCAR energy=-113.45130339 stress="0.005467375647777272 0.001153618599850187 -0.002288443429020482 0.001153618599850187 0.004331888138858555 -0.0008147304067813795 -0.002288443429020482 -0.0008147304067813795 -0.006569651893150381" pbc="T T T"
C        4.52715703       4.50326016       3.52998748       0.36423504       0.34628162      -0.49421155
C       -0.00738578       8.99840278       3.54912777       0.13928289      -0.17499280      -0.38339675
N        5.37216469       5.33844150       2.93111496      -0.64028133      -0.65718668       0.54410882
N        3.69040821       3.67122519       2.94701803       0.03583992       0.03993583       0.52254643
N        0.83437484       8.16965994       2.95467524      -0.39583160       0.36081926       0.39410721
N        8.22821220       0.83999884       2.92346012       0.10050297      -0.14809570       0.44068002
H        4.51956438       4.50033444       4.60864981       0.07920661       0.07712598       0.41818456
H        5.97682921       5.94026766       3.48558523      -0.06205177      -0.05304579       0.17372470
H        5.46747347       5.42865575       1.92931250      -0.03125182      -0.03514408      -0.42623881
H        3.60917563       3.58642463       1.94688690      -0.09070901      -0.08941251      -0.57305867
H        3.07788820       3.06639057       3.51299974       0.32034893       0.32041457      -0.15235385
H       -0.01496723       8.99549464       4.62779210       0.03534312      -0.04270034       0.42973590
H        1.43665252       7.56719572       3.51232637      -0.02904798       0.03809330       0.15257614
H        0.92932702       8.08520667       1.95332719       0.00916398       0.02216514      -0.45905231
H        8.14732007       0.92986365       1.92285773      -0.04838289       0.07426721      -0.53145625
H        7.61805677       1.43944388       3.48624632       0.17416675      -0.17353243      -0.02897680
Pb       9.03797483       4.53707603       6.11797844       0.11348580      -0.12879326      -0.04565362
Pb       4.55206120       8.99648422       6.14964866      -0.14749161       0.02717687      -0.00630840
I        9.05160192       4.46231544       2.95557420       0.01180633       0.01987490       0.08483579
I        4.52639797       8.96903004       3.01752304       0.00656269       0.01592263       0.01050275
I        1.93011124       1.92629924       6.18124497       0.03853521       0.01491733      -0.01519146
I        2.52655816       6.44121959       6.10705515      -0.07280551      -0.01737024       0.02925389
I        6.45956182       2.49100799       6.16501627       0.10124986       0.08109593      -0.03254286
I        7.04334161       6.97756806       6.18777100      -0.01187659       0.08218324      -0.05181487
24
Lattice="8.90371161 0.04230258 -0.00793064 0.04230258 8.98714801 0.03743888 -0.00560714 0.02647013 6.454131" Properties=species:S:1:pos:R:3:forces:R:3 config_id=t-FAPI3_strain_rattle_05 phase=t-FAPI3 mode=strain_rattle seed=1280617861 source=t-FAPI3/CONTCAR energy=-113.38043665 stress="-0.00028516195659619004 0.0023868757853241548 -0.00039061243428175236 0.0023868757853241548 0.0011038278221267128 0.0015240600994294575 -0.00039061243428175236 0.0015240600994294575 0.017759297134040418" pbc="T T T"
C        4.46982197       4.52986052       3.70017968      -0.12217788      -0.09757257      -0.08373921
C        0.03910734       9.00225180       3.72285961       0.24446954      -0.24741088       0.25321579
N        5.29657173       5.36128711       3.09339121       0.06050219       0.06641011      -0.12872758
N        3.64408769       3.69339068       3.08794576       0.13124310       0.11168819      -0.13574566
N        0.85806703       8.17361678       3.10916340      -0.00303824      -0.02034434      -0.37196666
N        8.08260624       0.88105318       3.07217604      -0.39014094       0.39822845      -0.40791894
H        4.46884125       4.53440940       4.81277572      -0.03718039      -0.01820003      -0.68416914
H        5.89407695       5.96724148       3.67321143      -0.24076312      -0.23358154      -0.34930986
H        5.38420853       5.44460084       2.06121967      -0.04866024      -0.03810187       0.77432432
H        3.55825600       3.60161822       2.05520454       0.08630869       0.10109033       0.81888832
H        3.04559454       3.09219204       3.66382629       0.14487303       0.14353661      -0.22880616
H        0.03813765       9.00681827       4.83545790       0.04427517      -0.05249879      -0.67966415
H        1.44989794       7.57807613       3.68396506       0.07769159      -0.07330900      -0.07061590
H        0.94487059       8.08266834       2.07625676      -0.08715379       0.07094338       0.79116112
H        7.99759186       0.96354058       2.04015244       0.02549838      -0.03028948       0.76693704
H        7.48976546       1.48133870       3.65305981       0.08980775      -0.08860903      -0.30220726
Pb       0.01576028       4.45487854       6.45236800       0.09937217       0.19521143      -0.02492900
Pb       4.49494703       0.09064161       6.41477061      -0.04819993      -0.24086494       0.00711026
I        8.90548790       4.52988324       3.11336037       0.00606964      -0.01258536       0.08339579
I        4.47434046       9.00438517       3.24078396       0.02738172       0.01741573      -0.01721441
I        1.96212822       1.95157263       6.38822565      -0.08500556       0.07759183       0.00730861
I        2.46627520       6.49547837       6.41633323       0.13503455       0.07167164      -0.00812649
I        6.39528887       2.60328523       6.41456090      -0.08434614      -0.04574706      -0.00966726
I        7.04362511       7.11694899       6.42610372      -0.02586131      -0.05467281       0.00046642
24
Lattice="8.81515888 0.02736262 -0.01261539 0.02736262 8.79292109 -0.06018576 -0.00891936 -0.0425527 6.40068312" Properties=species:S:1:pos:R:3:forces:R:3 config_id=t-FAPI3_strain_rattle_06 phase=t-FAPI3 mode=strain_rattle seed=1468167705 source=t-FAPI3/CONTCAR energy=-113.35896547 stress="-0.01193618731650887 0.002018930627251854 -0.0004252909455511636 0.002018930627251854 -0.012457533090224456 -0.002404856905274348 -0.0004252909455511636 -0.002404856905274348 0.008248050419935326" pbc="T T T"
C        4.41618409       4.38586333       3.61850505       0.35161306       0.34585421       0.53409020
C        0.02227600       8.76861188       3.59471542      -0.24189880       0.23044627       0.78483315
N        5.23368846       5.20449041       3.00731517       0.09222633       0.10006889      -0.52718862
N        3.60032131       3.57523068       3.02076799      -0.67559809      -0.65194509      -0.54731650
N        0.83474969       7.96305386       2.99465046       0.74671758      -0.73570693      -0.72313551
N        7.99927380       0.81665952       3.03343523      -0.36108636       0.36628967      -0.72792954
H        4.41463256       4.37851403       4.72188763       0.06777398       0.06781511      -0.39660881
H        5.82397903       5.79028306       3.57551113       0.33853656       0.33189567       0.13824850
H        5.32085165       5.29681757       1.98270162      -0.08060254      -0.07544466       0.52597222
H        3.51602279       3.49652749       1.99756860      -0.03457087      -0.03165429       0.40467900
H        3.00844952       2.98183392       3.59870203      -0.07974889      -0.08728240      -0.16504738
H        0.02073536       8.76127974       4.69810004      -0.04672463       0.04603719      -0.39242836
H        1.42136347       7.37331793       3.57087946       0.25263234      -0.25074041      -0.05635547
H        0.92136946       7.88488506       1.97119486       0.02773625      -0.02551885       0.42532279
H        7.91550294       0.90845024       2.00906058       0.04537898      -0.04922450       0.49573292
H        7.41105710       1.39878091       3.60332117      -0.43221787       0.42329370       0.16666743
Pb       8.80762037       4.39370428       6.30036965       0.06023940      -0.04358052       0.00842225
Pb       4.39703479      -0.02738919       6.32841960       0.00206042      -0.01003800       0.01934627
I        8.79996954       4.42181841       3.11049533       0.03201617      -0.02001774      -0.00731267
I        4.41394024       8.78515318       3.09646073       0.01642604      -0.00103042      -0.02513060
I        1.93682727       1.88843629       6.32525937      -0.05905370       0.00181987       0.00986862
I        2.51704948       6.29146407       6.32077034      -0.06926679      -0.12064421       0.00372147
I        6.33608466       2.42826674       6.30471659       0.05062400       0.11373075       0.02412484
I        6.91879622       6.85252924       6.28017151      -0.00321256       0.07557670       0.02742379
24
Lattice="8.87507487 0.04542823 0.0113421 0.04542823 8.85065214 -0.0135482 0.00801912 -0.00957889 6.21350914" Properties=species:S:1:pos:R:3:forces:R:3 config_id=t-FAPI3_strain_rattle_07 phase=t-FAPI3 mode=strain_rattle seed=544760014 source=t-FAPI3/CONTCAR energy=-113.34722299 stress="-0.0108148193994668 0.00332843916879604 0.00041701173973340757 0.00332843916879604 -0.011075024469611835 -0.0006437091932380293 0.00041701173973340757 -0.0006437091932380293 -0.018598516270397946" pbc="T T T"
C        4.46484722       4.44259046       3.54692300      -0.00253538       0.01364690       0.05393513
C        0.05001380       8.84517149       3.53447335      -0.12458781       0.12663359       0.48246971
N        5.28795404       5.26510387       2.95992931       0.04251587       0.03485366       0.13951546
N        3.64018235       3.62184321       2.96034184      -0.05562788      -0.05993745       0.17229409
N        0.86475313       8.03283609       2.94998976       0.43021090      -0.42020758      -0.16033900
N        8.06339707       0.85410327       2.97028384      -0.22577477       0.21923676      -0.19044300
H        4.46621551       4.44092524       4.61803946      -0.00288059       0.00975667       0.70299607
H        5.88497392       5.85891543       3.51608632       0.21881807       0.21990921       0.28251351
H        5.37316372       5.35289117       1.96594218       0.05414141       0.07073877      -0.80960152
H        3.55241821       3.53713043       1.96639992      -0.08451933      -0.06380123      -0.81739160
H        3.04461447       3.02633208       3.51679889      -0.20921734      -0.20020213       0.25704183
H        0.05139309       8.84352357       4.60559191      -0.02218206       0.02966062       0.71116358
H        1.45568086       7.44340087       3.50794515       0.38518330      -0.39111834       0.34223752
H        0.94906898       7.94900795       1.95625650       0.11395426      -0.10639113      -0.85971201
H        7.97651084       0.94100375       1.97607120      -0.05130519       0.06042010      -0.79725139
H        7.47389942       1.44182829       3.52492777      -0.48217845       0.47951892       0.45726242
Pb       8.86437134       4.45567904       6.18169958       0.03403066       0.08392454       0.04136461
Pb       4.45796022       0.02857979       6.19469388      -0.23855665      -0.01866420      -0.05779279
I        8.89811547       4.46489322       3.08841198      -0.01793010       0.01392558      -0.05833623
I        4.45830399       0.02736494       3.05054896      -0.03869382      -0.00088416       0.06589388
I        1.88757793       1.96521345       6.17443319       0.12720705      -0.15357606      -0.00190526
I        2.48069032       6.36426711       6.16719178       0.08480835       0.04203177      -0.01999044
I        6.40279079       2.47156349       6.11347855      -0.03674608       0.08866081       0.03615703
I        6.92827550       6.97574779       6.11154571       0.10186560      -0.07813559       0.02791837
24
Lattice="8.95202425 -0.03856632 -0.03061055 -0.03856632 8.86587942 0.0663318 -0.02164235 0.04689808 6.38148339" Properties=species:S:1:pos:R:3:forces:R:3 config_id=t-FAPI3_strain_rattle_08 phase=t-FAPI3 mode=strain_rattle seed=4224899628 source=t-FAPI3/CONTCAR energy=-113.45712615 stress="-0.0032106351404825096 -0.0024851216515766553 -0.0011337084416404937 -0.0024851216515766553 -0.0039166213191069435 0.002376997523592875 -0.0011337084416404937 0.002376997523592875 0.007994018770293118" pbc="T T T"
C        4.44438736       4.44045608       3.66180311      -0.17622951      -0.15315592       0.36605534
C       -0.05091781       8.89264802       3.71026943       0.39605637      -0.38748091       0.05593137
N        5.26964467       5.25128484       3.06244913       0.39654981       0.37708954      -0.38121233
N        3.62317433       3.62072673       3.05585596      -0.13567024      -0.12759045      -0.35967783
N        0.78148726       8.06581511       3.09867061      -0.28231078       0.28148011      -0.12335660
N        8.11134573       0.80618862       3.01963687      -0.37491815       0.33998986      -0.12681811
H        4.44064245       4.44852675       4.76187577      -0.03513600      -0.02834693      -0.29033522
H        5.86353797       5.84555603       3.63618042       0.07235023       0.07831800      -0.08265469
H        5.35953094       5.32937084       2.04195915       0.00834545       0.00216506       0.31447867
H        3.54022338       3.52764611       2.03467582       0.03116569       0.03908504       0.36018575
H        3.02542171       3.03486882       3.62481689      -0.20410217      -0.19145575       0.06253381
H       -0.05465178       8.90073594       4.81034435       0.09540056      -0.07977009      -0.29741342
H        1.38051757       7.47480385       3.66352083       0.12295163      -0.11560002       0.08565383
H        0.87210829       7.97199045       2.07688543      -0.08971973       0.10466319       0.42127696
H        8.02764406       0.88501647       1.99973467      -0.03609101       0.05331209       0.26948500
H        7.50843418       1.40560259       3.59746374       0.19722642      -0.19085487      -0.29891005
Pb       8.86895248       4.48155959       6.30291011       0.10881438      -0.11028165       0.02255425
Pb       4.39917855       8.88151291       6.39508847      -0.04357976       0.11436540      -0.00042940
I        8.89042074       4.38836719       3.13854763       0.02662119       0.03560596      -0.01089900
I        4.46025427       8.86138617       3.20291551      -0.02090965       0.01035759      -0.00520217
I        1.90841135       1.98224477       6.35721573       0.03228869      -0.03491866      -0.00515768
I        2.48452934       6.39614316       6.39477980       0.00240068      -0.02480610      -0.00219588
I        6.40901686       2.53908720       6.31236872      -0.07411712      -0.07686025       0.00945006
I        6.91495640       6.92644109       6.32436638      -0.01738699       0.08468976       0.01665737
24
Lattice="8.98894871 0.04313158 0.0073217 0.04313158 8.86307727 -0.0376222 0.0051766 -0.02659974 6.45302292" Properties=species:S:1:pos:R:3:forces:R:3 config_id=t-FAPI3_strain_rattle_09 phase=t-FAPI3 mode=strain_rattle seed=2747692741 source=t-FAPI3/CONTCAR energy=-113.40136137 stress="-0.00040591724505083975 0.0029095542335852813 0.00030706932282805664 0.0029095542335852813 -0.0016680050347168318 -0.0014054714135546572 0.00030706932282805664 -0.0014054714135546572 0.01761689312125057" pbc="T T T"
C        4.51901289       4.43793551       3.66964244       0.12147768       0.11780235      -0.01474171
C        0.04609411       8.84787740       3.64716590      -0.20546633       0.19617388       0.32852538
N        5.35269300       5.26299176       3.05743490      -0.08157365      -0.09221542      -0.18757868
N        3.68431107       3.61786018       3.06303716      -0.13003735      -0.09149982      -0.18886239
N        0.87183126       8.03578970       3.04191558       0.43408079      -0.41154856      -0.45736908
N        8.16518680       0.84505449       3.07855904      -0.10158867       0.08101480      -0.44618033
H        4.51989099       4.43333613       4.78204755       0.02790300       0.02769110      -0.68004697
H        5.95691690       5.85595647       3.63315793      -0.10335379      -0.10555995      -0.20099928
H        5.43943923       5.35360006       2.02486072      -0.08711472      -0.09187402       0.80501216
H        3.59591994       3.53577200       2.03105303       0.04341793       0.04237991       0.75992660
H        3.08103037       3.02014810       3.64281637       0.20433233       0.19386400      -0.32100645
H        0.04698335       8.84329534       4.75957314      -0.04007031       0.04185471      -0.66916862
H        1.47026981       7.44384656       3.62265496      -0.02817418       0.03199141      -0.25530180
H        0.95772803       7.95454167       2.01006172      -0.01067529       0.01780849       0.74511393
H        8.07762901       0.93482052       2.04583710       0.07972659      -0.08153736       0.81293874
H        7.56766927       1.43223968       3.65330663      -0.12438169       0.11684561      -0.07148499
Pb       9.01252975       4.44137187       6.40586800       0.04713359      -0.03002354       0.00144979
Pb       4.55506701       8.84998859       6.37661392      -0.01427323      -0.00279289       0.00834594
I        9.00235689       4.45829614       3.14898466       0.01543727       0.00095976       0.01149610
I        4.49628598       0.02313958       3.19208775       0.00644569      -0.01884303      -0.01276779
I        2.00330990       1.90375519       6.37952810      -0.04682808       0.02344902       0.00388913
I        2.58246269       6.35560610       6.36711970      -0.07084326      -0.05399547       0.00728155
I        6.46718737       2.49661950       6.38183611       0.06246363       0.04077179       0.01367323
I        7.06487469       6.90871391       6.35623000       0.00196204       0.04728321       0.00785554
24
Lattice="9.10006887 0.04536634 -0.06397039 0.04536634 8.88861035 0.04772608 -0.04522851 0.03374342 6.38732145" Properties=species:S:1:pos:R:3:forces:R:3 config_id=t-FAPI3_strain_rattle_10 phase=t-FAPI3 mode=strain_rattle seed=1342081236 source=t-FAPI3/CONTCAR energy=-113.4526692 stress="0.004027163351552509 0.003024034496010042 -0.002378602802290997 0.003024034496010042 0.0021456625663926303 0.0017100853703831552 -0.002378602802290997 0.0017100853703831552 0.01045222006899478" pbc="T T T"
C        4.54690834       4.48627653       3.63915386       0.05922626       0.07607554      -0.29449321
C        0.01954675       8.90786744       3.69499734       0.47283218      -0.47145551       0.05954205
N        5.39581763       5.30819864       3.03444921      -0.25125493      -0.27384971       0.14586346
N        3.70649703       3.65793790       3.03745499       0.13057197       0.16454731       0.13470859
N        0.86010053       8.08792934       3.08148452      -0.33207509       0.36070279      -0.12747420
N        8.24222827       0.87819946       2.99042203      -0.44538699       0.41521040      -0.15153259
H        4.53909717       4.49207937       4.74023300       0.01261047       0.01939711      -0.33848195
H        6.00310603       5.90842213       3.60522949      -0.23031558      -0.21940321      -0.17461258
H        5.49172617       5.38942317       2.01252147      -0.04959318      -0.05561810       0.38652445
H        3.62507017       3.56592754       2.01584473       0.03179558       0.03686691       0.37502763
H        3.09112631       3.06377236       3.61041222       0.27929940       0.27492018      -0.24506068
H        0.01174685       8.91368768       4.79607866       0.10106398      -0.10379301      -0.32167962
H        1.46130469       7.49983132       3.64587119       0.14148504      -0.14045085       0.11921569
H        0.95511619       7.99680235       2.05862239      -0.10409020       0.10849094       0.46235009
H        8.16167811       0.95853831       1.96972895      -0.05998476       0.05281584       0.29039125
H        7.63291945       1.47234466       3.56975782       0.21768584      -0.22083935      -0.32428321
Pb       9.06626753       4.53372032       6.30161743      -0.00549627      -0.02953473      -0.01658862
Pb       4.51973892       8.94385048       6.35864239       0.05845490       0.00486809      -0.00409981
I        0.00713415       4.46300384       3.13044989       0.00202300      -0.01209475       0.04840459
I        4.54894475       0.06001127       3.10174162      -0.00687464      -0.01590027       0.01527890
I        1.96219629       1.96616797       6.31610393      -0.04129819       0.03562282      -0.00540023
I        2.55427890       6.42457492       6.36494928      -0.03607121      -0.02287288      -0.00979514
I        6.49966522       2.58049673       6.27429639       0.04994719      -0.03050711       0.00368563
I        7.07279751       6.98681924       6.33201385       0.00544524       0.04680154      -0.02749049
24
Lattice="9.07734444 -0.05616651 0.03720345 -0.05616651 8.93154513 -0.00953781 0.02630368 -0.00674345 6.32637812" Properties=species:S:1:pos:R:3:forces:R:3 config_id=t-FAPI3_strain_rattle_11 phase=t-FAPI3 mode=strain_rattle seed=357569262 source=t-FAPI3/CONTCAR energy=-113.49132699 stress="0.0036455742108404635 -0.0036278432318515084 0.0013492329134852897 -0.0036278432318515084 0.0021583701666257646 -0.0002917311761587278 0.0013492329134852897 -0.0002917311761587278 0.0024711932121584982" pbc="T T T"
C        4.52562560       4.43385867       3.62630916      -0.12278507      -0.12673675       0.01060104
C       -0.04113987       8.92768339       3.60293390      -0.18204380       0.18750981      -0.41601494
N        5.35630361       5.25419237       3.03141521       0.12018189       0.10134671      -0.01345042
N        3.68993555       3.61475568       3.02631001       0.08075775       0.10557625      -0.00926795
N        0.79993731       8.09822586       3.00980948      -0.13041270       0.15405402       0.32740425
N        8.24631608       0.77071424       3.04791827       0.43897096      -0.44489474       0.33302718
H        4.53014571       4.43268227       4.71688250      -0.02152528      -0.03019468       0.02032524
H        5.96169026       5.84687395       3.59967436      -0.03019200      -0.03233286      -0.03709840
H        5.43956447       5.34132536       2.01966223       0.02753597       0.01891718      -0.04347891
H        3.59827046       3.52979001       2.01402305       0.01745074       0.01557887      -0.00001363
H        3.08927518       3.02088221       3.59087571      -0.05960939      -0.06237367       0.07796650
H       -0.03660869       8.92652433       4.69350942      -0.04147004       0.04421144       0.00280498
H        1.41281358       7.49684627       3.57933057      -0.31381005       0.31183651      -0.20384600
H        0.88427396       8.01217502       1.99823241       0.01827393      -0.01517033      -0.05030705
H        8.15355890       0.85893037       2.03543820       0.04320553      -0.05129127       0.02282302
H        7.63814375       1.37089147       3.61120696       0.16659565      -0.16697243      -0.02439472
Pb       9.06742734       4.41253176       6.32203015      -0.02444213      -0.02423770       0.00378328
Pb       4.48498343       8.89024845       6.30135616       0.05907199       0.04630602      -0.00137747
I       -0.01359362       4.47819331       3.12008720       0.00338289      -0.01125082      -0.01225437
I        4.49301528       8.89516637       3.13070835       0.00336603       0.00127077      -0.00504237
I        2.00874790       1.93814883       6.26184970       0.00388232       0.01793042       0.01000826
I        2.53446602       6.41885379       6.25717238      -0.05652436      -0.07963461      -0.00003502
I        6.52911727       2.46550860       6.30704502       0.03632676       0.03968478      -0.00638861
I        7.07509809       6.92806748       6.26860789      -0.03618759       0.00086709       0.01422611
24
Lattice="8.89670144 0.05638219 0.07985265 0.05638219 8.94547965 0.02914457 0.05645763 0.02060587 6.27511773" Properties=species:S:1:pos:R:3:forces:R:3 config_id=t-FAPI3_strain_rattle_12 phase=t-FAPI3 mode=strain_rattle seed=2865988132 source=t-FAPI3/CONTCAR energy=-113.45907673 stress="-0.004515105854177248 0.0040129882352106785 0.0030383085028224625 0.0040129882352106785 -0.00423893309378641 0.0010595133507517976 0.0030383085028224625 0.0010595133507517976 -0.007018274960463086" pbc="T T T"
C        4.50879682       4.51271748       3.63770450      -0.47557153      -0.49552478      -0.14397308
C        0.08862699       8.95723491       3.61234569      -0.24084740       0.27248309       0.32936419
N        5.33033823       5.34214989       3.05516295       0.29426037       0.29944972       0.20140617
N        3.67654839       3.67934957       3.03503436       0.50911716       0.49502568       0.21206824
N        0.89977767       8.13430250       3.02442850       0.42715389      -0.43371746      -0.16758993
N        8.10712280       0.88718917       3.06577135      -0.01700315       0.02108738      -0.15512029
H        4.51851513       4.51625549       4.71944119      -0.09532075      -0.10968461       0.30994286
H        5.93387276       5.94573502       3.62426939      -0.18931683      -0.19413248      -0.15443368
H        5.40811516       5.42613421       2.05239861       0.09927335       0.09929074      -0.45836164
H        3.58071977       3.58878267       2.03015894       0.05755968       0.05736670      -0.27864022
H        3.08313948       3.07947005       3.58957403      -0.17221471      -0.17482882       0.29578256
H        0.09835637       8.96079044       4.69408467      -0.03948072       0.05888702       0.32613663
H        1.49575547       7.54196326       3.58962544       0.16765738      -0.16414529       0.09434218
H        0.97644828       8.04483262       2.02109002       0.07177793      -0.08627776      -0.41148318
H        8.01238442       0.97007419       2.06145292      -0.01079837       0.00583649      -0.33288467
H        7.52124854       1.48322320       3.62420543      -0.34129750       0.35645969       0.32122139
Pb       0.10590462       4.50397334       6.26312177      -0.07552293      -0.02678049      -0.03372613
Pb       4.56382408       8.98674690       6.30947254       0.00874604       0.05474177      -0.00408600
I        0.06664622       4.48847713       3.09676919      -0.01758201       0.00372648       0.04917523
I        4.53787208       8.96956667       3.16405393      -0.00941377       0.00524939       0.00999090
I        2.01289061       2.01888595       6.26029585       0.03121012      -0.12373012      -0.01096569
I        2.60855770       6.44540577       6.26292816       0.04137267       0.06174702       0.00289604
I        6.45807710       2.59065667       6.29224073      -0.01444227      -0.02516013       0.00265098
I        7.05992712       7.05615700       6.29543822      -0.00931662       0.04263077      -0.00371286
24
Lattice="8.96136449 0.0506254 -0.08502331 0.0506254 9.0784376 -0.04923388 -0.0601134 -0.03480946 6.25200482" Properties=species:S:1:pos:R:3:forces:R:3 config_id=t-FAPI3_strain_rattle_13 phase=t-FAPI3 mode=strain_rattle seed=428720862 source=t-FAPI3/CONTCAR energy=-113.43779501 stress="0.002628049845027423 0.003300846636595735 -0.0031903593359436946 0.003300846636595735 0.003295184851320482 -0.0018275967405752824 -0.0031903593359436946 -0.0018275967405752824 -0.008195506525019443" pbc="T T T"
C        4.47168589       4.54467519       3.50287892       0.58101778       0.60354029      -0.51371407
C        0.01630617       9.05854957       3.52076934       0.17390238      -0.19758240      -0.14463949
N        5.30967637       5.39108872       2.90005404      -0.84282508      -0.84917406       0.55875579
N        3.64500543       3.70479210       2.92485874      -0.12046970      -0.14560710       0.55817281
N        0.84496932       8.22803887       2.92704604      -0.23730461       0.24229734       0.26632673
N        8.10972638       0.86783402       2.89786909      -0.04613787       0.07837074       0.24411979
H        4.46130900       4.53866022       4.58063167       0.11996520       0.14134380       0.44985792
H        5.90671178       5.99821535       3.45083051       0.02605174       0.03399615       0.29797660
H        5.40667215       5.48517108       1.89862846      -0.07508039      -0.06203978      -0.42995274
H        3.56725338       3.62185670       1.92603893      -0.12079288      -0.11954617      -0.64133794
H        3.03722210       3.09144842       3.49358927       0.41519070       0.42747849      -0.27263640
H        0.00594038       9.05255236       4.59852402       0.01942996      -0.05132746       0.46654892
H        1.43521774       7.62146606       3.48439184       0.09063775      -0.10703659       0.21322214
H        0.94097047       8.14608903       1.92656636       0.02000837      -0.02325538      -0.51536289
H        8.03295308       0.96092865       1.89808660      -0.06025739       0.06471973      -0.55814816
H        7.50870809       1.46817895       3.46001574       0.02393614      -0.03819444       0.04988130
Pb       8.92419613       4.52082464       6.11029573      -0.00587838       0.18947576      -0.05440475
Pb       4.40801532       0.04680224       6.12127001       0.05515475      -0.18787800       0.10468334
I        8.94298327       4.60064290       2.95072737       0.02067338      -0.02942232       0.07386847
I        4.51585984       9.05608429       3.01169290      -0.01464298       0.03216027      -0.10219986
I        1.88402680       1.96288068       6.21358257       0.01411204      -0.05012823      -0.03721398
I        2.52391804       6.51289980       6.15065438      -0.07188965      -0.02801986      -0.00911745
I        6.36149894       2.56948825       6.12150106       0.05423026       0.01648076       0.00429689
I        6.97753134       7.07502084       6.10927947      -0.01903152       0.05934846      -0.00898299
24
Lattice="8.77891232 -0.06373119 -0.0415793 -0.06373119 8.79837152 0.07433472 -0.0293975 0.05255633 6.30543276" Properties=species:S:1:pos:R:3:forces:R:3 config_id=t-FAPI3_strain_rattle_14 phase=t-FAPI3 mode=strain_rattle seed=1361156470 source=t-FAPI3/CONTCAR energy=-113.31403511 stress="-0.01569953511582286 -0.004925512417014044 -0.0015767640328808374 -0.004925512417014044 -0.015762689782222544 0.0030160385673254735 -0.0015767640328808374 0.0030160385673254735 -0.006078298443237402" pbc="T T T"
C        4.34082025       4.39735046       3.61689391      -0.22258830      -0.19733106       1.01518943
C       -0.08051110       8.82837114       3.67484610       0.57109149      -0.55367599       0.40583709
N        5.14849784       5.19908596       3.02444807       0.85274175       0.84210618      -0.76236933
N        3.53865265       3.58564612       3.01840268      -0.50735166      -0.52565661      -0.72341949
N        0.73896210       8.00491463       3.06867704      -0.19989326       0.18192629      -0.28327847
N        7.94820213       0.77980962       2.97417604      -0.72740681       0.72208973      -0.28883770
H        4.33573878       4.40639667       4.70385658      -0.03946705      -0.02787488       0.14923185
H        5.72844275       5.78766892       3.59117218       0.49515458       0.50772991       0.23753534
H        5.23770222       5.27536827       2.01609504       0.06620782       0.06318230      -0.18197806
H        3.45886452       3.49255880       2.00941696      -0.02540904      -0.03311200      -0.14852022
H        2.95345940       3.00648947       3.58075287      -0.63908533      -0.62731450       0.40260954
H       -0.08558190       8.83743445       4.76181101       0.11958893      -0.09944051       0.13619145
H        1.32740871       7.41724034       3.62545035       0.46560314      -0.45995594       0.40431035
H        0.82938946       7.91059531       2.05887375      -0.06149509       0.07424601      -0.05472206
H        7.86717539       0.85732180       1.96662354      -0.10245821       0.11123331      -0.25737073
H        7.35448574       1.37689978       3.54646210      -0.04644810       0.04996656      -0.09485454
Pb       8.69672613       4.41962151       6.27090011       0.05103471      -0.13198743       0.03449724
Pb       4.30959454       8.79943289       6.34342447      -0.13893452       0.10785721      -0.04414694
I       -0.03942017       4.42216631       3.17603180      -0.02093812       0.00702747      -0.05058632
I        4.36746070      -0.00085092       3.07033123       0.01266638      -0.00890952       0.07049433
I        1.87238098       1.98277635       6.27454658      -0.01151861      -0.04202625       0.00197817
I        2.39973228       6.35927200       6.27814650       0.00429503      -0.09503458       0.02242683
I        6.25519772       2.45528865       6.23597325       0.04272924       0.14009382      -0.00464776
I        6.77203428       6.89097028       6.27293264       0.06188104      -0.00513951       0.01443000
24
Lattice="9.12805577 0.04425806 0.02005775 0.04425806 9.09775606 0.03419531 0.01418128 0.02417686 6.32946853" Properties=species:S:1:pos:R:3:forces:R:3 config_id=t-FAPI3_strain_rattle_15 phase=t-FAPI3 mode=strain_rattle seed=3421711136 source=t-FAPI3/CONTCAR energy=-113.39982853 stress="0.010588458132368224 0.002578832774339781 0.0006264652891382398 0.002578832774339781 0.010407725573772147 0.001275310938552924 0.0006264652891382398 0.001275310938552924 0.004589574866176951" pbc="T T T"
C        4.59427176       4.58483304       3.64136761      -0.20552887      -0.19722286      -0.73579657
C        0.05236252       9.11155022       3.64843163       0.06740620      -0.09181080      -0.43471812
N        5.44005293       5.42687215       3.04863733      -0.32667966      -0.35717906       0.59771189
N        3.74576744       3.73818328       3.03862097       0.68923305       0.67976516       0.58317572
N        0.88999304       8.27309674       3.04939267      -0.39161618       0.35530908       0.35850739
N        8.29584154       0.89195076       3.03786810       0.21961276      -0.23790838       0.34267305
H        4.59670191       4.58898641       4.73247366      -0.05325783      -0.04774328      -0.01521834
H        6.05445711       6.04014565       3.61895043      -0.54335143      -0.51839109      -0.31253290
H        5.52671839       5.51164412       2.03664777       0.01410454       0.01410423      -0.04735059
H        3.65457633       3.64568639       2.02558189       0.07939280       0.06880587       0.05690343
H        3.13391912       3.12925507       3.60168614       0.36185221       0.35885494      -0.11007746
H        0.05480399       9.11572140       4.73953992       0.01542439      -0.01574065      -0.00381562
H        1.49846096       7.67008799       3.61512105      -0.21909609       0.23927976      -0.07839027
H        0.97578698       8.18146185       2.03673104      -0.01528335       0.02554836      -0.00018653
H        8.20550555       0.97585841       2.02548389       0.00381505      -0.00756285      -0.00125369
H        7.68990693       1.49929380       3.60550291       0.28246686      -0.28433204      -0.15590414
Pb       9.14387619       4.60509808       0.05257212      -0.01527434       0.01338127      -0.08972951
Pb       4.53926125       0.04579178       0.01914924       0.03263530      -0.01245698      -0.03944091
I        0.09018758       4.51662258       3.09585351      -0.04309873       0.02163744       0.11677116
I        4.56621111       9.10562785       3.16676887       0.03414697       0.01548683       0.04458605
I        2.01456238       1.98903005       6.27431809      -0.09266247       0.12471197      -0.00528004
I        2.59778236       6.61815584       6.30409827      -0.09864846      -0.08183996      -0.02240392
I        6.52147342       2.64048308       6.31137955       0.12323586       0.02880450      -0.00718020
I        7.14067040       7.17806609       6.34543709       0.08117141      -0.09350146      -0.04104988
24
Lattice="9.03219707 -0.05110974 -0.05598914 -0.05110974 8.9266655 -0.02471792 -0.03958559 -0.01747613 6.29772492" Properties=species:S:1:pos:R:3:forces:R:3 config_id=t-FAPI3_strain_rattle_16 phase=t-FAPI3 mode=strain_rattle seed=2658944019 source=t-FAPI3/CONTCAR energy=-113.49022418 stress="0.0013063556681752824 -0.003488412948635632 -0.002128812151994173 -0.003488412948635632 -5.4403178069392535e-06 -0.0009464194710586056 -0.002128812151994173 -0.0009464194710586056 -0.002243434496132675" pbc="T T T"
C        4.46795626       4.42781868       3.55576110       0.36803545       0.37284165       0.07874906
C       -0.07370705       8.91667522       3.57139226       0.13155846      -0.14029322      -0.33464804
N        5.30115409       5.24918232       2.95356420      -0.24952463      -0.25799751       0.00219153
N        3.64219141       3.60971289       2.96847730      -0.36897985      -0.34731526      -0.00939705
N        0.76895568       8.08914896       2.97376861      -0.33788262       0.35699143       0.32573412
N        8.17440395       0.76973831       2.94827529       0.11330076      -0.12193798       0.31597048
H        4.46111811       4.42479213       4.64139523       0.07456187       0.07696851       0.19096028
H        5.89796168       5.84091483       3.51201369       0.22876194       0.22446601       0.26030134
H        5.39456645       5.33803391       1.94534407      -0.03052577      -0.03969779      -0.14936890
H        3.56145517       3.52646240       1.96182458      -0.08077518      -0.08180677      -0.28346154
H        3.03831165       3.01486666       3.53772172       0.04996033       0.05130288      -0.07599804
H       -0.08053421       8.91366600       4.65702842       0.02292700      -0.03597217       0.17221551
H        1.37257707       7.48747267       3.53550972      -0.10642789       0.09879847       0.02996766
H        0.86334593       8.00491136       1.96601889      -0.01707931       0.02249017      -0.18479644
H        8.09267376       0.85957500       1.94113518      -0.02575752       0.02548836      -0.23573366
H        7.56368831       1.36829042       3.51421332       0.19939398      -0.20552377      -0.09350804
Pb       8.96487423       4.39619806       6.20449213      -0.02660312      -0.03484433      -0.02384615
Pb       4.41576119       8.87345680       6.22409418       0.01549058       0.01139422      -0.03085839
I        8.98537254       4.42217602       3.02981881       0.00230537      -0.02361034       0.03481335
I        4.44466203       8.89054932       3.04398407      -0.00115183       0.00085807       0.04178033
I        1.90610533       1.91393758       6.21760206       0.06269277      -0.01650075       0.00093165
I        2.44549575       6.39422259       6.22232391      -0.00250265      -0.06497344      -0.01760188
I        6.41944901       2.43686191       6.19564157       0.05364993       0.07471497      -0.01020947
I        6.99674726       6.90815590       6.19005890      -0.07542807       0.05415860      -0.00418772
24
Lattice="9.01363019 -0.006803 -0.04774693 -0.006803 8.89748215 -0.06336658 -0.03375816 -0.04480161 6.44994261" Properties=species:S:1:pos:R:3:forces:R:3 config_id=t-FAPI3_strain_rattle_17 phase=t-FAPI3 mode=strain_rattle seed=3439239723 source=t-FAPI3/CONTCAR energy=-113.40344652 stress="0.0017726129835685092 -0.000499038826069481 -0.0017837324255630532 -0.000499038826069481 0.0006385826173703208 -0.0023167148189608636 -0.0017837324255630532 -0.0023167148189608636 0.017635182958725147" pbc="T T T"
C        4.48415383       4.41977705       3.62747686       0.48626595       0.47565061       0.07879652
C       -0.02607282       8.87188862       3.61966260      -0.07671374       0.05893637       0.01336867
N        5.31917856       5.24511798       3.00809663      -0.32059038      -0.32314274      -0.23746559
N        3.65546129       3.60285499       3.02862645      -0.48398881      -0.45360076      -0.27546399
N        0.81023265       8.05373034       3.01199481       0.10258432      -0.07574318      -0.21617358
N        8.16442125       0.79423476       3.02473077       0.01707310      -0.03277446      -0.19660680
H        4.47832019       4.41203996       4.73935110       0.10452788       0.09956824      -0.65872114
H        5.91822850       5.83541494       3.57814183       0.08603079       0.07971330      -0.00518242
H        5.41190828       5.33848743       1.97523165      -0.13370078      -0.14301880       0.84473923
H        3.57354330       3.52382908       1.99791854      -0.02478221      -0.02061547       0.67952775
H        3.05038270       3.00455133       3.61353178       0.27772233       0.27222729      -0.44573162
H       -0.03189539       8.86416885       4.73153885      -0.01559167       0.01050678      -0.66347300
H        1.41017305       7.45452000       3.59049826      -0.15793109       0.15389177      -0.27152282
H        0.90308117       7.97457644       1.98034943      -0.05984050       0.04613791       0.75531954
H        8.08236842       0.88773021       1.99278588       0.06398322      -0.07560818       0.77233750
H        7.55843012       1.38542795       3.60116275       0.10787485      -0.11027154      -0.21729231
Pb       8.97601575       4.38613287       6.29785541      -0.02999096       0.01745514       0.00219734
Pb       4.45979522       8.84282793       6.28438547       0.03082330      -0.02261891       0.01433857
I        8.95644566       4.41608768       3.07007409       0.03499781      -0.00275853       0.01228416
I        4.48273486       8.85708571       3.12547017      -0.00765072       0.01052334      -0.04163012
I        1.93940612       1.90165182       6.35280155       0.04180060      -0.03249411       0.00843025
I        2.48610806       6.33244145       6.30649461       0.01495090       0.01421861       0.02075740
I        6.43917225       2.44294685       6.34102935       0.00075598       0.01308176       0.00565763
I        7.03048382       6.90619262       6.29740953      -0.05861016       0.04073555       0.02150886
24
Lattice="8.95158397 0.0 0.0 0.0 8.95158397 0.0 0.0 0.0 6.32897243" Properties=species:S:1:pos:R:3:forces:R:3 config_id=t-FAPI3_wide_rotation_01 phase=t-FAPI3 mode=wide_rotation seed=1049785491 source=t-FAPI3/CONTCAR energy=-113.19563896 stress="-0.001080284350383151 0.00176562734924162 0.0002061265379313167 0.00176562734924162 -0.006227290568637912 -0.0025879970948081885 0.0002061265379313167 -0.0025879970948081885 -0.004618818339956144" pbc="T T T"
C        4.34765301       4.87576872       3.21517565      -0.10341126      -0.05487756       0.12971418
C        8.69545507       8.93203765       2.86040390       0.02496766       0.19625130       0.09979228
N        4.82602862       4.46331321       2.06397797      -0.21277382       0.16030052       0.34125093
N        4.23349749       4.15136349       4.30447003       0.07832120      -0.12912606      -0.48829752
N        8.63826519       1.06705011       3.59547164      -0.37426185      -0.27602432      -0.29730946
N        0.52907630       7.90098087       3.07181462       0.08164326       0.17381486      -0.08850350
H        4.01521177       5.91336606       3.27174742       0.00272162       0.12201173       0.04684254
H        4.86779859       5.11510158       1.28255209       0.07273859      -0.00044156       0.03703840
H        5.16562253       3.51682437       1.89389456       0.05770614      -0.04759254      -0.04536579
H        4.51089016       3.17212984       4.36958092       0.01784142       0.03628767      -0.12304009
H        3.84641784       4.57737733       5.14461790      -0.15465595       0.13774789       0.05636076
H        8.03099842       8.88133051       1.99654226      -0.02452000      -0.07658031      -0.07789447
H        7.98833732       1.80703101       3.33631592       0.12263723      -0.04421054       0.02981786
H        0.25907433       1.22524009       4.42459703       0.24310579       0.01520379       0.18798879
H        1.18989145       7.83688619       3.84597054      -0.03640473       0.03862485       0.02379999
H        0.48881583       7.10832617       2.43365407      -0.01976523      -0.02376628       0.08487535
Pb       8.95158102       4.47579055       6.28333845      -0.05758877       0.01575768       0.00233533
Pb       4.47578930       0.00000027       6.28333839       0.06717230      -0.02304805       0.00681279
I        8.95158316       4.47578867       3.11507574      -0.01349990      -0.01658738      -0.04390043
I        4.47579118       0.00000331       3.11507567       0.00482081       0.09462875       0.01732559
I        1.95657823       1.95658119       6.26906953      -0.01470013      -0.05352221       0.10478516
I        2.51920391       6.43237577       6.26906579      -0.11921792       0.17242023       0.05778025
I        6.43237067       2.51920901       6.26906839       0.35474026      -0.40236280      -0.04370880
I        6.99499616       6.99499911       6.26906560       0.00238330      -0.01490966      -0.01850014
24
Lattice="8.95158397 0.0 0.0 0.0 8.95158397 0.0 0.0 0.0 6.32897243" Properties=species:S:1:pos:R:3:forces:R:3 config_id=t-FAPI3_wide_rotation_02 phase=t-FAPI3 mode=wide_rotation seed=3291088126 source=t-FAPI3/CONTCAR energy=-113.42047949 stress="-0.0038536333072424272 -0.00024719769647009443 0.00031032395152023927 -0.00024719769647009443 0.0003674561857643604 1.6279434902112384e-05 0.00031032395152023927 1.6279434902112384e-05 -0.00012554889229351063" pbc="T T T"
C        4.61533044       4.38606113       2.80694016      -0.00977502       0.14682089       0.13400099
C        0.00000662       8.95157287       3.61395307      -0.00771570       0.00703196       0.01352294
N        5.46266464       4.95924779       3.63016599      -0.34084113      -0.00077123      -0.08032265
N        3.37138244       4.06793508       3.08215976       0.12932004      -0.08833240      -0.00498683
N        0.82676525       8.12481523       3.01626668      -0.00778099      -0.03037907      -0.02005328
N        8.12482239       0.82675782       3.01626820       0.01997328       0.02190255      -0.00577420
H        4.97724996       4.15323956       1.80437631       0.03346390      -0.03018557      -0.07194715
H        6.40744525       5.16088276       3.30778080       0.16649278       0.00710347       0.01342115
H        5.23656911       5.22207829       4.58927715      -0.04030421       0.01185323      -0.03151859
H        2.92575665       4.23720023       3.98374258       0.09654136       0.01203291       0.00256097
H        2.80258169       3.62447513       2.36314945       0.00069917      -0.06665005       0.01517383
H        0.00000349       8.95157627       4.70497583      -0.00146387      -0.00319334      -0.00097548
H        1.42512583       7.52645429       3.58289566       0.00768935       0.03681481       0.00378559
H        0.91354602       8.03803589       2.00382147      -0.00923244       0.02343809       0.00930789
H        8.03803678       0.91354495       2.00382628      -0.00335502      -0.01521567      -0.00558531
H        7.52645591       1.42512386       3.58291357      -0.00660414      -0.03733416       0.00154642
Pb       8.95158102       4.47579055       6.28333845      -0.05533888       0.00322866       0.01223116
Pb       4.47578930       0.00000027       6.28333839       0.03344202       0.01624317       0.00111514
I        8.95158316       4.47578867       3.11507574      -0.12074009       0.02970924      -0.02377981
I        4.47579118       0.00000331       3.11507567      -0.00281275       0.00170767      -0.00296649
I        1.95657823       1.95658119       6.26906953      -0.07279118       0.06273656       0.09708675
I        2.51920391       6.43237577       6.26906579      -0.00227337      -0.08462269      -0.11106903
I        6.43237067       2.51920901       6.26906839       0.08932090      -0.04134933      -0.05676062
I        6.99499616       6.99499911       6.26906560       0.10408601       0.01741029       0.11198659
24
Lattice="8.95158397 0.0 0.0 0.0 8.95158397 0.0 0.0 0.0 6.32897243" Properties=species:S:1:pos:R:3:forces:R:3 config_id=t-FAPI3_wide_rotation_03 phase=t-FAPI3 mode=wide_rotation seed=1698154985 source=t-FAPI3/CONTCAR energy=-113.04670308 stress="-0.00014023085662541706 0.0002649828018261893 0.0005362055773670168 0.0002649828018261893 -0.004296991430671612 0.001489574338444872 0.0005362055773670168 0.001489574338444872 -0.006018486466982156" pbc="T T T"
C        4.88734831       4.40031241       3.23577956      -0.13368602      -0.00571359      -0.04640156
C        0.17089415       8.76191432       2.85919064       0.02571144      -0.00923358      -0.08375104
N        4.54213352       5.55433799       2.71302656       0.16797184      -0.22599700       0.19696045
N        4.06277888       3.46084027       3.63806544      -0.12701554       0.19815906      -0.10673334
N        8.12123244       8.14876895       3.44727818       0.13523272       0.29884890      -0.33983030
N        0.68640647       0.96256266       3.22102982      -0.18474195      -0.13233562      -0.03183235
H        5.95498932       4.20442248       3.34575950       0.07854277      -0.04699318       0.02639597
H        5.27010757       6.21021052       2.43538619      -0.14671591      -0.02999762      -0.07651799
H        3.57655077       5.84599000       2.56241968       0.03150560      -0.02575966      -0.06945120
H        3.04687812       3.53272838       3.58456404       0.05123256       0.15840305       0.00394510
H        4.44381782       2.60152715       4.02992934       0.02881060       0.01067518      -0.01061816
H        0.61423701       8.26990053       1.99218413       0.07456338      -0.05280413      -0.07904361
H        7.80261558       7.25440044       3.07886572       0.10402471       0.05759683       0.02785289
H        7.63021989       8.51270061       4.26371392       0.05663333      -0.00345032       0.01426789
H        0.35460536       1.51179981       4.01371438      -0.01102663      -0.10428965       0.01103721
H        1.46553766       1.34586528       2.68885976      -0.05883664      -0.05314011      -0.09617913
Pb       8.95158102       4.47579055       6.28333845       0.01633477       0.02130329       0.01258109
Pb       4.47578930       0.00000027       6.28333839      -0.02066572      -0.03307591       0.02453989
I        8.95158316       4.47578867       3.11507574       0.07610705       0.07390265       0.01053235
I        4.47579118       0.00000331       3.11507567      -0.01389413       0.05549835       0.02065345
I        1.95657823       1.95658119       6.26906953       0.03786700       0.04780225       0.18232768
I        2.51920391       6.43237577       6.26906579      -0.09196799       0.02126144      -0.06475373
I        6.43237067       2.51920901       6.26906839       0.07257441      -0.05418561       0.01043254
I        6.99499616       6.99499911       6.26906560      -0.16856168      -0.16647503       0.46358591
24
Lattice="8.95158397 0.0 0.0 0.0 8.95158397 0.0 0.0 0.0 6.32897243" Properties=species:S:1:pos:R:3:forces:R:3 config_id=t-FAPI3_wide_rotation_04 phase=t-FAPI3 mode=wide_rotation seed=3800937670 source=t-FAPI3/CONTCAR energy=-113.17122075 stress="-0.0026247691580346395 0.0016975852691209113 0.0006245609797378963 0.0016975852691209113 -0.002921957772459839 -0.00045724309073627946 0.0006245609797378963 -0.00045724309073627946 -0.0024247306317952736" pbc="T T T"
C        4.24339114       4.82630916       3.19481782      -0.09118429      -0.01893814       0.10530299
C        0.00000662       8.95157287       3.61395307      -0.00068683       0.00076606       0.03070040
N        4.83866951       4.50849767       2.06838167      -0.16348138       0.14058099       0.33536258
N        4.30868194       4.14784131       4.31721481      -0.04317458       0.05271974      -0.54023942
N        0.82676525       8.12481523       3.01626668       0.02480294      -0.01540761      -0.03239586
N        8.12482239       0.82675782       3.01626820      -0.02431066       0.01446153      -0.02276045
H        3.64047537       5.73559700       3.19857741       0.00647583       0.06814128       0.01961622
H        4.71732926       5.11127227       1.25650817       0.04060365       0.03419402       0.04464368
H        5.42597353       3.68363284       1.94686869       0.01694853      -0.02607350      -0.01748918
H        4.84034972       3.28511844       4.43177162       0.02834679      -0.00414505      -0.07303825
H        3.80375800       4.48958933       5.13295195      -0.12908216       0.07947051       0.01697095
H        0.00000349       8.95157627       4.70497583       0.00081480       0.00205883      -0.00592006
H        1.42512583       7.52645429       3.58289566      -0.07293044       0.05707005      -0.01342327
H        0.91354602       8.03803589       2.00382147      -0.04253330       0.03599217       0.03358781
H        8.03803678       0.91354495       2.00382628       0.03830553      -0.03690833       0.02338191
H        7.52645591       1.42512386       3.58291357       0.07452979      -0.05807373      -0.02202458
Pb       8.95158102       4.47579055       6.28333845       0.00940088       0.00312492      -0.00073648
Pb       4.47578930       0.00000027       6.28333839      -0.00528207      -0.01299218       0.00696615
I        8.95158316       4.47578867       3.11507574      -0.00906853      -0.00651735      -0.00191148
I        4.47579118       0.00000331       3.11507567       0.01021414       0.04569222       0.01158654
I        1.95657823       1.95658119       6.26906953      -0.05731391      -0.08723348       0.07635807
I        2.51920391       6.43237577       6.26906579      -0.10955377       0.15811491       0.03336808
I        6.43237067       2.51920901       6.26906839       0.46371737      -0.48835597      -0.04953525
I        6.99499616       6.99499911       6.26906560       0.03444166       0.06225810       0.04162891
24
Lattice="8.95158397 0.0 0.0 0.0 8.95158397 0.0 0.0 0.0 6.32897243" Properties=species:S:1:pos:R:3:forces:R:3 config_id=t-FAPI3_wide_rotation_05 phase=t-FAPI3 mode=wide_rotation seed=764672315 source=t-FAPI3/CONTCAR energy=-113.34260422 stress="-0.00195674396898552 -0.0008304431001718435 -0.0008345245478194411 -0.0008304431001718435 -0.0018581408761997084 0.0012444883255158282 -0.0008345245478194411 0.0012444883255158282 -0.0049537867342222056" pbc="T T T"
C        4.42933998       4.74245144       2.87151289       0.11565129      -0.05773908       0.10862687
C        0.19324966       0.31959733       3.38672846      -0.04836961      -0.11147224      -0.14387515
N        5.13033512       5.16262017       3.89926915      -0.05755264       0.07689776      -0.23448262
N        3.86038178       3.56435630       2.75866339      -0.02304977       0.19898349       0.12831785
N        0.23912286       8.09947714       3.97773791       0.03865508       0.39487519      -0.21628541
N        8.54968614       0.58287451       2.24620035      -0.01150326       0.09887204       0.15760020
H        4.30878909       5.43415537       2.03644460      -0.03436770       0.03989170      -0.06689708
H        5.52730564       6.10026368       3.87833114      -0.06865551      -0.02033311       0.02550385
H        5.30885271       4.60461960       4.73405068       0.02271912      -0.16494955       0.03962117
H        3.90558665       2.83858031       3.47370905       0.06363208      -0.00326084      -0.00816105
H        3.33821342       3.34524479       1.91220174      -0.06438705      -0.09451983      -0.07568410
H        0.69457166       1.14873502       3.88826370       0.02692491       0.04394121       0.04954973
H        0.73145380       8.01081770       4.86480573       0.09946025      -0.09013771       0.02758861
H        8.75913270       7.25474758       3.60319476       0.04698350      -0.07561673      -0.07473242
H        8.05082725       8.84035759       1.68990374      -0.05052786      -0.15970818      -0.07352554
H        8.57809041       1.53278330       1.88008866      -0.05272314      -0.07258063       0.05575703
Pb       8.95158102       4.47579055       6.28333845       0.02279416       0.02669244      -0.00447023
Pb       4.47578930       0.00000027       6.28333839      -0.01260320      -0.02132094       0.00475928
I        8.95158316       4.47578867       3.11507574      -0.02364465      -0.05358204      -0.02751394
I        4.47579118       0.00000331       3.11507567       0.02734081      -0.10772741       0.03101128
I        1.95657823       1.95658119       6.26906953       0.12817544       0.09498476      -0.02865329
I        2.51920391       6.43237577       6.26906579      -0.00152074      -0.03003212       0.06773991
I        6.43237067       2.51920901       6.26906839      -0.05394855       0.08659965      -0.06912894
I        6.99499616       6.99499911       6.26906560      -0.08948297       0.00124217       0.32733398
24
Lattice="8.95158397 0.0 0.0 0.0 8.95158397 0.0 0.0 0.0 6.32897243" Properties=species:S:1:pos:R:3:forces:R:3 config_id=t-FAPI3_wide_rotation_06 phase=t-FAPI3 mode=wide_rotation seed=85244482 source=t-FAPI3/CONTCAR energy=-112.76511328 stress="-0.004026495834634513 -0.002668948868986018 -0.006421784930841503 -0.002668948868986018 -0.0026759646934925493 -0.006372473981615098 -0.006421784930841503 -0.006372473981615098 -0.010046092447637343" pbc="T T T"
C        4.47580863       4.47581213       3.61395769       0.00578041       0.00336449       0.03874032
C        0.05876983       8.60885279       3.42994376       0.06480394       0.39491745      -0.11250793
N        5.30254327       5.30254703       3.01626364       0.03103832      -0.00182583      -0.02708557
N        3.64903040       3.64903389       3.01626877      -0.03706909      -0.00402145      -0.03315303
N        0.51900022       0.79383246       3.89972914      -0.67518909      -0.87122946      -1.08779279
N        8.38308821       8.44643230       2.28780664       0.33208083       0.15789127       0.57713165
H        4.47579449       4.47579807       4.70497829      -0.00119534       0.00518854      -0.00163320
H        5.90092282       5.90092640       3.58290572      -0.07715954      -0.02915090       0.01042622
H        5.38933711       5.38934016       2.00382742      -0.04098533      -0.02387341       0.00482782
H        3.56224775       3.56225070       2.00383501       0.04058094       0.02177027       0.02109367
H        3.05066696       3.05067028       3.58291604       0.09426362       0.03754022      -0.01291596
H        0.21121459       7.71973645       4.04359143       0.04091104      -0.05827714       0.01068766
H        0.99170624       0.80212817       4.80173790      -0.01046732      -0.08583076       0.02468934
H        0.43460558       1.68708364       3.41487176      -0.12969076       0.09150080      -0.07789025
H        8.18454243       0.25174602       1.63375170      -0.01661483       0.01842050       0.06976995
H        8.06872979       7.51458611       2.02320774       0.01896796       0.07093169      -0.05646063
Pb       8.95158102       4.47579055       6.28333845      -0.02098792       0.03867227      -0.00415533
Pb       4.47578930       0.00000027       6.28333839       0.01640640      -0.03077241       0.00609903
I        8.95158316       4.47578867       3.11507574      -0.00474946       0.02486927      -0.01438250
I        4.47579118       0.00000331       3.11507567      -0.00113411      -0.00108165       0.00357334
I        1.95657823       1.95658119       6.26906953       0.78532694       0.76846093       1.32705873
I        2.51920391       6.43237577       6.26906579      -0.00541658      -0.07458613       0.02568904
I        6.43237067       2.51920901       6.26906839       0.01925497       0.03439162       0.09842806
I        6.99499616       6.99499911       6.26906560      -0.42875599      -0.48727018      -0.79023763
24
Lattice="8.95158397 0.0 0.0 0.0 8.95158397 0.0 0.0 0.0 6.32897243" Properties=species:S:1:pos:R:3:forces:R:3 config_id=t-FAPI3_wide_rotation_07 phase=t-FAPI3 mode=wide_rotation seed=1427811773 source=t-FAPI3/CONTCAR energy=-113.39908032 stress="-0.0015158563659400516 -4.281808204500296e-05 0.001335590360151135 -4.281808204500296e-05 -0.0014057163990293573 0.0010979859817961963 0.001335590360151135 0.0010979859817961963 -0.001209536067897665" pbc="T T T"
C        4.16240356       4.73023458       3.07541371       0.08853964      -0.08888137       0.12298713
C        0.00000662       8.95157287       3.61395307       0.00583400      -0.00986224       0.03618234
N        3.88679334       3.82515156       3.98595348      -0.09583706       0.17525725      -0.33253318
N        5.32877866       4.91211645       2.50022265      -0.28231061      -0.01939884       0.09532303
N        0.82676525       8.12481523       3.01626668      -0.00913059      -0.01111350      -0.02335931
N        8.12482239       0.82675782       3.01626820      -0.00173899       0.02311188      -0.03607056
H        3.34945356       5.39033226       2.76929416      -0.01710043       0.01661416      -0.03550921
H        2.94273351       3.77462703       4.36463236       0.03122519      -0.10459554       0.01838611
H        4.56550870       3.15555285       4.34799811       0.09519063       0.01475143       0.02974013
H        6.15886406       4.35662232       2.70630317       0.05480624       0.03714575       0.06348908
H        5.42836602       5.64829221       1.80359183       0.13890086       0.07146042      -0.09309322
H        0.00000349       8.95157627       4.70497583       0.00212291       0.00456133       0.00140025
H        1.42512583       7.52645429       3.58289566      -0.03061622       0.06174077       0.02056079
H        0.91354602       8.03803589       2.00382147      -0.01091510       0.01539542      -0.01350453
H        8.03803678       0.91354495       2.00382628       0.01838197      -0.03418799       0.00332312
H        7.52645591       1.42512386       3.58291357       0.03271318      -0.05926101       0.01837543
Pb       8.95158102       4.47579055       6.28333845       0.01374487       0.03030252       0.00850440
Pb       4.47578930       0.00000027       6.28333839      -0.02118527      -0.03459272       0.00871014
I        8.95158316       4.47578867       3.11507574       0.06454822      -0.02978335       0.01857689
I        4.47579118       0.00000331       3.11507567       0.00551164      -0.00251006       0.00285192
I        1.95657823       1.95658119       6.26906953      -0.17217957      -0.10163565       0.14617234
I        2.51920391       6.43237577       6.26906579      -0.08064359       0.05909079      -0.01233434
I        6.43237067       2.51920901       6.26906839       0.09580153      -0.08029902      -0.07552442
I        6.99499616       6.99499911       6.26906560       0.07433658       0.06668959       0.02734567
24
Lattice="8.95158397 0.0 0.0 0.0 8.95158397 0.0 0.0 0.0 6.32897243" Properties=species:S:1:pos:R:3:forces:R:3 config_id=t-FAPI3_wide_rotation_08 phase=t-FAPI3 mode=wide_rotation seed=4081527428 source=t-FAPI3/CONTCAR energy=-113.0517914 stress="0.0007580089761849058 0.00031084610369069246 -0.001336303065595201 0.00031084610369069246 -0.007440816059372623 0.0009707751878337733 -0.001336303065595201 0.0009707751878337733 -0.005737151229563117" pbc="T T T"
C        4.86256155       4.49470713       3.02930981      -0.24605213       0.11797889       0.03694472
C        0.20070660       8.79646475       3.52884566      -0.05868274      -0.04837313      -0.02342971
N        4.19103100       5.62035530       3.10793488       0.16158768      -0.50130870      -0.13239967
N        4.43476079       3.31530927       3.41707734       0.00392153       0.33050280      -0.14947789
N        8.19798252       8.05899074       3.00950436       0.11289384       0.31321952       0.12856186
N        0.58454389       1.02323739       3.09472062      -0.13197093      -0.13678724      -0.15304103
H        5.86592419       4.54368930       2.60364553       0.06573446      -0.03386699      -0.00814788
H        4.62394500       6.47996409       2.77498233      -0.08429387       0.11822764       0.02970555
H        3.24714743       5.69587551       3.48671426       0.02133739      -0.04979349       0.08169380
H        3.51646434       3.14885895       3.82830796       0.07371706       0.09367909       0.08088075
H        5.04407747       2.50662299       3.30786845      -0.08004389      -0.05523882       0.02069827
H        0.72138998       8.39408272       4.39908026       0.07107164      -0.03172089       0.09679922
H        7.98416731       7.15672890       3.43062906       0.03765413      -0.00769518       0.00327886
H        7.64457483       8.33184916       2.19747296       0.05322524      -0.02040777      -0.10494816
H        0.17159918       1.49719431       2.29163668      -0.00093552      -0.10515267       0.02562542
H        1.33920799       1.50753706       3.57753223      -0.09599555      -0.04048079       0.10916121
Pb       8.95158102       4.47579055       6.28333845      -0.02780392       0.02974196      -0.00298285
Pb       4.47578930       0.00000027       6.28333839       0.03019543      -0.00966420      -0.00621086
I        8.95158316       4.47578867       3.11507574       0.05855611       0.06596228       0.01652960
I        4.47579118       0.00000331       3.11507567       0.02291849       0.02322945      -0.04609217
I        1.95657823       1.95658119       6.26906953       0.10704677       0.05336192      -0.09428922
I        2.51920391       6.43237577       6.26906579      -0.06788982       0.02972062      -0.05346881
I        6.43237067       2.51920901       6.26906839       0.09793664      -0.06422248       0.18503495
I        6.99499616       6.99499911       6.26906560      -0.12412804      -0.07091181      -0.04042596
24
Lattice="8.95158397 0.0 0.0 0.0 8.95158397 0.0 0.0 0.0 6.32897243" Properties=species:S:1:pos:R:3:forces:R:3 config_id=t-FAPI3_wide_rotation_09 phase=t-FAPI3 mode=wide_rotation seed=2536593249 source=t-FAPI3/CONTCAR energy=-113.26379885 stress="-0.004226188762272071 0.00042775310231265114 0.0009057211490674625 0.00042775310231265114 -9.97242238625481e-05 -0.0006814589576615049 0.0009057211490674625 -0.0006814589576615049 -0.0011933110152645664" pbc="T T T"
C        4.33857226       4.80546083       2.97121705      -0.09387274      -0.11262248       0.17377523
C        0.00000662       8.95157287       3.61395307       0.01741610      -0.01747287       0.05909624
N        5.59936258       4.46907910       2.82467672      -0.14389696       0.04225971      -0.04050010
N        3.46781248       4.20482154       3.74927010       0.44621931      -0.05401209      -0.18911867
N        0.82676525       8.12481523       3.01626668      -0.02192487      -0.00915880      -0.02727377
N        8.12482239       0.82675782       3.01626820       0.00126393       0.03221893      -0.06013695
H        3.98252381       5.66066705       2.39486842       0.00966992       0.05839306      -0.04075596
H        6.18582435       5.00887967       2.19073893      -0.01311465       0.02870343       0.02338487
H        6.04163438       3.68934127       3.31098731      -0.13046560       0.11407732       0.05682210
H        3.68632566       3.39734498       4.33263814       0.01250181      -0.02556029       0.01082660
H        2.51154770       4.55336489       3.78451311      -0.13741592      -0.07906363      -0.07055957
H        0.00000349       8.95157627       4.70497583       0.00080513       0.00312614       0.00528129
H        1.42512583       7.52645429       3.58289566      -0.02625962       0.07344333       0.02434687
H        0.91354602       8.03803589       2.00382147      -0.00635138       0.01526008      -0.02403819
H        8.03803678       0.91354495       2.00382628       0.01473058      -0.03632587      -0.00899719
H        7.52645591       1.42512386       3.58291357       0.04621903      -0.10043077       0.04256937
Pb       8.95158102       4.47579055       6.28333845       0.02256525       0.01773077       0.00387590
Pb       4.47578930       0.00000027       6.28333839      -0.01313270      -0.03007020       0.00615719
I        8.95158316       4.47578867       3.11507574       0.12964249       0.02717392       0.01827508
I        4.47579118       0.00000331       3.11507567       0.00627288       0.02937026       0.00780053
I        1.95657823       1.95658119       6.26906953      -0.09010933      -0.05247865       0.06909313
I        2.51920391       6.43237577       6.26906579      -0.13749749       0.13128018       0.05862943
I        6.43237067       2.51920901       6.26906839       0.04273333      -0.02799547      -0.22097976
I        6.99499616       6.99499911       6.26906560       0.06400149      -0.02784601       0.12242632
24
Lattice="8.95158397 0.0 0.0 0.0 8.95158397 0.0 0.0 0.0 6.32897243" Properties=species:S:1:pos:R:3:forces:R:3 config_id=t-FAPI3_wide_rotation_10 phase=t-FAPI3 mode=wide_rotation seed=3331515967 source=t-FAPI3/CONTCAR energy=-112.83835003 stress="-0.002629665565770313 -0.002977421133269354 -0.005005746186706559 -0.002977421133269354 -0.006180078064711703 -0.003871723222938194 -0.005005746186706559 -0.003871723222938194 -0.007595408010587294" pbc="T T T"
C        4.30016441       4.39756928       2.81935577      -0.01233883      -0.17224524       0.07441673
C        0.20358990       0.30930533       2.99402882       0.00595456      -0.15460141       0.46900305
N        4.96171852       5.52486589       2.94492460       0.09803178      -0.07681065      -0.03762408
N        4.13780980       3.49262296       3.75694303      -0.28312053       0.30600933      -0.27676621
N        8.23764806       8.61346519       2.31338543       0.17161483       0.32810553       0.22350326
N        0.54244988       0.07755643       4.24134037      -0.51135499      -0.58267531      -0.95098285
H        3.84452055       4.19456508       1.84904461      -0.01499961       0.04080026      -0.05736519
H        5.02323326       6.15487622       2.14711377      -0.03732350      -0.05294052       0.06423970
H        5.42778336       5.81990526       3.80272916      -0.05357104      -0.06522558       0.03457377
H        4.51738462       3.57432872       4.69998689       0.15295425      -0.00905922       0.05987595
H        3.60301362       2.65178134       3.54683545       0.12158980       0.01036056       0.02354829
H        0.73175081       1.11173615       2.47684241       0.01106778       0.03783540      -0.05963602
H        8.05730301       8.87979182       1.34711153      -0.06908278      -0.02305922       0.12559267
H        7.68159053       7.84701329       2.69214437       0.14598681       0.12080792      -0.00406308
H        0.11827343       8.30632318       4.82247016      -0.11112447      -0.09194205      -0.07078804
H        1.27141164       0.64473605       4.67040128       0.09955394       0.04908151       0.04197711
Pb       8.95158102       4.47579055       6.28333845       0.03452552       0.00367129      -0.00385083
Pb       4.47578930       0.00000027       6.28333839      -0.04137265       0.00058100       0.00151835
I        8.95158316       4.47578867       3.11507574      -0.00550226       0.02065651      -0.00440534
I        4.47579118       0.00000331       3.11507567      -0.04012256       0.05275581      -0.01593041
I        1.95657823       1.95658119       6.26906953       0.54803008       0.67078925       0.86467784
I        2.51920391       6.43237577       6.26906579       0.10967221      -0.01462042       0.00340466
I        6.43237067       2.51920901       6.26906839       0.02781543      -0.02647673       0.14822908
I        6.99499616       6.99499911       6.26906560      -0.34688376      -0.37179799      -0.65314843
24
Lattice="8.95158397 0.0 0.0 0.0 8.95158397 0.0 0.0 0.0 6.32897243" Properties=species:S:1:pos:R:3:forces:R:3 config_id=t-FAPI3_wide_rotation_11 phase=t-FAPI3 mode=wide_rotation seed=1582459888 source=t-FAPI3/CONTCAR energy=-113.10424979 stress="-0.0050380014445408645 0.00015015086781124001 -0.0014039422188527795 0.00015015086781124001 -0.00031643788419958956 -0.00169232975615768 -0.0014039422188527795 -0.00169232975615768 -0.009748634992689567" pbc="T T T"
C        4.30318960       4.16567519       3.41901590      -0.12123076       0.17916636      -0.09049976
C        8.83563097       8.91840877       3.59628846       0.22434926       0.19601672      -0.02076999
N        5.58623052       4.07088015       3.15626304      -0.17880944       0.06485530      -0.12856035
N        3.51074920       5.14194604       3.04047911       0.43103176      -0.17898505       0.07882147
N        8.06930771       8.33485743       2.70381791       0.24339233       0.16463659       0.39956120
N        0.97995613       0.64465181       3.34359626      -0.34889682      -0.31573740      -0.49546196
H        3.85535340       3.36119115       4.00431415      -0.00000476      -0.05444329       0.06202716
H        6.10472971       3.26544867       3.50215044       0.00273383       0.06288124       0.05277956
H        6.11073596       4.76120599       2.61919923      -0.09387222      -0.07404027       0.02074658
H        3.81738168       5.94470484       2.49126203       0.01617344      -0.01426748      -0.01147529
H        2.52710198       5.11170580       3.30256787      -0.19243042       0.01739382      -0.02339867
H        8.53483071       8.83237152       4.64149060      -0.00787099      -0.00763937       0.08573715
H        7.23919823       7.83371822       3.01513329       0.03440283       0.10068498      -0.03914538
H        8.25071442       8.34850000       1.70031787      -0.03167294      -0.04669312      -0.03578869
H        1.35683562       0.79069771       2.40725511      -0.08997557      -0.03260873      -0.17186165
H        1.49761844       1.05642405       4.11796091       0.04548992       0.09167056       0.26806847
Pb       8.95158102       4.47579055       6.28333845      -0.01501392       0.04535690      -0.00327233
Pb       4.47578930       0.00000027       6.28333839       0.03574087      -0.04229250      -0.00572793
I        8.95158316       4.47578867       3.11507574       0.14230878       0.00451834       0.01728097
I        4.47579118       0.00000331       3.11507567       0.03731937      -0.02044607      -0.01192240
I        1.95657823       1.95658119       6.26906953       0.11675462       0.10731097       0.38357874
I        2.51920391       6.43237577       6.26906579      -0.08841840       0.11970785      -0.01360813
I        6.43237067       2.51920901       6.26906839       0.06255801      -0.10331374       0.02260703
I        6.99499616       6.99499911       6.26906560      -0.22405876      -0.26373259      -0.33971580
24
Lattice="8.95158397 0.0 0.0 0.0 8.95158397 0.0 0.0 0.0 6.32897243" Properties=species:S:1:pos:R:3:forces:R:3 config_id=t-FAPI3_wide_rotation_12 phase=t-FAPI3 mode=wide_rotation seed=2239997256 source=t-FAPI3/CONTCAR energy=-113.05065377 stress="-0.0027817595714101687 0.0026113277747811213 -0.003171429600229004 0.0026113277747811213 -0.003785633956493194 0.004003745427765014 -0.003171429600229004 0.004003745427765014 -0.00417849237286786" pbc="T T T"
C        4.38208260       4.88085922       3.25675713      -0.08738621      -0.11072134      -0.20657898
C        0.00000662       8.95157287       3.61395307      -0.01127464       0.01312115       0.02980876
N        4.97866753       4.24481605       4.23846714      -0.40793743       0.41626528      -0.54030885
N        4.05185678       4.36557274       2.09495367       0.34718692      -0.37679940       0.54470142
N        0.82676525       8.12481523       3.01626668       0.03179137      -0.01253789      -0.01765809
N        8.12482239       0.82675782       3.01626820      -0.01624319      -0.00730897      -0.01911754
H        4.13894782       5.93167626       3.42105788       0.01567690       0.11317896      -0.01988986
H        5.18779220       4.74687907       5.09951238       0.05535398      -0.00799552      -0.07789492
H        5.25293055       3.26335007       4.19849772      -0.07836851       0.08196865      -0.04369774
H        4.22882808       3.39678497       1.82997061       0.01302883      -0.00897442       0.11744751
H        3.59019460       4.95503580       1.40461442      -0.15804723       0.17473136      -0.20034545
H        0.00000349       8.95157627       4.70497583      -0.00164195       0.00335487      -0.00598607
H        1.42512583       7.52645429       3.58289566      -0.07355714       0.03851618      -0.03071188
H        0.91354602       8.03803589       2.00382147      -0.02924248       0.02548681       0.02287364
H        8.03803678       0.91354495       2.00382628       0.03003816      -0.01510508       0.01141653
H        7.52645591       1.42512386       3.58291357       0.07702611      -0.04474914      -0.01345863
Pb       8.95158102       4.47579055       6.28333845      -0.00976365      -0.02912557       0.00276168
Pb       4.47578930       0.00000027       6.28333839       0.01336905       0.01501324       0.00674958
I        8.95158316       4.47578867       3.11507574      -0.00426346       0.00215403       0.00248391
I        4.47579118       0.00000331       3.11507567       0.00722037       0.09910376       0.00586822
I        1.95657823       1.95658119       6.26906953      -0.01193873      -0.08657872       0.05049362
I        2.51920391       6.43237577       6.26906579      -0.21450272       0.34496996      -0.31568015
I        6.43237067       2.51920901       6.26906839       0.51993426      -0.66523134       0.65469515
I        6.99499616       6.99499911       6.26906560      -0.00645858       0.03726313       0.04202813
24
Lattice="8.95158397 0.0 0.0 0.0 8.95158397 0.0 0.0 0.0 6.32897243" Properties=species:S:1:pos:R:3:forces:R:3 config_id=t-FAPI3_wide_rotation_13 phase=t-FAPI3 mode=wide_rotation seed=712131915 source=t-FAPI3/CONTCAR energy=-113.33806187 stress="-0.001740053096398297 0.00012973990339230397 -0.001321780927587481 0.00012973990339230397 -0.0009083218673315447 -0.0004735386349734458 -0.001321780927587481 -0.0004735386349734458 -0.0023000063239969107" pbc="T T T"
C        4.47580863       4.47581213       3.61395769       0.00452569       0.00378477       0.01342560
C        8.64000117       8.92379440       3.47448466       0.10647440       0.08622382      -0.11080763
N        5.30254327       5.30254703       3.01626364      -0.01469730       0.02484156      -0.01649638
N        3.64903040       3.64903389       3.01626877       0.00892826      -0.02653400      -0.00540934
N        0.90124458       8.65144363       3.89775995      -0.38976486      -0.04307986      -0.17155437
N        8.31280995       0.32352922       2.25225693      -0.03955190      -0.02550858       0.12690875
H        4.47579449       4.47579807       4.70497829       0.00484672       0.00212840      -0.00517277
H        5.90092282       5.90092640       3.58290572       0.00032391      -0.04539534       0.00661712
H        5.38933711       5.38934016       2.00382742      -0.00656255      -0.02733349       0.00948285
H        3.56224775       3.56225070       2.00383501       0.00421148       0.01542432       0.00680518
H        3.05066696       3.05067028       3.58291604       0.00377416       0.05175244      -0.01617078
H        7.83166383       8.85172565       4.20368115      -0.04011812       0.00961778       0.02929756
H        1.03871665       8.38832641       4.87193159       0.06627118      -0.11789468      -0.04778980
H        1.73218413       8.68559275       3.30743789       0.11727636      -0.01417612      -0.04083031
H        0.03051147       0.42314316       1.48921278       0.08728904       0.06378117       0.03168044
H        7.33569434       0.51178694       2.03551886       0.03995517       0.06633123       0.01036126
Pb       8.95158102       4.47579055       6.28333845      -0.02494542       0.00675703       0.00324669
Pb       4.47578930       0.00000027       6.28333839       0.01776713      -0.00547009      -0.00396079
I        8.95158316       4.47578867       3.11507574       0.00031296       0.00074080       0.00283900
I        4.47579118       0.00000331       3.11507567       0.08502677       0.01264074      -0.04118595
I        1.95657823       1.95658119       6.26906953       0.11341863       0.08882709       0.15659258
I        2.51920391       6.43237577       6.26906579       0.11139457      -0.02316957       0.14108030
I        6.43237067       2.51920901       6.26906839      -0.12412799       0.00423024       0.00855634
I        6.99499616       6.99499911       6.26906560      -0.13202831      -0.10851964      -0.08751555
24
Lattice="8.95158397 0.0 0.0 0.0 8.95158397 0.0 0.0 0.0 6.32897243" Properties=species:S:1:pos:R:3:forces:R:3 config_id=t-FAPI3_wide_rotation_14 phase=t-FAPI3 mode=wide_rotation seed=1427105273 source=t-FAPI3/CONTCAR energy=-113.45180672 stress="-0.0005603904765204274 0.0005440308507090656 0.00044068581505542844 0.0005440308507090656 -0.0015926753061256504 -0.0006758501003836394 0.00044068581505542844 -0.0006758501003836394 -0.00031782351170855385" pbc="T T T"
C        4.47580863       4.47581213       3.61395769      -0.00957743      -0.00766845       0.00061371
C        8.93909266       0.22892996       2.84083256      -0.08422931      -0.07677027       0.10910827
N        5.30254327       5.30254703       3.01626364       0.02178631      -0.00209251      -0.01214880
N        3.64903040       3.64903389       3.01626877      -0.01274937       0.01808540       0.00181227
N        8.39119664       0.75253021       3.91318505       0.04845779      -0.00786648      -0.18795123
N        0.57091690       8.00619698       2.77058743      -0.01753983       0.17324470       0.11536565
H        4.47579449       4.47579807       4.70497829       0.00544227      -0.00412851      -0.00219032
H        5.90092282       5.90092640       3.58290572      -0.02417865       0.00633030      -0.00002669
H        5.38933711       5.38934016       2.00382742      -0.01642340      -0.01046038       0.01267782
H        3.56224775       3.56225070       2.00383501       0.01093212      -0.00576808      -0.00398670
H        3.05066696       3.05067028       3.58291604       0.02559393      -0.00531601      -0.00100669
H        8.90669034       0.82283058       1.92619447      -0.00425223       0.03543584      -0.04829309
H        7.96498237       1.67540200       3.85163421       0.00045888      -0.00072423       0.04928363
H        8.36189551       0.29051059       4.82191283      -0.02248331      -0.07096887      -0.05866911
H        0.66036569       7.36595320       3.55937707      -0.00661201       0.03659786      -0.00033795
H        0.96347474       7.70022298       1.88207767       0.13012193      -0.10809829      -0.07210093
Pb       8.95158102       4.47579055       6.28333845      -0.01299410      -0.04731652       0.00735949
Pb       4.47578930       0.00000027       6.28333839       0.00008019       0.04539583       0.00020126
I        8.95158316       4.47578867       3.11507574      -0.02747422      -0.10607663       0.02300295
I        4.47579118       0.00000331       3.11507567       0.00359918      -0.00168450      -0.00433352
I        1.95657823       1.95658119       6.26906953       0.05059276       0.06205660      -0.01403834
I        2.51920391       6.43237577       6.26906579      -0.03124160      -0.05220931       0.01180621
I        6.43237067       2.51920901       6.26906839      -0.07097219       0.14414724       0.15883426
I        6.99499616       6.99499911       6.26906560       0.04366229      -0.01414473      -0.08498215
