C  N  H  Pb I 
 1.0000000000000000
     8.9515839677080429    0.0000000000000000    0.0000000000000000
     0.0000000000000000    8.9515839677080429    0.0000000000000000
     0.0000000000000000    0.0000000000000000    6.3289724258144924
 C   N   H   Pb  I  
   2   4  10   2   6
Direct
  0.5432068319374699  0.5021130494493259  0.4786416520744506
  0.0224213543050347  0.9826713136013916  0.5575700754092735
  0.4681887585140058  0.6278615369752846  0.4910646929616526
  0.4954163176292878  0.3703600662267148  0.5399102906322431
  0.9158136248401163  0.9002865622021675  0.4755123171959335
  0.0653006054594864  0.1143079658917894  0.4889767892468639
  0.6552945474920853  0.5075849517483487  0.4113851868284650
  0.5165504753044017  0.7238902186648796  0.4384570068823021
  0.3627455672141234  0.6362980646779325  0.5509131715802184
  0.3928315234265806  0.3517655603050199  0.6048861849244969
  0.5634843533530314  0.2800200497034408  0.5226549025843394
  0.0805879743745292  0.9377203831730688  0.6950702155546467
  0.8919278789213932  0.7994930151219555  0.5420515118737601
  0.8539912982220048  0.9307681436125977  0.3472084885108732
  0.0191697033271457  0.1672546826327484  0.3620866903723815
  0.1496057018437909  0.1684100940734886  0.5652627273289424
  0.9999996702832874  0.4999998411152120  0.9927896685767361
  0.4999997010236399  0.0000000324883942  0.9927896646371461
 -0.0000000897965151  0.4999996263576136  0.4921929684839212
  0.4999999142446682  0.0000003677771616  0.4921929568124041
  0.2185734085131937  0.2185737368091121  0.9905351307177016
  0.2814254933831534  0.7185740284663772  0.9905345394682984
  0.7185734566697085  0.2814260629724074  0.9905349485405626
  0.7814255204687662  0.7814258469398120  0.9905345050794724
Cartesian
  0.0000000000000000  0.0000000000000000  0.0000000000000000
  0.0000000000000000  0.0000000000000000  0.0000000000000000
  0.0000000000000000  0.0000000000000000  0.0000000000000000
  0.0000000000000000  0.0000000000000000  0.0000000000000000
  0.0000000000000000  0.0000000000000000  0.0000000000000000
  0.0000000000000000  0.0000000000000000  0.0000000000000000
  0.0000000000000000  0.0000000000000000  0.0000000000000000
  0.0000000000000000  0.0000000000000000  0.0000000000000000
  0.0000000000000000  0.0000000000000000  0.0000000000000000
  0.0000000000000000  0.0000000000000000  0.0000000000000000
  0.0000000000000000  0.0000000000000000  0.0000000000000000
  0.0000000000000000  0.0000000000000000  0.0000000000000000
  0.0000000000000000  0.0000000000000000  0.0000000000000000
  0.0000000000000000  0.0000000000000000  0.0000000000000000
  0.0000000000000000  0.0000000000000000  0.0000000000000000
  0.0000000000000000  0.0000000000000000  0.0000000000000000
  0.0000000000000000  0.0000000000000000  0.0000000000000000
  0.0000000000000000  0.0000000000000000  0.0000000000000000
  0.0000000000000000  0.0000000000000000  0.0000000000000000
  0.0000000000000000  0.0000000000000000  0.0000000000000000
  0.0000000000000000  0.0000000000000000  0.0000000000000000
  0.0000000000000000  0.0000000000000000  0.0000000000000000
  0.0000000000000000  0.0000000000000000  0.0000000000000000
  0.0000000000000000  0.0000000000000000  0.0000000000000000
