C  N  H  Pb I                           
   1.0000000000000000     
     8.9304702142743260    0.0228762760047671   -0.0093141692208015
     0.0222634391095159    8.8776896389666895    0.0579085006892978
    -0.0132144024579259    0.0844187275870453   12.8106004813877643
  C               N               H               Pb              I             
     4     8    20     4    12
Direct
     0.5008718736689275    0.0436788852813805    0.2508367762680521
     0.0055638404563965    0.4550664095455801    0.7453456830545591
     0.9798999471121519    0.5257175572553123    0.2447064893577249
     0.4932437510505991    0.9582727034461200    0.7444417164274952
     0.5667084922527934    0.9345421732143251    0.1902427701932723
     0.0696495427199579    0.5643447405643442    0.6926270013809628
     0.1034565976643549    0.5816139815418637    0.2737298867605276
     0.6185538350890454    0.9014212017074286    0.7318701575136686
     0.3641574908936818    0.0831389649733580    0.2397002592135422
     0.8711521837797420    0.4114678822712534    0.7350097070296826
     0.9575611286375008    0.4497396856678577    0.1571176129128844
     0.4411937306335005    0.0825250827849331    0.7011232615116754
     0.5732927772300940    0.0961681440047997    0.3077895811427922
     0.0776987678390171    0.4056660461619330    0.8123291347905095
     0.8820563331956279    0.5456900304821843    0.2972451806839160
     0.4078517533697550    0.8967615842954118    0.7967263259833572
     0.6824002655963284    0.9163359616353191    0.2010459605671358
     0.1764573779314844    0.5971325404682730    0.6991353611509155
     0.1151650293316777    0.6358235570823751    0.3438903714380501
     0.6575463013775078    0.8085280554762377    0.7729146676179468
     0.5150244573145670    0.8797402092738196    0.1303791898510482
     0.0120954907831816    0.6189047817874993    0.6355846686472049
     0.2036894892280188    0.5700220865450092    0.2319767738420637
     0.6977557501121368    0.9501942853808387    0.6877720632125559
     0.2998936627150002    0.0380499260557770    0.1888013671780158
     0.7938774043944008    0.4625944789858139    0.6821287364034703
     0.0498083256329167    0.4320869453452971    0.1075984548219182
     0.5083846649859325    0.1452460885961244    0.6498998216282530
     0.3222898859002541    0.1594084094385124    0.2909232049838195
     0.8279375484551394    0.3323814727721128    0.7857220065718451
     0.8539315567772832    0.4210365487143761    0.1314319319117132
     0.3294831906084283    0.1100286053249064    0.7109479090699082
     0.5025015665731090    0.4875330040959867    0.9810873778411420
     0.0043095623968625    0.0169576734111203    0.4763686351678302
     0.0084722202122265    0.9869045684505551    0.9810383760293320
     0.4879354937090028    0.5130233934557538    0.4823095519833274
     0.7903929572755786    0.7058031935532654    0.5027884253992099
     0.9568874617213083    0.9873476582333893    0.2282713316019525
     0.7127893064584896    0.2024776651710170    0.9580061461419334
     0.2071639392132738    0.2859976066298131    0.0023523614432790
     0.2013549634326566    0.3035375437706946    0.4632885967287805
     0.2944821513739910    0.7992605153883474    0.4570607874322690
     0.7955828091806794    0.6897751675927566    0.9623668236219984
     0.7050733996445970    0.2098921611186242    0.5035755363485634
     0.4653502960116853    0.5058526697272612    0.7341133004858378
     0.0354701070790355    0.0073913273159221    0.7323389102156597
     0.2932494870392190    0.7895363699435123    0.0042529185484952
     0.5443942254511143    0.4914832430800118    0.2263804576635380

  0.00000000E+00  0.00000000E+00  0.00000000E+00
  0.00000000E+00  0.00000000E+00  0.00000000E+00
  0.00000000E+00  0.00000000E+00  0.00000000E+00
  0.00000000E+00  0.00000000E+00  0.00000000E+00
  0.00000000E+00  0.00000000E+00  0.00000000E+00
  0.00000000E+00  0.00000000E+00  0.00000000E+00
  0.00000000E+00  0.00000000E+00  0.00000000E+00
  0.00000000E+00  0.00000000E+00  0.00000000E+00
  0.00000000E+00  0.00000000E+00  0.00000000E+00
  0.00000000E+00  0.00000000E+00  0.00000000E+00
  0.00000000E+00  0.00000000E+00  0.00000000E+00
  0.00000000E+00  0.00000000E+00  0.00000000E+00
  0.00000000E+00  0.00000000E+00  0.00000000E+00
  0.00000000E+00  0.00000000E+00  0.00000000E+00
  0.00000000E+00  0.00000000E+00  0.00000000E+00
  0.00000000E+00  0.00000000E+00  0.00000000E+00
  0.00000000E+00  0.00000000E+00  0.00000000E+00
  0.00000000E+00  0.00000000E+00  0.00000000E+00
  0.00000000E+00  0.00000000E+00  0.00000000E+00
  0.00000000E+00  0.00000000E+00  0.00000000E+00
  0.00000000E+00  0.00000000E+00  0.00000000E+00
  0.00000000E+00  0.00000000E+00  0.00000000E+00
  0.00000000E+00  0.00000000E+00  0.00000000E+00
  0.00000000E+00  0.00000000E+00  0.00000000E+00
  0.00000000E+00  0.00000000E+00  0.00000000E+00
  0.00000000E+00  0.00000000E+00  0.00000000E+00
  0.00000000E+00  0.00000000E+00  0.00000000E+00
  0.00000000E+00  0.00000000E+00  0.00000000E+00
  0.00000000E+00  0.00000000E+00  0.00000000E+00
  0.00000000E+00  0.00000000E+00  0.00000000E+00
  0.00000000E+00  0.00000000E+00  0.00000000E+00
  0.00000000E+00  0.00000000E+00  0.00000000E+00
  0.00000000E+00  0.00000000E+00  0.00000000E+00
  0.00000000E+00  0.00000000E+00  0.00000000E+00
  0.00000000E+00  0.00000000E+00  0.00000000E+00
  0.00000000E+00  0.00000000E+00  0.00000000E+00
  0.00000000E+00  0.00000000E+00  0.00000000E+00
  0.00000000E+00  0.00000000E+00  0.00000000E+00
  0.00000000E+00  0.00000000E+00  0.00000000E+00
  0.00000000E+00  0.00000000E+00  0.00000000E+00
  0.00000000E+00  0.00000000E+00  0.00000000E+00
  0.00000000E+00  0.00000000E+00  0.00000000E+00
  0.00000000E+00  0.00000000E+00  0.00000000E+00
  0.00000000E+00  0.00000000E+00  0.00000000E+00
  0.00000000E+00  0.00000000E+00  0.00000000E+00
  0.00000000E+00  0.00000000E+00  0.00000000E+00
  0.00000000E+00  0.00000000E+00  0.00000000E+00
  0.00000000E+00  0.00000000E+00  0.00000000E+00
