C  N  H  Pb I 
 1.0000000000000000
     8.9304702142743260    0.0228762760047671   -0.0093141692208015
     0.0222634391095159    8.8776896389666895    0.0579085006892978
    -0.0132144024579259    0.0844187275870453   12.8106004813877643
 C   N   H   Pb  I  
   4   8  20   4  12
Direct
  0.5008718736689309  0.0436788852813801  0.2508367762680553
  0.0055638404563937  0.4550664095455772  0.7453456830545564
  0.9798999471121539  0.5257175572553106  0.2447064893577235
  0.4932437510506006  0.9582727034461220  0.7444417164274952
  0.5667084922527948  0.9345421732143225  0.1902427701932735
  0.0696495427199559  0.5643447405643446  0.6926270013809636
  0.1034565976643521  0.5816139815418629  0.2737298867605253
  0.6185538350890486  0.9014212017074252  0.7318701575136677
  0.3641574908936787  0.0831389649733605  0.2397002592135436
  0.8711521837797391  0.4114678822712514  0.7350097070296793
  0.9575611286375038  0.4497396856678553  0.1571176129128861
  0.4411937306335006  0.0825250827849345  0.7011232615116749
  0.5732927772300934  0.0961681440048025  0.3077895811427895
  0.0776987678390172  0.4056660461619359  0.8123291347905089
  0.8820563331956266  0.5456900304821818  0.2972451806839157
  0.4078517533697542  0.8967615842954131  0.7967263259833590
  0.6824002655963305  0.9163359616353208  0.2010459605671349
  0.1764573779314844  0.5971325404682712  0.6991353611509177
  0.1151650293316793  0.6358235570823749  0.3438903714380498
  0.6575463013775058  0.8085280554762388  0.7729146676179460
  0.5150244573145661  0.8797402092738184  0.1303791898510464
  0.0120954907831787  0.6189047817875000  0.6355846686472068
  0.2036894892280166  0.5700220865450057  0.2319767738420615
  0.6977557501121391  0.9501942853808371  0.6877720632125542
  0.2998936627150015  0.0380499260557772  0.1888013671780132
  0.7938774043944021  0.4625944789858142  0.6821287364034733
  0.0498083256329172  0.4320869453452996  0.1075984548219150
  0.5083846649859344  0.1452460885961256  0.6498998216282507
  0.3222898859002544  0.1594084094385105  0.2909232049838196
  0.8279375484551402  0.3323814727721143  0.7857220065718422
  0.8539315567772852  0.4210365487143774  0.1314319319117141
  0.3294831906084306  0.1100286053249036  0.7109479090699080
  0.5025015665731092  0.4875330040959862  0.9810873778411449
  0.0043095623968608  0.0169576734111170  0.4763686351678283
  0.0084722202122268  0.9869045684505521  0.9810383760293350
  0.4879354937090019  0.5130233934557523  0.4823095519833246
  0.7903929572755796  0.7058031935532686  0.5027884253992103
  0.9568874617213088  0.9873476582333890  0.2282713316019510
  0.7127893064584876  0.2024776651710186  0.9580061461419314
  0.2071639392132752  0.2859976066298116  0.0023523614432770
  0.2013549634326554  0.3035375437706953  0.4632885967287820
  0.2944821513739892  0.7992605153883444  0.4570607874322696
  0.7955828091806826  0.6897751675927558  0.9623668236219972
  0.7050733996445997  0.2098921611186217  0.5035755363485631
  0.4653502960116850  0.5058526697272639  0.7341133004858356
  0.0354701070790343  0.0073913273159248  0.7323389102156603
  0.2932494870392209  0.7895363699435141  0.0042529185484951
  0.5443942254511173  0.4914832430800098  0.2263804576635414
Cartesian
  0.0000000000000000  0.0000000000000000  0.0000000000000000
  0.0000000000000000  0.0000000000000000  0.0000000000000000
  0.0000000000000000  0.0000000000000000  0.0000000000000000
  0.0000000000000000  0.0000000000000000  0.0000000000000000
  0.0000000000000000  0.0000000000000000  0.0000000000000000
  0.0000000000000000  0.0000000000000000  0.0000000000000000
  0.0000000000000000  0.0000000000000000  0.0000000000000000
  0.0000000000000000  0.0000000000000000  0.0000000000000000
  0.0000000000000000  0.0000000000000000  0.0000000000000000
  0.0000000000000000  0.0000000000000000  0.0000000000000000
  0.0000000000000000  0.0000000000000000  0.0000000000000000
  0.0000000000000000  0.0000000000000000  0.0000000000000000
  0.0000000000000000  0.0000000000000000  0.0000000000000000
  0.0000000000000000  0.0000000000000000  0.0000000000000000
  0.0000000000000000  0.0000000000000000  0.0000000000000000
  0.0000000000000000  0.0000000000000000  0.0000000000000000
  0.0000000000000000  0.0000000000000000  0.0000000000000000
  0.0000000000000000  0.0000000000000000  0.0000000000000000
  0.0000000000000000  0.0000000000000000  0.0000000000000000
  0.0000000000000000  0.0000000000000000  0.0000000000000000
  0.0000000000000000  0.0000000000000000  0.0000000000000000
  0.0000000000000000  0.0000000000000000  0.0000000000000000
  0.0000000000000000  0.0000000000000000  0.0000000000000000
  0.0000000000000000  0.0000000000000000  0.0000000000000000
  0.0000000000000000  0.0000000000000000  0.0000000000000000
  0.0000000000000000  0.0000000000000000  0.0000000000000000
  0.0000000000000000  0.0000000000000000  0.0000000000000000
  0.0000000000000000  0.0000000000000000  0.0000000000000000
  0.0000000000000000  0.0000000000000000  0.0000000000000000
  0.0000000000000000  0.0000000000000000  0.0000000000000000
  0.0000000000000000  0.0000000000000000  0.0000000000000000
  0.0000000000000000  0.0000000000000000  0.0000000000000000
  0.0000000000000000  0.0000000000000000  0.0000000000000000
  0.0000000000000000  0.0000000000000000  0.0000000000000000
  0.0000000000000000  0.0000000000000000  0.0000000000000000
  0.0000000000000000  0.0000000000000000  0.0000000000000000
  0.0000000000000000  0.0000000000000000  0.0000000000000000
  0.0000000000000000  0.0000000000000000  0.0000000000000000
  0.0000000000000000  0.0000000000000000  0.0000000000000000
  0.0000000000000000  0.0000000000000000  0.0000000000000000
  0.0000000000000000  0.0000000000000000  0.0000000000000000
  0.0000000000000000  0.0000000000000000  0.0000000000000000
  0.0000000000000000  0.0000000000000000  0.0000000000000000
  0.0000000000000000  0.0000000000000000  0.0000000000000000
  0.0000000000000000  0.0000000000000000  0.0000000000000000
  0.0000000000000000  0.0000000000000000  0.0000000000000000
  0.0000000000000000  0.0000000000000000  0.0000000000000000
  0.0000000000000000  0.0000000000000000  0.0000000000000000
