tetragonal FAPbI3;P4/mbm                
   1.0000000000000000     
     8.9652089146417087    0.0000000000000000    0.0000000000000000
     0.0000000000000000    8.9652089146417087    0.0000000000000000
     0.0000000000000000    0.0000000000000000    6.3386055716082899
  C               N               H               Pb              I             
     2     4    10     2     6
Direct
     0.5000018554397698    0.5000022537173052    0.5710344927196264
     0.0000007410375673    0.9999987646105950    0.5710337542840026
     0.5921649298883809    0.5921653427809561    0.4768075057830227
     0.4078339239703963    0.4078343135991203    0.4768083123176022
     0.0921664888033833    0.9078331201830805    0.4768079863804014
     0.9078339256138106    0.0921656598777547    0.4768082205386232
     0.5000002811686741    0.5000006754111794    0.7430577164434553
     0.6588632779583978    0.6588636784511142    0.5661631574638040
     0.6018555687870448    0.6018559134881516    0.3171876604251318
     0.3981445330554931    0.3981448551504980    0.3171888615975840
     0.3411373775002797    0.3411377470748516    0.5661647895622852
     0.0000003891983269    0.9999991386351894    0.7430573305523638
     0.1588627198382202    0.8411368553120848    0.5661615697875806
     0.1018556730059219    0.8981441012177738    0.3171867226056173
     0.8981442014855074    0.1018555457053625    0.3171874813855504
     0.8411370384589514    0.1588624918589208    0.5661643994920869
     0.9999996702832874    0.4999998411152120    0.9923669699358548
     0.4999997010236399    0.0000000324883942    0.9923669659962719
     0.9999999102034849    0.4999996263576136    0.4918675843342121
     0.4999999142446683    0.0000003677771616    0.4918675726626950
     0.2193523412317905    0.2193526695277090    0.9902192563992577
     0.2806465606645570    0.7193529611849745    0.9902186651498545
     0.7193523893883058    0.2806471302538110    0.9902190742221185
     0.7806465877501689    0.7806469142212147    0.9902186307610285

  0.00000000E+00  0.00000000E+00  0.00000000E+00
  0.00000000E+00  0.00000000E+00  0.00000000E+00
  0.00000000E+00  0.00000000E+00  0.00000000E+00
  0.00000000E+00  0.00000000E+00  0.00000000E+00
  0.00000000E+00  0.00000000E+00  0.00000000E+00
  0.00000000E+00  0.00000000E+00  0.00000000E+00
  0.00000000E+00  0.00000000E+00  0.00000000E+00
  0.00000000E+00  0.00000000E+00  0.00000000E+00
  0.00000000E+00  0.00000000E+00  0.00000000E+00
  0.00000000E+00  0.00000000E+00  0.00000000E+00
  0.00000000E+00  0.00000000E+00  0.00000000E+00
  0.00000000E+00  0.00000000E+00  0.00000000E+00
  0.00000000E+00  0.00000000E+00  0.00000000E+00
  0.00000000E+00  0.00000000E+00  0.00000000E+00
  0.00000000E+00  0.00000000E+00  0.00000000E+00
  0.00000000E+00  0.00000000E+00  0.00000000E+00
  0.00000000E+00  0.00000000E+00  0.00000000E+00
  0.00000000E+00  0.00000000E+00  0.00000000E+00
  0.00000000E+00  0.00000000E+00  0.00000000E+00
  0.00000000E+00  0.00000000E+00  0.00000000E+00
  0.00000000E+00  0.00000000E+00  0.00000000E+00
  0.00000000E+00  0.00000000E+00  0.00000000E+00
  0.00000000E+00  0.00000000E+00  0.00000000E+00
  0.00000000E+00  0.00000000E+00  0.00000000E+00
