C  N  H  Pb I 
 1.0000000000000000
     8.8151588795376234    0.0273626180674811   -0.0126153881771469
     0.0273626180674811    8.7929210928345007   -0.0601857647258263
    -0.0089193649081696   -0.0425526975729014    6.4006831171465741
 C   N   H   Pb  I  
   2   4  10   2   6
Direct
  0.5000018554397698  0.5000022537173052  0.5710180843918635
  0.0000007410375673  0.9999987646105949  0.5710173459562399
  0.5923581034953975  0.5923585163879727  0.4765803103999293
  0.4076407503633791  0.4076411399921032  0.4765811169345088
  0.0923596624104001  0.9076399465760637  0.4765807909973078
  0.9076407520067939  0.0923588334847715  0.4765810251555295
  0.5000002811686741  0.5000006754111794  0.7434031870421923
  0.6592043223742974  0.6592047228670139  0.5661117567204832
  0.6020540182598020  0.6020543629609088  0.3166118097023156
  0.3979460835827361  0.3979464056777409  0.3166130108747677
  0.3407963330843803  0.3407967026589521  0.5661133888189644
  0.0000003891983269  0.9999991386351895  0.7434028011511009
  0.1592037642541199  0.8407958108961853  0.5661101690442599
  0.1020541224786791  0.8979456517450167  0.3166108718828011
  0.8979457520127502  0.1020539951781196  0.3166116306627342
  0.8407959940430516  0.1592035362748205  0.5661129987487661
  0.9985912593266680  0.5013749513107915  0.9910102963556932
  0.4998048331921277  0.0001193082110758  0.9896962381149075
  0.9972166358872285  0.5021648128654159  0.4926503507397912
  0.4981176636895556  0.9999579129763452  0.4941547373211028
  0.2200385366907112  0.2188775247874196  0.9907080905755890
  0.2843099031261476  0.7194443881614833  0.9948402651796441
  0.7189070668158053  0.2787107969009767  0.9890444831650569
  0.7834502284154138  0.7816767515276921  0.9900663305035469
Cartesian
  0.0000000000000000  0.0000000000000000  0.0000000000000000
  0.0000000000000000  0.0000000000000000  0.0000000000000000
  0.0000000000000000  0.0000000000000000  0.0000000000000000
  0.0000000000000000  0.0000000000000000  0.0000000000000000
  0.0000000000000000  0.0000000000000000  0.0000000000000000
  0.0000000000000000  0.0000000000000000  0.0000000000000000
  0.0000000000000000  0.0000000000000000  0.0000000000000000
  0.0000000000000000  0.0000000000000000  0.0000000000000000
  0.0000000000000000  0.0000000000000000  0.0000000000000000
  0.0000000000000000  0.0000000000000000  0.0000000000000000
  0.0000000000000000  0.0000000000000000  0.0000000000000000
  0.0000000000000000  0.0000000000000000  0.0000000000000000
  0.0000000000000000  0.0000000000000000  0.0000000000000000
  0.0000000000000000  0.0000000000000000  0.0000000000000000
  0.0000000000000000  0.0000000000000000  0.0000000000000000
  0.0000000000000000  0.0000000000000000  0.0000000000000000
  0.0000000000000000  0.0000000000000000  0.0000000000000000
  0.0000000000000000  0.0000000000000000  0.0000000000000000
  0.0000000000000000  0.0000000000000000  0.0000000000000000
  0.0000000000000000  0.0000000000000000  0.0000000000000000
  0.0000000000000000  0.0000000000000000  0.0000000000000000
  0.0000000000000000  0.0000000000000000  0.0000000000000000
  0.0000000000000000  0.0000000000000000  0.0000000000000000
  0.0000000000000000  0.0000000000000000  0.0000000000000000
