C  N  H  Pb I                           
   1.0000000000000000     
     9.0193899931757802    0.0000000000000000    0.0000000000000000
     0.0000000000000000    8.7777678445653162    0.0000000000000000
     0.0000000000000000    0.0000000000000000   12.7961868062944486
  C               N               H               Pb              I             
     4     8    20     4    12
Direct
     0.5114866990251343    0.0378533263086283    0.2528313158458957
     0.0037671204766454    0.4678753974510030    0.7487747447170037
     0.9916850999227833    0.5316705877013561    0.2465431643424338
     0.4944558901485081    0.9751975193076774    0.7498559352958836
     0.5815861724172890    0.9371360790975132    0.1814760578987702
     0.0833026134153698    0.5639162097299035    0.6834200458788047
     0.1247104900306795    0.5847873736872131    0.2369468863828814
     0.6273384776570765    0.9106262658941091    0.7388687693981524
     0.3697183341817691    0.0878574384715733    0.2359688830303668
     0.8694778300659891    0.4051472880605118    0.7378892056396396
     0.9304339533630213    0.4405108273183984    0.1867643493040916
     0.4303043484309725    0.0640892786613918    0.6863208090731376
     0.5811304830160609    0.0990377895652017    0.3094213685374569
     0.0720416047173202    0.3893512382405362    0.8018266482278804
     0.9300664067256648    0.5989592414935814    0.3032417114890649
     0.4393050348206273    0.9029409009825926    0.8095590518650653
     0.6695801705915372    0.9143756700373586    0.1970616581655662
     0.1837033220029980    0.5872400364258183    0.6939445689716521
     0.1631325727456314    0.6566012392011586    0.2907739841290251
     0.6770273020215569    0.8371075744541798    0.7928206379729801
     0.5148201193720965    0.8850847437312623    0.1317420678569405
     0.0042975064872053    0.6198399558460324    0.6319100399676074
     0.1941854552739315    0.5343557347807462    0.1844477871443644
     0.7083559175779826    0.9672180392392207    0.6829965338760999
     0.2967698853198755    0.0389297311298193    0.1846061289990857
     0.7946440983436958    0.4543258487246433    0.6871162632029666
     0.9873623365505040    0.3818424748529665    0.1367238179107844
     0.4922684564374293    0.1161999352229159    0.6297615341901590
     0.3310370442578332    0.1615506768013404    0.2883512042083396
     0.8230359364995081    0.3415419478413995    0.7910680519209592
     0.8143047820574978    0.4228424541695404    0.1960329853889036
     0.3229100368553475    0.0893655036552374    0.6942453442454948
     0.4926195446026327    0.4821332119113251    0.9815701447865735
     0.0098877007154670    0.0026503487885137    0.4835943192332266
     0.9862918590380687    0.9921975307128008    0.9778256739849880
     0.4999764345459994    0.5101593047675621    0.4836662294799652
     0.7862710210139880    0.7046653094896342    0.5007797448602602
     0.9594710937982782    0.9914008675570685    0.2284619355777266
     0.6984034130061190    0.1936833484710689    0.9657726643461615
     0.2014546100362296    0.2809699757405042    0.0029636135782809
     0.2048592001310539    0.3011391452377268    0.4544353316122809
     0.2957374048702732    0.8030512967261529    0.4646949088357459
     0.8044894291833415    0.7051804536070563    0.9700928401902544
     0.7095306258842271    0.2025175099351344    0.5065611230922187
     0.4522896289611538    0.5009921776480368    0.7289253927661576
     0.0382569028715238    0.0115157891529236    0.7392912349151644
     0.2852287890477641    0.7907358812505052    0.0073195575433118
     0.5274036369368389    0.4897105990768438    0.2354861211876411

  0.00000000E+00  0.00000000E+00  0.00000000E+00
  0.00000000E+00  0.00000000E+00  0.00000000E+00
  0.00000000E+00  0.00000000E+00  0.00000000E+00
  0.00000000E+00  0.00000000E+00  0.00000000E+00
  0.00000000E+00  0.00000000E+00  0.00000000E+00
  0.00000000E+00  0.00000000E+00  0.00000000E+00
  0.00000000E+00  0.00000000E+00  0.00000000E+00
  0.00000000E+00  0.00000000E+00  0.00000000E+00
  0.00000000E+00  0.00000000E+00  0.00000000E+00
  0.00000000E+00  0.00000000E+00  0.00000000E+00
  0.00000000E+00  0.00000000E+00  0.00000000E+00
  0.00000000E+00  0.00000000E+00  0.00000000E+00
  0.00000000E+00  0.00000000E+00  0.00000000E+00
  0.00000000E+00  0.00000000E+00  0.00000000E+00
  0.00000000E+00  0.00000000E+00  0.00000000E+00
  0.00000000E+00  0.00000000E+00  0.00000000E+00
  0.00000000E+00  0.00000000E+00  0.00000000E+00
  0.00000000E+00  0.00000000E+00  0.00000000E+00
  0.00000000E+00  0.00000000E+00  0.00000000E+00
  0.00000000E+00  0.00000000E+00  0.00000000E+00
  0.00000000E+00  0.00000000E+00  0.00000000E+00
  0.00000000E+00  0.00000000E+00  0.00000000E+00
  0.00000000E+00  0.00000000E+00  0.00000000E+00
  0.00000000E+00  0.00000000E+00  0.00000000E+00
  0.00000000E+00  0.00000000E+00  0.00000000E+00
  0.00000000E+00  0.00000000E+00  0.00000000E+00
  0.00000000E+00  0.00000000E+00  0.00000000E+00
  0.00000000E+00  0.00000000E+00  0.00000000E+00
  0.00000000E+00  0.00000000E+00  0.00000000E+00
  0.00000000E+00  0.00000000E+00  0.00000000E+00
  0.00000000E+00  0.00000000E+00  0.00000000E+00
  0.00000000E+00  0.00000000E+00  0.00000000E+00
  0.00000000E+00  0.00000000E+00  0.00000000E+00
  0.00000000E+00  0.00000000E+00  0.00000000E+00
  0.00000000E+00  0.00000000E+00  0.00000000E+00
  0.00000000E+00  0.00000000E+00  0.00000000E+00
  0.00000000E+00  0.00000000E+00  0.00000000E+00
  0.00000000E+00  0.00000000E+00  0.00000000E+00
  0.00000000E+00  0.00000000E+00  0.00000000E+00
  0.00000000E+00  0.00000000E+00  0.00000000E+00
  0.00000000E+00  0.00000000E+00  0.00000000E+00
  0.00000000E+00  0.00000000E+00  0.00000000E+00
  0.00000000E+00  0.00000000E+00  0.00000000E+00
  0.00000000E+00  0.00000000E+00  0.00000000E+00
  0.00000000E+00  0.00000000E+00  0.00000000E+00
  0.00000000E+00  0.00000000E+00  0.00000000E+00
  0.00000000E+00  0.00000000E+00  0.00000000E+00
  0.00000000E+00  0.00000000E+00  0.00000000E+00
