C  N  H  Pb I 
 1.0000000000000000
     9.0193899931757802    0.0000000000000000    0.0000000000000000
     0.0000000000000000    8.7777678445653162    0.0000000000000000
     0.0000000000000000    0.0000000000000000   12.7961868062944486
 C   N   H   Pb  I  
   4   8  20   4  12
Direct
  0.5114866990251359  0.0378533263086301  0.2528313158458961
  0.0037671204766422  0.4678753974509996  0.7487747447170036
  0.9916850999227832  0.5316705877013576  0.2465431643424343
  0.4944558901485115  0.9751975193076753  0.7498559352958852
  0.5815861724172878  0.9371360790975133  0.1814760578987726
  0.0833026134153725  0.5639162097299035  0.6834200458788019
  0.1247104900306819  0.5847873736872105  0.2369468863828783
  0.6273384776570737  0.9106262658941096  0.7388687693981500
  0.3697183341817684  0.0878574384715730  0.2359688830303646
  0.8694778300659892  0.4051472880605113  0.7378892056396379
  0.9304339533630200  0.4405108273183992  0.1867643493040892
  0.4303043484309759  0.0640892786613948  0.6863208090731364
  0.5811304830160637  0.0990377895652036  0.3094213685374578
  0.0720416047173199  0.3893512382405352  0.8018266482278794
  0.9300664067256662  0.5989592414935838  0.3032417114890614
  0.4393050348206273  0.9029409009825935  0.8095590518650633
  0.6695801705915367  0.9143756700373584  0.1970616581655695
  0.1837033220029950  0.5872400364258177  0.6939445689716539
  0.1631325727456313  0.6566012392011598  0.2907739841290281
  0.6770273020215557  0.8371075744541790  0.7928206379729817
  0.5148201193720955  0.8850847437312599  0.1317420678569431
  0.0042975064872052  0.6198399558460322  0.6319100399676074
  0.1941854552739348  0.5343557347807487  0.1844477871443609
  0.7083559175779821  0.9672180392392231  0.6829965338761027
  0.2967698853198730  0.0389297311298167  0.1846061289990827
  0.7946440983436955  0.4543258487246437  0.6871162632029701
  0.9873623365505019  0.3818424748529659  0.1367238179107855
  0.4922684564374299  0.1161999352229194  0.6297615341901618
  0.3310370442578359  0.1615506768013386  0.2883512042083364
  0.8230359364995103  0.3415419478413984  0.7910680519209597
  0.8143047820574946  0.4228424541695419  0.1960329853889032
  0.3229100368553439  0.0893655036552376  0.6942453442454967
  0.4926195446026341  0.4821332119113250  0.9815701447865712
  0.0098877007154697  0.0026503487885172  0.4835943192332244
  0.9862918590380664  0.9921975307128003  0.9778256739849904
  0.4999764345459992  0.5101593047675619  0.4836662294799686
  0.7862710210139905  0.7046653094896321  0.5007797448602608
  0.9594710937982753  0.9914008675570651  0.2284619355777281
  0.6984034130061157  0.1936833484710666  0.9657726643461646
  0.2014546100362329  0.2809699757405073  0.0029636135782782
  0.2048592001310542  0.3011391452377302  0.4544353316122813
  0.2957374048702718  0.8030512967261516  0.4646949088357459
  0.8044894291833393  0.7051804536070552  0.9700928401902524
  0.7095306258842276  0.2025175099351337  0.5065611230922209
  0.4522896289611534  0.5009921776480385  0.7289253927661549
  0.0382569028715243  0.0115157891529246  0.7392912349151647
  0.2852287890477623  0.7907358812505044  0.0073195575433144
  0.5274036369368397  0.4897105990768442  0.2354861211876406
Cartesian
  0.0000000000000000  0.0000000000000000  0.0000000000000000
  0.0000000000000000  0.0000000000000000  0.0000000000000000
  0.0000000000000000  0.0000000000000000  0.0000000000000000
  0.0000000000000000  0.0000000000000000  0.0000000000000000
  0.0000000000000000  0.0000000000000000  0.0000000000000000
  0.0000000000000000  0.0000000000000000  0.0000000000000000
  0.0000000000000000  0.0000000000000000  0.0000000000000000
  0.0000000000000000  0.0000000000000000  0.0000000000000000
  0.0000000000000000  0.0000000000000000  0.0000000000000000
  0.0000000000000000  0.0000000000000000  0.0000000000000000
  0.0000000000000000  0.0000000000000000  0.0000000000000000
  0.0000000000000000  0.0000000000000000  0.0000000000000000
  0.0000000000000000  0.0000000000000000  0.0000000000000000
  0.0000000000000000  0.0000000000000000  0.0000000000000000
  0.0000000000000000  0.0000000000000000  0.0000000000000000
  0.0000000000000000  0.0000000000000000  0.0000000000000000
  0.0000000000000000  0.0000000000000000  0.0000000000000000
  0.0000000000000000  0.0000000000000000  0.0000000000000000
  0.0000000000000000  0.0000000000000000  0.0000000000000000
  0.0000000000000000  0.0000000000000000  0.0000000000000000
  0.0000000000000000  0.0000000000000000  0.0000000000000000
  0.0000000000000000  0.0000000000000000  0.0000000000000000
  0.0000000000000000  0.0000000000000000  0.0000000000000000
  0.0000000000000000  0.0000000000000000  0.0000000000000000
  0.0000000000000000  0.0000000000000000  0.0000000000000000
  0.0000000000000000  0.0000000000000000  0.0000000000000000
  0.0000000000000000  0.0000000000000000  0.0000000000000000
  0.0000000000000000  0.0000000000000000  0.0000000000000000
  0.0000000000000000  0.0000000000000000  0.0000000000000000
  0.0000000000000000  0.0000000000000000  0.0000000000000000
  0.0000000000000000  0.0000000000000000  0.0000000000000000
  0.0000000000000000  0.0000000000000000  0.0000000000000000
  0.0000000000000000  0.0000000000000000  0.0000000000000000
  0.0000000000000000  0.0000000000000000  0.0000000000000000
  0.0000000000000000  0.0000000000000000  0.0000000000000000
  0.0000000000000000  0.0000000000000000  0.0000000000000000
  0.0000000000000000  0.0000000000000000  0.0000000000000000
  0.0000000000000000  0.0000000000000000  0.0000000000000000
  0.0000000000000000  0.0000000000000000  0.0000000000000000
  0.0000000000000000  0.0000000000000000  0.0000000000000000
  0.0000000000000000  0.0000000000000000  0.0000000000000000
  0.0000000000000000  0.0000000000000000  0.0000000000000000
  0.0000000000000000  0.0000000000000000  0.0000000000000000
  0.0000000000000000  0.0000000000000000  0.0000000000000000
  0.0000000000000000  0.0000000000000000  0.0000000000000000
  0.0000000000000000  0.0000000000000000  0.0000000000000000
  0.0000000000000000  0.0000000000000000  0.0000000000000000
  0.0000000000000000  0.0000000000000000  0.0000000000000000
