C  N  H  Pb I 
 1.0000000000000000
     8.9515839677080429    0.0000000000000000    0.0000000000000000
     0.0000000000000000    8.9515839677080429    0.0000000000000000
     0.0000000000000000    0.0000000000000000    6.3289724258144924
 C   N   H   Pb  I  
   2   4  10   2   6
Direct
  0.5000018554397698  0.5000022537173052  0.5710180843918636
  0.9972890886081275  0.9999984646422103  0.5709066049404162
  0.5923581034953975  0.5923585163879728  0.4765803103999293
  0.4076407503633792  0.4076411399921032  0.4765811169345088
  0.0972214578891872  0.9116905098271295  0.4844831439620069
  0.9050631180275280  0.0883085277410046  0.4687719641146139
  0.5000002811686741  0.5000006754111794  0.7434031870421925
  0.6592043223742974  0.6592047228670137  0.5661117567204834
  0.6020540182598020  0.6020543629609088  0.3166118097023156
  0.3979460835827361  0.3979464056777410  0.3166130108747678
  0.3407963330843803  0.3407967026589521  0.5661133888189647
  0.9902540224770335  0.9999979977327046  0.7430046505058961
  0.1631041476899788  0.8477774012165931  0.5795487480599312
  0.1138343947048909  0.9024221325333748  0.3256044762597768
  0.9015056770021811  0.0975792799760927  0.3082446342398993
  0.8318726205951971  0.1522213173177228  0.5524691473097036
  0.9999996702832874  0.4999998411152120  0.9927896685767361
  0.4999997010236399  0.0000000324883942  0.9927896646371461
 -0.0000000897965151  0.4999996263576136  0.4921929684839212
  0.4999999142446682  0.0000003677771616  0.4921929568124041
  0.2185734085131937  0.2185737368091121  0.9905351307177016
  0.2814254933831534  0.7185740284663772  0.9905345394682984
  0.7185734566697085  0.2814260629724074  0.9905349485405626
  0.7814255204687662  0.7814258469398120  0.9905345050794724
Cartesian
  0.0000000000000000  0.0000000000000000  0.0000000000000000
  0.0000000000000000  0.0000000000000000  0.0000000000000000
  0.0000000000000000  0.0000000000000000  0.0000000000000000
  0.0000000000000000  0.0000000000000000  0.0000000000000000
  0.0000000000000000  0.0000000000000000  0.0000000000000000
  0.0000000000000000  0.0000000000000000  0.0000000000000000
  0.0000000000000000  0.0000000000000000  0.0000000000000000
  0.0000000000000000  0.0000000000000000  0.0000000000000000
  0.0000000000000000  0.0000000000000000  0.0000000000000000
  0.0000000000000000  0.0000000000000000  0.0000000000000000
  0.0000000000000000  0.0000000000000000  0.0000000000000000
  0.0000000000000000  0.0000000000000000  0.0000000000000000
  0.0000000000000000  0.0000000000000000  0.0000000000000000
  0.0000000000000000  0.0000000000000000  0.0000000000000000
  0.0000000000000000  0.0000000000000000  0.0000000000000000
  0.0000000000000000  0.0000000000000000  0.0000000000000000
  0.0000000000000000  0.0000000000000000  0.0000000000000000
  0.0000000000000000  0.0000000000000000  0.0000000000000000
  0.0000000000000000  0.0000000000000000  0.0000000000000000
  0.0000000000000000  0.0000000000000000  0.0000000000000000
  0.0000000000000000  0.0000000000000000  0.0000000000000000
  0.0000000000000000  0.0000000000000000  0.0000000000000000
  0.0000000000000000  0.0000000000000000  0.0000000000000000
  0.0000000000000000  0.0000000000000000  0.0000000000000000
