C  N  H  Pb I                           
   1.0000000000000000     
     8.8270480999921297    0.0589334639696083   -0.0545063127129506
     0.0589334639696083    9.0835841634900216   -0.0325137689156760
    -0.0385371964824916   -0.0229879703602116    6.3850733570993734
  C               N               H               Pb              I             
     2     4    10     2     6
Direct
     0.5047027715234336    0.5068080112048818    0.5721133167974699
     0.9859571192148167    0.0023198682793648    0.5648152812129936
     0.5879556468282487    0.5963705851372367    0.4834655504148841
     0.4108735412149187    0.4003781662697463    0.4589475598007837
     0.1268575239306315    0.9739582825923989    0.5533125248858113
     0.8892579706808732    0.0219200288192596    0.4012932898073487
     0.5031484463397220    0.4973051395216288    0.7294502970917094
     0.6535135399788814    0.6635335520873369    0.5716906601234442
     0.6017975269005547    0.6126889725784821    0.3214477163564098
     0.4008670779084937    0.3872143265200378    0.3221798400281344
     0.3428767642216854    0.3365869490649800    0.5651632446878168
     0.9311418680105064    0.0067197370886447    0.7308228766755676
     0.1921688984349714    0.9534977850676114    0.6703198024785237
     0.1751145481855332    0.9584109254991304    0.4061645758710526
     0.9182190172890401    0.0214389579489378    0.2455141084900205
     0.7774813289125717    0.0488742999366565    0.4484746635541086
     0.9988449523302450    0.5038531668339061    0.9914338997615033
     0.5035008681861157    0.9906716740006445    0.9682554301826372
     0.0029968650275549    0.4958880823483369    0.4862219407466313
     0.5112805829464264    0.0012581570164230    0.4775735219951116
     0.2194780603137616    0.2278418776726170    0.9838284225233167
     0.2775329293724340    0.7254245797637040    0.9951383295408434
     0.7111487648516004    0.2803497884186896    0.9928372189419434
     0.7845386618051435    0.7790958419129481    0.9983127879838634

  0.00000000E+00  0.00000000E+00  0.00000000E+00
  0.00000000E+00  0.00000000E+00  0.00000000E+00
  0.00000000E+00  0.00000000E+00  0.00000000E+00
  0.00000000E+00  0.00000000E+00  0.00000000E+00
  0.00000000E+00  0.00000000E+00  0.00000000E+00
  0.00000000E+00  0.00000000E+00  0.00000000E+00
  0.00000000E+00  0.00000000E+00  0.00000000E+00
  0.00000000E+00  0.00000000E+00  0.00000000E+00
  0.00000000E+00  0.00000000E+00  0.00000000E+00
  0.00000000E+00  0.00000000E+00  0.00000000E+00
  0.00000000E+00  0.00000000E+00  0.00000000E+00
  0.00000000E+00  0.00000000E+00  0.00000000E+00
  0.00000000E+00  0.00000000E+00  0.00000000E+00
  0.00000000E+00  0.00000000E+00  0.00000000E+00
  0.00000000E+00  0.00000000E+00  0.00000000E+00
  0.00000000E+00  0.00000000E+00  0.00000000E+00
  0.00000000E+00  0.00000000E+00  0.00000000E+00
  0.00000000E+00  0.00000000E+00  0.00000000E+00
  0.00000000E+00  0.00000000E+00  0.00000000E+00
  0.00000000E+00  0.00000000E+00  0.00000000E+00
  0.00000000E+00  0.00000000E+00  0.00000000E+00
  0.00000000E+00  0.00000000E+00  0.00000000E+00
  0.00000000E+00  0.00000000E+00  0.00000000E+00
  0.00000000E+00  0.00000000E+00  0.00000000E+00
