C  N  H  Pb I 
 1.0000000000000000
     8.8270480999921297    0.0589334639696083   -0.0545063127129506
     0.0589334639696083    9.0835841634900216   -0.0325137689156760
    -0.0385371964824916   -0.0229879703602116    6.3850733570993734
 C   N   H   Pb  I  
   2   4  10   2   6
Direct
  0.5047027715234336  0.5068080112048837  0.5721133167974704
  0.9859571192148175  0.0023198682793622  0.5648152812129940
  0.5879556468282456  0.5963705851372382  0.4834655504148828
  0.4108735412149194  0.4003781662697430  0.4589475598007868
  0.1268575239306342  0.9739582825924016  0.5533125248858098
  0.8892579706808766  0.0219200288192610  0.4012932898073458
  0.5031484463397244  0.4973051395216283  0.7294502970917092
  0.6535135399788821  0.6635335520873381  0.5716906601234462
  0.6017975269005522  0.6126889725784789  0.3214477163564090
  0.4008670779084962  0.3872143265200350  0.3221798400281374
  0.3428767642216844  0.3365869490649781  0.5651632446878153
  0.9311418680105068  0.0067197370886463  0.7308228766755674
  0.1921688984349736  0.9534977850676130  0.6703198024785214
  0.1751145481855334  0.9584109254991331  0.4061645758710493
  0.9182190172890395  0.0214389579489350  0.2455141084900221
  0.7774813289125702  0.0488742999366548  0.4484746635541078
  0.9988449523302422  0.5038531668339047  0.9914338997615009
  0.5035008681861187  0.9906716740006444  0.9682554301826347
  0.0029968650275548  0.4958880823483373  0.4862219407466296
  0.5112805829464243  0.0012581570164227  0.4775735219951110
  0.2194780603137606  0.2278418776726178  0.9838284225233188
  0.2775329293724312  0.7254245797637041  0.9951383295408409
  0.7111487648515989  0.2803497884186891  0.9928372189419427
  0.7845386618051454  0.7790958419129478  0.9983127879838604
Cartesian
  0.0000000000000000  0.0000000000000000  0.0000000000000000
  0.0000000000000000  0.0000000000000000  0.0000000000000000
  0.0000000000000000  0.0000000000000000  0.0000000000000000
  0.0000000000000000  0.0000000000000000  0.0000000000000000
  0.0000000000000000  0.0000000000000000  0.0000000000000000
  0.0000000000000000  0.0000000000000000  0.0000000000000000
  0.0000000000000000  0.0000000000000000  0.0000000000000000
  0.0000000000000000  0.0000000000000000  0.0000000000000000
  0.0000000000000000  0.0000000000000000  0.0000000000000000
  0.0000000000000000  0.0000000000000000  0.0000000000000000
  0.0000000000000000  0.0000000000000000  0.0000000000000000
  0.0000000000000000  0.0000000000000000  0.0000000000000000
  0.0000000000000000  0.0000000000000000  0.0000000000000000
  0.0000000000000000  0.0000000000000000  0.0000000000000000
  0.0000000000000000  0.0000000000000000  0.0000000000000000
  0.0000000000000000  0.0000000000000000  0.0000000000000000
  0.0000000000000000  0.0000000000000000  0.0000000000000000
  0.0000000000000000  0.0000000000000000  0.0000000000000000
  0.0000000000000000  0.0000000000000000  0.0000000000000000
  0.0000000000000000  0.0000000000000000  0.0000000000000000
  0.0000000000000000  0.0000000000000000  0.0000000000000000
  0.0000000000000000  0.0000000000000000  0.0000000000000000
  0.0000000000000000  0.0000000000000000  0.0000000000000000
  0.0000000000000000  0.0000000000000000  0.0000000000000000
