o-FAPbI3; from FPB_Pna21.vasp           
   1.0000000000000000     
     9.0193899931757802    0.0000000000000000    0.0000000000000000
     0.0000000000000000    8.7777678445653162    0.0000000000000000
     0.0000000000000000    0.0000000000000000   12.7961868062944486
  C               N               H               Pb              I             
     4     8    20     4    12
Direct
     0.5081116677026003    0.0407682667873661    0.2475271299415893
     0.0081116610774927    0.4592317372682058    0.7475271272666020
     0.9918883278253929    0.5407682644711886    0.2475271363635172
     0.4918883422354056    0.9592317343755081    0.7475271319725336
     0.5705209198670737    0.9350340235575173    0.1899520089569922
     0.0705209167141611    0.5649659766374059    0.6899520149993693
     0.1307779619464333    0.5843462253750472    0.2397952080631907
     0.6307779677268902    0.9156537720979928    0.7397952118591303
     0.3692220369644823    0.0843462303064696    0.2397952098813488
     0.8692220377505701    0.4156537748433170    0.7397952134731992
     0.9294790790412982    0.4350340160993195    0.1899520165304966
     0.4294790902544371    0.0649659723361356    0.6899520177776483
     0.5765643836658215    0.0967821552791055    0.3067777094696386
     0.0765643797841122    0.4032178603740375    0.8067777150073385
     0.9234356185663414    0.5967821470299103    0.3067777185361639
     0.4234356291037970    0.9032178636112772    0.8067777252491086
     0.6815073605585630    0.9148343383581068    0.1984672932973444
     0.1815073594677871    0.5851656629371700    0.6984672914631705
     0.1723385034214548    0.6625238802700630    0.2912880794729796
     0.6723385119263956    0.8374761150401986    0.7912880818835241
     0.5135334473358935    0.8793620839205725    0.1321892744484103
     0.0135334507758940    0.6206379201589731    0.6321892725449093
     0.2026706679034636    0.5371027495905075    0.1875971311258969
     0.7026706821873691    0.9628972429930535    0.6875971289136223
     0.2973293229048775    0.0371027432973515    0.1875971361954061
     0.7973293175621646    0.4628972563315250    0.6875971342063983
     0.9864665437963840    0.3793620767672475    0.1321892814477963
     0.4864665508902009    0.1206379137177612    0.6321892738666964
     0.3276614941019698    0.1625238881734371    0.2912880798106437
     0.8276614956121147    0.3374761111319647    0.7912880781033799
     0.8184926369821349    0.4148343298830725    0.1984673055347590
     0.3184926461830029    0.0851656606729405    0.6984672973570515
     0.5022767468733539    0.4877731564721566    0.9809178570387943
     0.0022767532038633    0.0122268475305438    0.4809178546507312
     0.9977232498168599    0.9877731539917158    0.9809178593257472
     0.4977232552362261    0.5122268487697872    0.4809178563885766
     0.7959870696927875    0.7106248881624357    0.5033022502638924
     0.9607446778997601    0.9945988298357988    0.2319740079395884
     0.7059474601202844    0.1953348947845412    0.9615040226269940
     0.2040129107491044    0.2893751464223508    0.0033022508288376
     0.2059474744838846    0.3046650934401597    0.4615040302897286
     0.2940525281307563    0.8046651007287936    0.4615040327741697
     0.7940525443330564    0.6953348931304119    0.9615040273628892
     0.7040129288121737    0.2106248849630039    0.5033022475467344
     0.4607446678032319    0.5054011443814190    0.7319740097653066
     0.0392553227863969    0.0054011566605498    0.7319740056352130
     0.2959870860619868    0.7893751386862742    0.0033022477715428
     0.5392553121602941    0.4945988283463165    0.2319740051713139

  0.00000000E+00  0.00000000E+00  0.00000000E+00
  0.00000000E+00  0.00000000E+00  0.00000000E+00
  0.00000000E+00  0.00000000E+00  0.00000000E+00
  0.00000000E+00  0.00000000E+00  0.00000000E+00
  0.00000000E+00  0.00000000E+00  0.00000000E+00
  0.00000000E+00  0.00000000E+00  0.00000000E+00
  0.00000000E+00  0.00000000E+00  0.00000000E+00
  0.00000000E+00  0.00000000E+00  0.00000000E+00
  0.00000000E+00  0.00000000E+00  0.00000000E+00
  0.00000000E+00  0.00000000E+00  0.00000000E+00
  0.00000000E+00  0.00000000E+00  0.00000000E+00
  0.00000000E+00  0.00000000E+00  0.00000000E+00
  0.00000000E+00  0.00000000E+00  0.00000000E+00
  0.00000000E+00  0.00000000E+00  0.00000000E+00
  0.00000000E+00  0.00000000E+00  0.00000000E+00
  0.00000000E+00  0.00000000E+00  0.00000000E+00
  0.00000000E+00  0.00000000E+00  0.00000000E+00
  0.00000000E+00  0.00000000E+00  0.00000000E+00
  0.00000000E+00  0.00000000E+00  0.00000000E+00
  0.00000000E+00  0.00000000E+00  0.00000000E+00
  0.00000000E+00  0.00000000E+00  0.00000000E+00
  0.00000000E+00  0.00000000E+00  0.00000000E+00
  0.00000000E+00  0.00000000E+00  0.00000000E+00
  0.00000000E+00  0.00000000E+00  0.00000000E+00
  0.00000000E+00  0.00000000E+00  0.00000000E+00
  0.00000000E+00  0.00000000E+00  0.00000000E+00
  0.00000000E+00  0.00000000E+00  0.00000000E+00
  0.00000000E+00  0.00000000E+00  0.00000000E+00
  0.00000000E+00  0.00000000E+00  0.00000000E+00
  0.00000000E+00  0.00000000E+00  0.00000000E+00
  0.00000000E+00  0.00000000E+00  0.00000000E+00
  0.00000000E+00  0.00000000E+00  0.00000000E+00
  0.00000000E+00  0.00000000E+00  0.00000000E+00
  0.00000000E+00  0.00000000E+00  0.00000000E+00
  0.00000000E+00  0.00000000E+00  0.00000000E+00
  0.00000000E+00  0.00000000E+00  0.00000000E+00
  0.00000000E+00  0.00000000E+00  0.00000000E+00
  0.00000000E+00  0.00000000E+00  0.00000000E+00
  0.00000000E+00  0.00000000E+00  0.00000000E+00
  0.00000000E+00  0.00000000E+00  0.00000000E+00
  0.00000000E+00  0.00000000E+00  0.00000000E+00
  0.00000000E+00  0.00000000E+00  0.00000000E+00
  0.00000000E+00  0.00000000E+00  0.00000000E+00
  0.00000000E+00  0.00000000E+00  0.00000000E+00
  0.00000000E+00  0.00000000E+00  0.00000000E+00
  0.00000000E+00  0.00000000E+00  0.00000000E+00
  0.00000000E+00  0.00000000E+00  0.00000000E+00
  0.00000000E+00  0.00000000E+00  0.00000000E+00
