C  N  H  Pb I                           
   1.0000000000000000     
     8.9515839677080429    0.0000000000000000    0.0000000000000000
     0.0000000000000000    8.9515839677080429    0.0000000000000000
     0.0000000000000000    0.0000000000000000    6.3289724258144924
  C               N               H               Pb              I             
     2     4    10     2     6
Direct
     0.4998810623911325    0.4998253794306109    0.5767229555381874
     0.0057171152813140    0.0012760782132730    0.5657479469567903
     0.5889007916881113    0.5914764878826446    0.4717469933049898
     0.4047774431070863    0.4085043630296425    0.4699744002939497
     0.0913068957438909    0.9068060444189499    0.4760291434405346
     0.9104406355381371    0.0897835602011696    0.4768530823229185
     0.4950671306879570    0.5077157094789513    0.7398140692251403
     0.6557425018280085    0.6643212493440487    0.5692161334212074
     0.5998491662794336    0.5994335339948051    0.3185481772777337
     0.3964342933991745    0.3995786683370213    0.3177688313832832
     0.3442644472022565    0.3379832948757340    0.5733573262180087
     0.0011865747747635    0.0032312995878740    0.7397957961756418
     0.1599695173533391    0.8368226750058838    0.5652683954262017
     0.1014227912161374    0.8991947181220041    0.3193975131025368
     0.8990993588274065    0.1072101193640265    0.3199977799201434
     0.8343805549187380    0.1643045410345678    0.5736037484840395
     0.9946632139122542    0.4953196542280764    0.9844720924413082
     0.4988347984341104    0.9996586854645955    0.9941039202824555
     0.0005059981325033    0.5070770190978919    0.4909323192338491
     0.5014282538651287    0.9971851650861296    0.4857129016204098
     0.2172959574694886    0.2191458396061634    0.9949142849910046
     0.2851273043969584    0.7220133639904347    0.9928119182620776
     0.7092597012309341    0.2829487917875397    0.9945923079846679
     0.7805360429434529    0.7843341606733532    0.9904191302569743

  0.00000000E+00  0.00000000E+00  0.00000000E+00
  0.00000000E+00  0.00000000E+00  0.00000000E+00
  0.00000000E+00  0.00000000E+00  0.00000000E+00
  0.00000000E+00  0.00000000E+00  0.00000000E+00
  0.00000000E+00  0.00000000E+00  0.00000000E+00
  0.00000000E+00  0.00000000E+00  0.00000000E+00
  0.00000000E+00  0.00000000E+00  0.00000000E+00
  0.00000000E+00  0.00000000E+00  0.00000000E+00
  0.00000000E+00  0.00000000E+00  0.00000000E+00
  0.00000000E+00  0.00000000E+00  0.00000000E+00
  0.00000000E+00  0.00000000E+00  0.00000000E+00
  0.00000000E+00  0.00000000E+00  0.00000000E+00
  0.00000000E+00  0.00000000E+00  0.00000000E+00
  0.00000000E+00  0.00000000E+00  0.00000000E+00
  0.00000000E+00  0.00000000E+00  0.00000000E+00
  0.00000000E+00  0.00000000E+00  0.00000000E+00
  0.00000000E+00  0.00000000E+00  0.00000000E+00
  0.00000000E+00  0.00000000E+00  0.00000000E+00
  0.00000000E+00  0.00000000E+00  0.00000000E+00
  0.00000000E+00  0.00000000E+00  0.00000000E+00
  0.00000000E+00  0.00000000E+00  0.00000000E+00
  0.00000000E+00  0.00000000E+00  0.00000000E+00
  0.00000000E+00  0.00000000E+00  0.00000000E+00
  0.00000000E+00  0.00000000E+00  0.00000000E+00
