C  N  H  Pb I 
 1.0000000000000000
     8.9515839677080429    0.0000000000000000    0.0000000000000000
     0.0000000000000000    8.9515839677080429    0.0000000000000000
     0.0000000000000000    0.0000000000000000    6.3289724258144924
 C   N   H   Pb  I  
   2   4  10   2   6
Direct
  0.4998810623911359  0.4998253794306134  0.5767229555381845
  0.0057171152813128  0.0012760782132724  0.5657479469567921
  0.5889007916881093  0.5914764878826476  0.4717469933049925
  0.4047774431070878  0.4085043630296430  0.4699744002939491
  0.0913068957438890  0.9068060444189526  0.4760291434405331
  0.9104406355381345  0.0897835602011664  0.4768530823229195
  0.4950671306879540  0.5077157094789502  0.7398140692251384
  0.6557425018280088  0.6643212493440457  0.5692161334212067
  0.5998491662794320  0.5994335339948053  0.3185481772777343
  0.3964342933991737  0.3995786683370203  0.3177688313832854
  0.3442644472022570  0.3379832948757320  0.5733573262180064
  0.0011865747747656  0.0032312995878765  0.7397957961756446
  0.1599695173533399  0.8368226750058837  0.5652683954262010
  0.1014227912161379  0.8991947181220029  0.3193975131025379
  0.8990993588274094  0.1072101193640263  0.3199977799201434
  0.8343805549187409  0.1643045410345644  0.5736037484840415
  0.9946632139122557  0.4953196542280738  0.9844720924413114
  0.4988347984341093  0.9996586854645928  0.9941039202824586
  0.0005059981325018  0.5070770190978938  0.4909323192338511
  0.5014282538651258  0.9971851650861299  0.4857129016204104
  0.2172959574694905  0.2191458396061665  0.9949142849910017
  0.2851273043969552  0.7220133639904335  0.9928119182620785
  0.7092597012309326  0.2829487917875380  0.9945923079846649
  0.7805360429434516  0.7843341606733547  0.9904191302569740
Cartesian
  0.0000000000000000  0.0000000000000000  0.0000000000000000
  0.0000000000000000  0.0000000000000000  0.0000000000000000
  0.0000000000000000  0.0000000000000000  0.0000000000000000
  0.0000000000000000  0.0000000000000000  0.0000000000000000
  0.0000000000000000  0.0000000000000000  0.0000000000000000
  0.0000000000000000  0.0000000000000000  0.0000000000000000
  0.0000000000000000  0.0000000000000000  0.0000000000000000
  0.0000000000000000  0.0000000000000000  0.0000000000000000
  0.0000000000000000  0.0000000000000000  0.0000000000000000
  0.0000000000000000  0.0000000000000000  0.0000000000000000
  0.0000000000000000  0.0000000000000000  0.0000000000000000
  0.0000000000000000  0.0000000000000000  0.0000000000000000
  0.0000000000000000  0.0000000000000000  0.0000000000000000
  0.0000000000000000  0.0000000000000000  0.0000000000000000
  0.0000000000000000  0.0000000000000000  0.0000000000000000
  0.0000000000000000  0.0000000000000000  0.0000000000000000
  0.0000000000000000  0.0000000000000000  0.0000000000000000
  0.0000000000000000  0.0000000000000000  0.0000000000000000
  0.0000000000000000  0.0000000000000000  0.0000000000000000
  0.0000000000000000  0.0000000000000000  0.0000000000000000
  0.0000000000000000  0.0000000000000000  0.0000000000000000
  0.0000000000000000  0.0000000000000000  0.0000000000000000
  0.0000000000000000  0.0000000000000000  0.0000000000000000
  0.0000000000000000  0.0000000000000000  0.0000000000000000
