C  N  H  Pb I 
 1.0000000000000000
     8.9037116088936656    0.0423025845234421   -0.0079306351133305
     0.0423025845234421    8.9871480125565775    0.0374388789908439
    -0.0056071384832596    0.0264701346310585    6.4541309977106858
 C   N   H   Pb  I  
   2   4  10   2   6
Direct
  0.5000018554397698  0.5000022537173052  0.5710180843918635
  0.0000007410375673  0.9999987646105949  0.5710173459562399
  0.5923581034953973  0.5923585163879729  0.4765803103999293
  0.4076407503633792  0.4076411399921032  0.4765811169345087
  0.0923596624104001  0.9076399465760635  0.4765807909973080
  0.9076407520067938  0.0923588334847715  0.4765810251555295
  0.5000002811686740  0.5000006754111794  0.7434031870421924
  0.6592043223742974  0.6592047228670136  0.5661117567204834
  0.6020540182598020  0.6020543629609084  0.3166118097023154
  0.3979460835827360  0.3979464056777409  0.3166130108747678
  0.3407963330843803  0.3407967026589522  0.5661133888189644
  0.0000003891983269  0.9999991386351895  0.7434028011511009
  0.1592037642541199  0.8407958108961852  0.5661101690442600
  0.1020541224786791  0.8979456517450158  0.3166108718828011
  0.8979457520127502  0.1020539951781196  0.3166116306627341
  0.8407959940430516  0.1592035362748205  0.5661129987487662
  0.0000567064360518  0.4927579794086083  0.9968685422997057
  0.5054432798358801  0.0047774532663604  0.9944948762503363
  0.9981365347784665  0.4979260075119241  0.4807207065576422
  0.4980961347839081  0.9981097556240059  0.4969477752557542
  0.2199816973910214  0.2132036331057035  0.9888222154595181
  0.2742038155940988  0.7185444328667192  0.9903124615981156
  0.7175513528525657  0.2833650101778598  0.9931069991537218
  0.7879824794244509  0.7852719273961788  0.9920705426525172
Cartesian
  0.0000000000000000  0.0000000000000000  0.0000000000000000
  0.0000000000000000  0.0000000000000000  0.0000000000000000
  0.0000000000000000  0.0000000000000000  0.0000000000000000
  0.0000000000000000  0.0000000000000000  0.0000000000000000
  0.0000000000000000  0.0000000000000000  0.0000000000000000
  0.0000000000000000  0.0000000000000000  0.0000000000000000
  0.0000000000000000  0.0000000000000000  0.0000000000000000
  0.0000000000000000  0.0000000000000000  0.0000000000000000
  0.0000000000000000  0.0000000000000000  0.0000000000000000
  0.0000000000000000  0.0000000000000000  0.0000000000000000
  0.0000000000000000  0.0000000000000000  0.0000000000000000
  0.0000000000000000  0.0000000000000000  0.0000000000000000
  0.0000000000000000  0.0000000000000000  0.0000000000000000
  0.0000000000000000  0.0000000000000000  0.0000000000000000
  0.0000000000000000  0.0000000000000000  0.0000000000000000
  0.0000000000000000  0.0000000000000000  0.0000000000000000
  0.0000000000000000  0.0000000000000000  0.0000000000000000
  0.0000000000000000  0.0000000000000000  0.0000000000000000
  0.0000000000000000  0.0000000000000000  0.0000000000000000
  0.0000000000000000  0.0000000000000000  0.0000000000000000
  0.0000000000000000  0.0000000000000000  0.0000000000000000
  0.0000000000000000  0.0000000000000000  0.0000000000000000
  0.0000000000000000  0.0000000000000000  0.0000000000000000
  0.0000000000000000  0.0000000000000000  0.0000000000000000
