C  N  H  Pb I                           
   1.0000000000000000     
     9.0193899931757802    0.0000000000000000    0.0000000000000000
     0.0000000000000000    8.7777678445653162    0.0000000000000000
     0.0000000000000000    0.0000000000000000   12.7961868062944486
  C               N               H               Pb              I             
     4     8    20     4    12
Direct
     0.5263652310908284    0.0328864811654981    0.2263250207342011
     0.0256073353728681    0.4900406597390443    0.7341040649604480
     0.0560210270104946    0.5360818541479162    0.2417420394960530
     0.4920454478785175    0.9593040127881096    0.7475946256013870
     0.4992225720935011    0.8965755117200231    0.1888736281254140
     0.0032650628406685    0.4581184590690128    0.6351885350383313
     0.0751832907687984    0.4101583385031162    0.1879825877539218
     0.6310336640152769    0.9161005167449332    0.7399588856927721
     0.4248599912374615    0.1292727856830425    0.2586285093504728
     0.9214428742426364    0.4967013625430567    0.8056756592089229
     0.9316610865095498    0.6132761316494921    0.2466793699895504
     0.4294053329446612    0.0645637684645806    0.6897252229388684
     0.6422822626090934    0.0689743840168120    0.2314938180265642
     0.1394575285890340    0.5135244309388867    0.7589226597275882
     0.1508978355892907    0.5793513477737093    0.2860363287370262
     0.4236837047439721    0.9035986570811900    0.8070350168177995
     0.5854985395212111    0.8330027934673794    0.1608509977190735
     0.0927306048236360    0.4481594652879792    0.5865897412709344
     0.1739605811506735    0.3533042976623904    0.1924221580355692
     0.6727440483713281    0.8381575300147404    0.7915835946568777
     0.3933073319300107    0.8561603256146668    0.1806512889171259
     0.8998629212593485    0.4331728695980743    0.6068208483356514
     0.9923436323936343    0.3611510509103084    0.1455408268334750
     0.7027680811919126    0.9631449364772280    0.6875867437071861
     0.3145496247904305    0.1042595704401066    0.2576523871238621
     0.8124357536103517    0.4781026661754879    0.7891048559371683
     0.8390311492344225    0.5803846341830621    0.2062121798944432
     0.4862840485959765    0.1200135117898071    0.6317994631872494
     0.4562132597215083    0.2305810580735113    0.2913435433631761
     0.9477048424179628    0.5295028245293523    0.8801012230409100
     0.9300555565147803    0.7142536923057605    0.2865015396567046
     0.3183796102733396    0.0846649986020438    0.6981420736952373
     0.5023441722619779    0.4879288203356396    0.9810849892003191
     0.0023441785924945    0.0120711836670608    0.4810849868122489
     0.9976558244282359    0.9879288178551917    0.9810849914872719
     0.4976558298475950    0.5120711849063113    0.4810849885500943
     0.7958928941106862    0.7105293335369609    0.5032699314851357
     0.9606598229172718    0.9944623124655507    0.2320592544955247
     0.7060293635732506    0.1956508126848462    0.9614522052702341
     0.2041070863312058    0.2894707010478257    0.0032699320500740
     0.2060293779368507    0.3043491755398549    0.4614522129329686
     0.2939706246777973    0.8043491828284957    0.4614522154174097
     0.7939706408800902    0.6956508110307098    0.9614522100061293
     0.7041071043942750    0.2105293303375291    0.5032699287679776
     0.4606598128207438    0.5055376617516671    0.7320592563212429
     0.0393401777688851    0.0055376740307977    0.7320592521911493
     0.2958929104798855    0.7894706933117490    0.0032699289927791
     0.5393401671427824    0.4944623109760684    0.2320592517272502

  0.00000000E+00  0.00000000E+00  0.00000000E+00
  0.00000000E+00  0.00000000E+00  0.00000000E+00
  0.00000000E+00  0.00000000E+00  0.00000000E+00
  0.00000000E+00  0.00000000E+00  0.00000000E+00
  0.00000000E+00  0.00000000E+00  0.00000000E+00
  0.00000000E+00  0.00000000E+00  0.00000000E+00
  0.00000000E+00  0.00000000E+00  0.00000000E+00
  0.00000000E+00  0.00000000E+00  0.00000000E+00
  0.00000000E+00  0.00000000E+00  0.00000000E+00
  0.00000000E+00  0.00000000E+00  0.00000000E+00
  0.00000000E+00  0.00000000E+00  0.00000000E+00
  0.00000000E+00  0.00000000E+00  0.00000000E+00
  0.00000000E+00  0.00000000E+00  0.00000000E+00
  0.00000000E+00  0.00000000E+00  0.00000000E+00
  0.00000000E+00  0.00000000E+00  0.00000000E+00
  0.00000000E+00  0.00000000E+00  0.00000000E+00
  0.00000000E+00  0.00000000E+00  0.00000000E+00
  0.00000000E+00  0.00000000E+00  0.00000000E+00
  0.00000000E+00  0.00000000E+00  0.00000000E+00
  0.00000000E+00  0.00000000E+00  0.00000000E+00
  0.00000000E+00  0.00000000E+00  0.00000000E+00
  0.00000000E+00  0.00000000E+00  0.00000000E+00
  0.00000000E+00  0.00000000E+00  0.00000000E+00
  0.00000000E+00  0.00000000E+00  0.00000000E+00
  0.00000000E+00  0.00000000E+00  0.00000000E+00
  0.00000000E+00  0.00000000E+00  0.00000000E+00
  0.00000000E+00  0.00000000E+00  0.00000000E+00
  0.00000000E+00  0.00000000E+00  0.00000000E+00
  0.00000000E+00  0.00000000E+00  0.00000000E+00
  0.00000000E+00  0.00000000E+00  0.00000000E+00
  0.00000000E+00  0.00000000E+00  0.00000000E+00
  0.00000000E+00  0.00000000E+00  0.00000000E+00
  0.00000000E+00  0.00000000E+00  0.00000000E+00
  0.00000000E+00  0.00000000E+00  0.00000000E+00
  0.00000000E+00  0.00000000E+00  0.00000000E+00
  0.00000000E+00  0.00000000E+00  0.00000000E+00
  0.00000000E+00  0.00000000E+00  0.00000000E+00
  0.00000000E+00  0.00000000E+00  0.00000000E+00
  0.00000000E+00  0.00000000E+00  0.00000000E+00
  0.00000000E+00  0.00000000E+00  0.00000000E+00
  0.00000000E+00  0.00000000E+00  0.00000000E+00
  0.00000000E+00  0.00000000E+00  0.00000000E+00
  0.00000000E+00  0.00000000E+00  0.00000000E+00
  0.00000000E+00  0.00000000E+00  0.00000000E+00
  0.00000000E+00  0.00000000E+00  0.00000000E+00
  0.00000000E+00  0.00000000E+00  0.00000000E+00
  0.00000000E+00  0.00000000E+00  0.00000000E+00
  0.00000000E+00  0.00000000E+00  0.00000000E+00
