C  N  H  Pb I 
 1.0000000000000000
     9.0193899931757802    0.0000000000000000    0.0000000000000000
     0.0000000000000000    8.7777678445653162    0.0000000000000000
     0.0000000000000000    0.0000000000000000   12.7961868062944486
 C   N   H   Pb  I  
   4   8  20   4  12
Direct
  0.5263652310908269  0.0328864811654995  0.2263250207341993
  0.0256073353728679  0.4900406597390429  0.7341040649604511
  0.0560210270104980  0.5360818541479169  0.2417420394960536
  0.4920454478785191  0.9593040127881087  0.7475946256013861
  0.4992225720935019  0.8965755117200210  0.1888736281254120
  0.0032650628406683  0.4581184590690128  0.6351885350383339
  0.0751832907687958  0.4101583385031176  0.1879825877539233
  0.6310336640152745  0.9161005167449353  0.7399588856927697
  0.4248599912374600  0.1292727856830395  0.2586285093504704
  0.9214428742426347  0.4967013625430551  0.8056756592089234
  0.9316610865095519  0.6132761316494930  0.2466793699895476
  0.4294053329446625  0.0645637684645837  0.6897252229388682
  0.6422822626090952  0.0689743840168152  0.2314938180265613
  0.1394575285890312  0.5135244309388841  0.7589226597275881
  0.1508978355892912  0.5793513477737071  0.2860363287370294
  0.4236837047439705  0.9035986570811895  0.8070350168177974
  0.5854985395212083  0.8330027934673828  0.1608509977190707
  0.0927306048236367  0.4481594652879804  0.5865897412709352
  0.1739605811506713  0.3533042976623881  0.1924221580355722
  0.6727440483713266  0.8381575300147407  0.7915835946568774
  0.3933073319300122  0.8561603256146633  0.1806512889171224
  0.8998629212593495  0.4331728695980758  0.6068208483356511
  0.9923436323936367  0.3611510509103050  0.1455408268334774
  0.7027680811919139  0.9631449364772252  0.6875867437071860
  0.3145496247904283  0.1042595704401090  0.2576523871238646
  0.8124357536103497  0.4781026661754896  0.7891048559371712
  0.8390311492344221  0.5803846341830629  0.2062121798944450
  0.4862840485959766  0.1200135117898101  0.6317994631872471
  0.4562132597215062  0.2305810580735107  0.2913435433631782
  0.9477048424179656  0.5295028245293524  0.8801012230409084
  0.9300555565147782  0.7142536923057632  0.2865015396567059
  0.3183796102733418  0.0846649986020452  0.6981420736952382
  0.5023441722619808  0.4879288203356366  0.9810849892003165
  0.0023441785924915  0.0120711836670638  0.4810849868122521
  0.9976558244282330  0.9879288178551918  0.9810849914872694
  0.4976558298475982  0.5120711849063111  0.4810849885500975
  0.7958928941106866  0.7105293335369601  0.5032699314851331
  0.9606598229172731  0.9944623124655482  0.2320592544955259
  0.7060293635732524  0.1956508126848427  0.9614522052702348
  0.2041070863312036  0.2894707010478275  0.0032699320500760
  0.2060293779368493  0.3043491755398582  0.4614522129329701
  0.2939706246777947  0.8043491828284943  0.4614522154174112
  0.7939706408800884  0.6956508110307111  0.9614522100061302
  0.7041071043942746  0.2105293303375289  0.5032699287679750
  0.4606598128207440  0.5055376617516696  0.7320592563212425
  0.0393401777688836  0.0055376740307987  0.7320592521911489
  0.2958929104798871  0.7894706933117497  0.0032699289927811
  0.5393401671427811  0.4944623109760681  0.2320592517272514
Cartesian
  0.0000000000000000  0.0000000000000000  0.0000000000000000
  0.0000000000000000  0.0000000000000000  0.0000000000000000
  0.0000000000000000  0.0000000000000000  0.0000000000000000
  0.0000000000000000  0.0000000000000000  0.0000000000000000
  0.0000000000000000  0.0000000000000000  0.0000000000000000
  0.0000000000000000  0.0000000000000000  0.0000000000000000
  0.0000000000000000  0.0000000000000000  0.0000000000000000
  0.0000000000000000  0.0000000000000000  0.0000000000000000
  0.0000000000000000  0.0000000000000000  0.0000000000000000
  0.0000000000000000  0.0000000000000000  0.0000000000000000
  0.0000000000000000  0.0000000000000000  0.0000000000000000
  0.0000000000000000  0.0000000000000000  0.0000000000000000
  0.0000000000000000  0.0000000000000000  0.0000000000000000
  0.0000000000000000  0.0000000000000000  0.0000000000000000
  0.0000000000000000  0.0000000000000000  0.0000000000000000
  0.0000000000000000  0.0000000000000000  0.0000000000000000
  0.0000000000000000  0.0000000000000000  0.0000000000000000
  0.0000000000000000  0.0000000000000000  0.0000000000000000
  0.0000000000000000  0.0000000000000000  0.0000000000000000
  0.0000000000000000  0.0000000000000000  0.0000000000000000
  0.0000000000000000  0.0000000000000000  0.0000000000000000
  0.0000000000000000  0.0000000000000000  0.0000000000000000
  0.0000000000000000  0.0000000000000000  0.0000000000000000
  0.0000000000000000  0.0000000000000000  0.0000000000000000
  0.0000000000000000  0.0000000000000000  0.0000000000000000
  0.0000000000000000  0.0000000000000000  0.0000000000000000
  0.0000000000000000  0.0000000000000000  0.0000000000000000
  0.0000000000000000  0.0000000000000000  0.0000000000000000
  0.0000000000000000  0.0000000000000000  0.0000000000000000
  0.0000000000000000  0.0000000000000000  0.0000000000000000
  0.0000000000000000  0.0000000000000000  0.0000000000000000
  0.0000000000000000  0.0000000000000000  0.0000000000000000
  0.0000000000000000  0.0000000000000000  0.0000000000000000
  0.0000000000000000  0.0000000000000000  0.0000000000000000
  0.0000000000000000  0.0000000000000000  0.0000000000000000
  0.0000000000000000  0.0000000000000000  0.0000000000000000
  0.0000000000000000  0.0000000000000000  0.0000000000000000
  0.0000000000000000  0.0000000000000000  0.0000000000000000
  0.0000000000000000  0.0000000000000000  0.0000000000000000
  0.0000000000000000  0.0000000000000000  0.0000000000000000
  0.0000000000000000  0.0000000000000000  0.0000000000000000
  0.0000000000000000  0.0000000000000000  0.0000000000000000
  0.0000000000000000  0.0000000000000000  0.0000000000000000
  0.0000000000000000  0.0000000000000000  0.0000000000000000
  0.0000000000000000  0.0000000000000000  0.0000000000000000
  0.0000000000000000  0.0000000000000000  0.0000000000000000
  0.0000000000000000  0.0000000000000000  0.0000000000000000
  0.0000000000000000  0.0000000000000000  0.0000000000000000
