C  N  H  Pb I                           
   1.0000000000000000     
     8.9758618464697282   -0.0456095010936282   -0.0253746143354099
    -0.0456095010936282    8.8530572007916088   -0.0496773243902723
    -0.0179404265238217   -0.0351229924657430    6.2616644955804119
  C               N               H               Pb              I             
     2     4    10     2     6
Direct
     0.5076795415956212    0.4778511800968275    0.5584243968773563
     0.9998495021911253    0.0006336261393471    0.5774376073834375
     0.5906098706092067    0.5998929514964644    0.5094289825197436
     0.4073751541794408    0.4171438433939016    0.4557331840988610
     0.0984374533292112    0.9060558896421611    0.4789874329278518
     0.9079312967732491    0.0908165910600971    0.4784570669260759
     0.5471577107354832    0.4278880862103662    0.7004503722495272
     0.6597626113153865    0.6381944400983386    0.5961837024729704
     0.5722855846112793    0.6645978602168725    0.3713467108951534
     0.3656687005558297    0.4604019311121661    0.3057377281315894
     0.3549737087275986    0.3152343103479467    0.4992991840720933
     0.9951579162598208    0.9861938990833252    0.7328201005490342
     0.1633122761510535    0.8449486767426464    0.5713479729079651
     0.1037756883821359    0.9005061284065121    0.3207884178794203
     0.9002175694073671    0.1043315978052561    0.3163966111731256
     0.8379448126474998    0.1573829041104560    0.5678506887659438
     0.9980043494589594    0.4977459166861991    0.9945125499174949
     0.4943878512425073    0.0073671462555396    0.9809385335397636
     0.9982917409714176    0.5013267733245357    0.4850775370318772
     0.4972658319697558    0.0042360482223955    0.4734737496224142
     0.2215741736670651    0.2154082214734032    0.9902812797618736
     0.2756277988544440    0.7169156115590098    0.9990617257675893
     0.7237243466962866    0.2811015783323612    0.9841901881763633
     0.7736548455261385    0.7767409139594719    0.9812584617977080

  0.00000000E+00  0.00000000E+00  0.00000000E+00
  0.00000000E+00  0.00000000E+00  0.00000000E+00
  0.00000000E+00  0.00000000E+00  0.00000000E+00
  0.00000000E+00  0.00000000E+00  0.00000000E+00
  0.00000000E+00  0.00000000E+00  0.00000000E+00
  0.00000000E+00  0.00000000E+00  0.00000000E+00
  0.00000000E+00  0.00000000E+00  0.00000000E+00
  0.00000000E+00  0.00000000E+00  0.00000000E+00
  0.00000000E+00  0.00000000E+00  0.00000000E+00
  0.00000000E+00  0.00000000E+00  0.00000000E+00
  0.00000000E+00  0.00000000E+00  0.00000000E+00
  0.00000000E+00  0.00000000E+00  0.00000000E+00
  0.00000000E+00  0.00000000E+00  0.00000000E+00
  0.00000000E+00  0.00000000E+00  0.00000000E+00
  0.00000000E+00  0.00000000E+00  0.00000000E+00
  0.00000000E+00  0.00000000E+00  0.00000000E+00
  0.00000000E+00  0.00000000E+00  0.00000000E+00
  0.00000000E+00  0.00000000E+00  0.00000000E+00
  0.00000000E+00  0.00000000E+00  0.00000000E+00
  0.00000000E+00  0.00000000E+00  0.00000000E+00
  0.00000000E+00  0.00000000E+00  0.00000000E+00
  0.00000000E+00  0.00000000E+00  0.00000000E+00
  0.00000000E+00  0.00000000E+00  0.00000000E+00
  0.00000000E+00  0.00000000E+00  0.00000000E+00
