C  N  H  Pb I 
 1.0000000000000000
     8.9758618464697282   -0.0456095010936282   -0.0253746143354099
    -0.0456095010936282    8.8530572007916088   -0.0496773243902723
    -0.0179404265238217   -0.0351229924657430    6.2616644955804119
 C   N   H   Pb  I  
   2   4  10   2   6
Direct
  0.5076795415956200  0.4778511800968285  0.5584243968773547
  0.9998495021911270  0.0006336261393479  0.5774376073834385
  0.5906098706092092  0.5998929514964662  0.5094289825197463
  0.4073751541794421  0.4171438433939002  0.4557331840988586
  0.0984374533292123  0.9060558896421598  0.4789874329278501
  0.9079312967732497  0.0908165910600979  0.4784570669260757
  0.5471577107354828  0.4278880862103688  0.7004503722495267
  0.6597626113153872  0.6381944400983377  0.5961837024729718
  0.5722855846112811  0.6645978602168713  0.3713467108951525
  0.3656687005558328  0.4604019311121678  0.3057377281315888
  0.3549737087275996  0.3152343103479497  0.4992991840720928
  0.9951579162598237  0.9861938990833237  0.7328201005490355
  0.1633122761510564  0.8449486767426437  0.5713479729079647
  0.1037756883821368  0.9005061284065125  0.3207884178794233
  0.9002175694073704  0.1043315978052572  0.3163966111731264
  0.8379448126475009  0.1573829041104528  0.5678506887659432
  0.9980043494589618  0.4977459166861996  0.9945125499174937
  0.4943878512425046  0.0073671462555402  0.9809385335397645
  0.9982917409714159  0.5013267733245379  0.4850775370318795
  0.4972658319697585  0.0042360482223924  0.4734737496224171
  0.2215741736670640  0.2154082214734041  0.9902812797618716
  0.2756277988544431  0.7169156115590073  0.9990617257675911
  0.7237243466962848  0.2811015783323640  0.9841901881763649
  0.7736548455261394  0.7767409139594748  0.9812584617977074
Cartesian
  0.0000000000000000  0.0000000000000000  0.0000000000000000
  0.0000000000000000  0.0000000000000000  0.0000000000000000
  0.0000000000000000  0.0000000000000000  0.0000000000000000
  0.0000000000000000  0.0000000000000000  0.0000000000000000
  0.0000000000000000  0.0000000000000000  0.0000000000000000
  0.0000000000000000  0.0000000000000000  0.0000000000000000
  0.0000000000000000  0.0000000000000000  0.0000000000000000
  0.0000000000000000  0.0000000000000000  0.0000000000000000
  0.0000000000000000  0.0000000000000000  0.0000000000000000
  0.0000000000000000  0.0000000000000000  0.0000000000000000
  0.0000000000000000  0.0000000000000000  0.0000000000000000
  0.0000000000000000  0.0000000000000000  0.0000000000000000
  0.0000000000000000  0.0000000000000000  0.0000000000000000
  0.0000000000000000  0.0000000000000000  0.0000000000000000
  0.0000000000000000  0.0000000000000000  0.0000000000000000
  0.0000000000000000  0.0000000000000000  0.0000000000000000
  0.0000000000000000  0.0000000000000000  0.0000000000000000
  0.0000000000000000  0.0000000000000000  0.0000000000000000
  0.0000000000000000  0.0000000000000000  0.0000000000000000
  0.0000000000000000  0.0000000000000000  0.0000000000000000
  0.0000000000000000  0.0000000000000000  0.0000000000000000
  0.0000000000000000  0.0000000000000000  0.0000000000000000
  0.0000000000000000  0.0000000000000000  0.0000000000000000
  0.0000000000000000  0.0000000000000000  0.0000000000000000
