C  N  H  Pb I                           
   1.0000000000000000     
     9.0503235000405997    0.0635051514474233   -0.0554700378553427
     0.0635051514474233    8.9123762947950986    0.0177794268754711
    -0.0392185719657878    0.0125704571221770    6.3329602126219680
  C               N               H               Pb              I             
     2     4    10     2     6
Direct
     0.5125481899424855    0.5170118870327300    0.5681058616097303
     0.9976034767605313    0.0022342393312655    0.5721377385632778
     0.5854647030151412    0.5727288894363767    0.4123020361670271
     0.4060991992197600    0.4196255827865301    0.5535419813895288
     0.0892668753106705    0.9107627199301547    0.4754960628666822
     0.9054639378122360    0.0914908746908907    0.4820142790565853
     0.5443152509516054    0.5469113057128752    0.7288145550877019
     0.6733329875412011    0.6475395356663398    0.4418209459789466
     0.5651529677914553    0.5542544247459986    0.2556197016397945
     0.3627339325182461    0.3702617071202781    0.4074370557318971
     0.3587995754019317    0.3733260214338827    0.6856386707005839
     0.9989532045937963    0.0007349412316913    0.7411968844130996
     0.1588007919809229    0.8404710641161159    0.5738842130100537
     0.1002033834183464    0.8960056137220747    0.3159031337751372
     0.8984629729091864    0.0997182792188411    0.3167306214286967
     0.8463805465541441    0.1603820618783089    0.5658732090981147
     0.0004104875880557    0.4978047754559896    0.9926181355845216
     0.4952450031510978    0.9980030672309610    0.9893925719025631
     0.9993526503233667    0.5020431835820389    0.4996825645359024
     0.5021218762071555    0.9989464750157993    0.4926403514556128
     0.2203107761616536    0.2160419258083834    0.9904301513704183
     0.2795127497670009    0.7170187208358954    0.9926543667574563
     0.7191877413432479    0.2807491798045660    0.9933398569650507
     0.7836820263159083    0.7786122621701494    0.9938753554844411

  0.00000000E+00  0.00000000E+00  0.00000000E+00
  0.00000000E+00  0.00000000E+00  0.00000000E+00
  0.00000000E+00  0.00000000E+00  0.00000000E+00
  0.00000000E+00  0.00000000E+00  0.00000000E+00
  0.00000000E+00  0.00000000E+00  0.00000000E+00
  0.00000000E+00  0.00000000E+00  0.00000000E+00
  0.00000000E+00  0.00000000E+00  0.00000000E+00
  0.00000000E+00  0.00000000E+00  0.00000000E+00
  0.00000000E+00  0.00000000E+00  0.00000000E+00
  0.00000000E+00  0.00000000E+00  0.00000000E+00
  0.00000000E+00  0.00000000E+00  0.00000000E+00
  0.00000000E+00  0.00000000E+00  0.00000000E+00
  0.00000000E+00  0.00000000E+00  0.00000000E+00
  0.00000000E+00  0.00000000E+00  0.00000000E+00
  0.00000000E+00  0.00000000E+00  0.00000000E+00
  0.00000000E+00  0.00000000E+00  0.00000000E+00
  0.00000000E+00  0.00000000E+00  0.00000000E+00
  0.00000000E+00  0.00000000E+00  0.00000000E+00
  0.00000000E+00  0.00000000E+00  0.00000000E+00
  0.00000000E+00  0.00000000E+00  0.00000000E+00
  0.00000000E+00  0.00000000E+00  0.00000000E+00
  0.00000000E+00  0.00000000E+00  0.00000000E+00
  0.00000000E+00  0.00000000E+00  0.00000000E+00
  0.00000000E+00  0.00000000E+00  0.00000000E+00
