C  N  H  Pb I 
 1.0000000000000000
     9.0503235000405997    0.0635051514474233   -0.0554700378553427
     0.0635051514474233    8.9123762947950986    0.0177794268754711
    -0.0392185719657878    0.0125704571221770    6.3329602126219680
 C   N   H   Pb  I  
   2   4  10   2   6
Direct
  0.5125481899424882  0.5170118870327305  0.5681058616097269
  0.9976034767605320  0.0022342393312663  0.5721377385632772
  0.5854647030151380  0.5727288894363790  0.4123020361670237
  0.4060991992197591  0.4196255827865287  0.5535419813895318
  0.0892668753106714  0.9107627199301577  0.4754960628666815
  0.9054639378122326  0.0914908746908931  0.4820142790565850
  0.5443152509516075  0.5469113057128777  0.7288145550877022
  0.6733329875412037  0.6475395356663365  0.4418209459789446
  0.5651529677914523  0.5542544247460018  0.2556197016397960
  0.3627339325182457  0.3702617071202745  0.4074370557318953
  0.3587995754019295  0.3733260214338804  0.6856386707005813
  0.9989532045937972  0.0007349412316915  0.7411968844130981
  0.1588007919809241  0.8404710641161174  0.5738842130100510
  0.1002033834183492  0.8960056137220744  0.3159031337751387
  0.8984629729091855  0.0997182792188394  0.3167306214286982
  0.8463805465541432  0.1603820618783111  0.5658732090981159
  0.0004104875880529  0.4978047754559891  0.9926181355845248
  0.4952450031511003  0.9980030672309588  0.9893925719025656
  0.9993526503233673  0.5020431835820417  0.4996825645359025
  0.5021218762071529  0.9989464750157966  0.4926403514556154
  0.2203107761616507  0.2160419258083816  0.9904301513704209
  0.2795127497669988  0.7170187208358951  0.9926543667574574
  0.7191877413432484  0.2807491798045670  0.9933398569650503
  0.7836820263159057  0.7786122621701528  0.9938753554844392
Cartesian
  0.0000000000000000  0.0000000000000000  0.0000000000000000
  0.0000000000000000  0.0000000000000000  0.0000000000000000
  0.0000000000000000  0.0000000000000000  0.0000000000000000
  0.0000000000000000  0.0000000000000000  0.0000000000000000
  0.0000000000000000  0.0000000000000000  0.0000000000000000
  0.0000000000000000  0.0000000000000000  0.0000000000000000
  0.0000000000000000  0.0000000000000000  0.0000000000000000
  0.0000000000000000  0.0000000000000000  0.0000000000000000
  0.0000000000000000  0.0000000000000000  0.0000000000000000
  0.0000000000000000  0.0000000000000000  0.0000000000000000
  0.0000000000000000  0.0000000000000000  0.0000000000000000
  0.0000000000000000  0.0000000000000000  0.0000000000000000
  0.0000000000000000  0.0000000000000000  0.0000000000000000
  0.0000000000000000  0.0000000000000000  0.0000000000000000
  0.0000000000000000  0.0000000000000000  0.0000000000000000
  0.0000000000000000  0.0000000000000000  0.0000000000000000
  0.0000000000000000  0.0000000000000000  0.0000000000000000
  0.0000000000000000  0.0000000000000000  0.0000000000000000
  0.0000000000000000  0.0000000000000000  0.0000000000000000
  0.0000000000000000  0.0000000000000000  0.0000000000000000
  0.0000000000000000  0.0000000000000000  0.0000000000000000
  0.0000000000000000  0.0000000000000000  0.0000000000000000
  0.0000000000000000  0.0000000000000000  0.0000000000000000
  0.0000000000000000  0.0000000000000000  0.0000000000000000
