C  N  H  Pb I                           
   1.0000000000000000     
     9.0136301856781103   -0.0068030032979021   -0.0477469333988859
    -0.0068030032979021    8.8974821460040623   -0.0633665824828984
    -0.0337581623530391   -0.0448016077041890    6.4499426124158568
  C               N               H               Pb              I             
     2     4    10     2     6
Direct
     0.5000018554397698    0.5000022537173052    0.5710180843918664
     0.0000007410375673    0.9999987646105950    0.5710173459562427
     0.5923581034953997    0.5923585163879750    0.4765803103999318
     0.4076407503633774    0.4076411399921014    0.4765811169345113
     0.0923596624104022    0.9076399465760616    0.4765807909973105
     0.9076407520067917    0.0923588334847736    0.4765810251555322
     0.5000002811686741    0.5000006754111794    0.7434031870421904
     0.6592043223743005    0.6592047228670168    0.5661117567204812
     0.6020540182597998    0.6020543629609065    0.3166118097023158
     0.3979460835827382    0.3979464056777431    0.3166130108747680
     0.3407963330843771    0.3407967026589489    0.5661133888189624
     0.0000003891983269    0.9999991386351894    0.7434028011510989
     0.1592037642541229    0.8407958108961822    0.5661101690442578
     0.1020541224786768    0.8979456517450188    0.3166108718828013
     0.8979457520127525    0.1020539951781174    0.3166116306627345
     0.8407959940430487    0.1592035362748234    0.5661129987487641
     0.9999063313009344    0.4987064329021891    0.9887218524633425
     0.4992373328049808    0.9992131631187533    0.9878443311167189
     0.9958614699597135    0.4995500446672452    0.4882645261740777
     0.4999474018119869    0.9983500538943630    0.4980824429159725
     0.2190318646089793    0.2188751546079928    0.9887109670429126
     0.2800536721601077    0.7168949763962686    0.9868759899151911
     0.7183052999440989    0.2801062213078467    0.9911833255215612
     0.7842808302694593    0.7817800920909335    0.9898375293083745

  0.00000000E+00  0.00000000E+00  0.00000000E+00
  0.00000000E+00  0.00000000E+00  0.00000000E+00
  0.00000000E+00  0.00000000E+00  0.00000000E+00
  0.00000000E+00  0.00000000E+00  0.00000000E+00
  0.00000000E+00  0.00000000E+00  0.00000000E+00
  0.00000000E+00  0.00000000E+00  0.00000000E+00
  0.00000000E+00  0.00000000E+00  0.00000000E+00
  0.00000000E+00  0.00000000E+00  0.00000000E+00
  0.00000000E+00  0.00000000E+00  0.00000000E+00
  0.00000000E+00  0.00000000E+00  0.00000000E+00
  0.00000000E+00  0.00000000E+00  0.00000000E+00
  0.00000000E+00  0.00000000E+00  0.00000000E+00
  0.00000000E+00  0.00000000E+00  0.00000000E+00
  0.00000000E+00  0.00000000E+00  0.00000000E+00
  0.00000000E+00  0.00000000E+00  0.00000000E+00
  0.00000000E+00  0.00000000E+00  0.00000000E+00
  0.00000000E+00  0.00000000E+00  0.00000000E+00
  0.00000000E+00  0.00000000E+00  0.00000000E+00
  0.00000000E+00  0.00000000E+00  0.00000000E+00
  0.00000000E+00  0.00000000E+00  0.00000000E+00
  0.00000000E+00  0.00000000E+00  0.00000000E+00
  0.00000000E+00  0.00000000E+00  0.00000000E+00
  0.00000000E+00  0.00000000E+00  0.00000000E+00
  0.00000000E+00  0.00000000E+00  0.00000000E+00
