C  N  H  Pb I 
 1.0000000000000000
     9.0136301856781103   -0.0068030032979021   -0.0477469333988859
    -0.0068030032979021    8.8974821460040623   -0.0633665824828984
    -0.0337581623530391   -0.0448016077041890    6.4499426124158568
 C   N   H   Pb  I  
   2   4  10   2   6
Direct
  0.5000018554397698  0.5000022537173052  0.5710180843918636
  0.0000007410375673  0.9999987646105944  0.5710173459562399
  0.5923581034953975  0.5923585163879725  0.4765803103999293
  0.4076407503633792  0.4076411399921034  0.4765811169345088
  0.0923596624104001  0.9076399465760637  0.4765807909973080
  0.9076407520067939  0.0923588334847715  0.4765810251555297
  0.5000002811686741  0.5000006754111793  0.7434031870421923
  0.6592043223742974  0.6592047228670139  0.5661117567204833
  0.6020540182598020  0.6020543629609089  0.3166118097023156
  0.3979460835827361  0.3979464056777410  0.3166130108747677
  0.3407963330843803  0.3407967026589522  0.5661133888189646
  0.0000003891983269  0.9999991386351897  0.7434028011511007
  0.1592037642541199  0.8407958108961856  0.5661101690442600
  0.1020541224786791  0.8979456517450167  0.3166108718828011
  0.8979457520127502  0.1020539951781196  0.3166116306627341
  0.8407959940430518  0.1592035362748205  0.5661129987487662
  0.9999063313009365  0.4987064329021890  0.9887218524633397
  0.4992373328049774  0.9992131631187512  0.9878443311167217
  0.9958614699597157  0.4995500446672438  0.4882645261740773
  0.4999474018119889  0.9983500538943639  0.4980824429159734
  0.2190318646089778  0.2188751546079940  0.9887109670429139
  0.2800536721601045  0.7168949763962682  0.9868759899151935
  0.7183052999440994  0.2801062213078449  0.9911833255215613
  0.7842808302694612  0.7817800920909367  0.9898375293083742
Cartesian
  0.0000000000000000  0.0000000000000000  0.0000000000000000
  0.0000000000000000  0.0000000000000000  0.0000000000000000
  0.0000000000000000  0.0000000000000000  0.0000000000000000
  0.0000000000000000  0.0000000000000000  0.0000000000000000
  0.0000000000000000  0.0000000000000000  0.0000000000000000
  0.0000000000000000  0.0000000000000000  0.0000000000000000
  0.0000000000000000  0.0000000000000000  0.0000000000000000
  0.0000000000000000  0.0000000000000000  0.0000000000000000
  0.0000000000000000  0.0000000000000000  0.0000000000000000
  0.0000000000000000  0.0000000000000000  0.0000000000000000
  0.0000000000000000  0.0000000000000000  0.0000000000000000
  0.0000000000000000  0.0000000000000000  0.0000000000000000
  0.0000000000000000  0.0000000000000000  0.0000000000000000
  0.0000000000000000  0.0000000000000000  0.0000000000000000
  0.0000000000000000  0.0000000000000000  0.0000000000000000
  0.0000000000000000  0.0000000000000000  0.0000000000000000
  0.0000000000000000  0.0000000000000000  0.0000000000000000
  0.0000000000000000  0.0000000000000000  0.0000000000000000
  0.0000000000000000  0.0000000000000000  0.0000000000000000
  0.0000000000000000  0.0000000000000000  0.0000000000000000
  0.0000000000000000  0.0000000000000000  0.0000000000000000
  0.0000000000000000  0.0000000000000000  0.0000000000000000
  0.0000000000000000  0.0000000000000000  0.0000000000000000
  0.0000000000000000  0.0000000000000000  0.0000000000000000
