C  N  H  Pb I 
 1.0000000000000000
     9.1280557691659254    0.0442580601608933    0.0200577474620966
     0.0442580601608933    9.0977560605175558    0.0341953120859768
     0.0141812813318292    0.0241768594323626    6.3294685335301537
 C   N   H   Pb  I  
   2   4  10   2   6
Direct
  0.5000018554397700  0.5000022537173053  0.5710180843918635
  0.0000007410375673  0.9999987646105948  0.5710173459562397
  0.5923581034953977  0.5923585163879729  0.4765803103999291
  0.4076407503633793  0.4076411399921032  0.4765811169345088
  0.0923596624104001  0.9076399465760642  0.4765807909973079
  0.9076407520067939  0.0923588334847715  0.4765810251555296
  0.5000002811686741  0.5000006754111797  0.7434031870421925
  0.6592043223742974  0.6592047228670137  0.5661117567204832
  0.6020540182598021  0.6020543629609089  0.3166118097023156
  0.3979460835827362  0.3979464056777411  0.3166130108747677
  0.3407963330843803  0.3407967026589522  0.5661133888189646
  0.0000003891983269  0.9999991386351895  0.7434028011511007
  0.1592037642541199  0.8407958108961854  0.5661101690442599
  0.1020541224786791  0.8979456517450167  0.3166108718828010
  0.8979457520127502  0.1020539951781196  0.3166116306627341
  0.8407959940430518  0.1592035362748205  0.5661129987487661
  0.9992987407612915  0.5013117802133962  0.0024308426277331
  0.4972718700601755  0.0026104036187402  0.0014354815140914
  0.0067238913422561  0.4951292160796249  0.4864211814419344
  0.4946379403659094  0.9971478737478955  0.4933668166810597
  0.2181207297967467  0.2149381675290636  0.9894342889037768
  0.2795455271616281  0.7234552831843418  0.9911973499464857
  0.7115218564402772  0.2841334018553196  0.9933522808610664
  0.7769358044382466  0.7825670651163419  0.9958329577854178
Cartesian
  0.0000000000000000  0.0000000000000000  0.0000000000000000
  0.0000000000000000  0.0000000000000000  0.0000000000000000
  0.0000000000000000  0.0000000000000000  0.0000000000000000
  0.0000000000000000  0.0000000000000000  0.0000000000000000
  0.0000000000000000  0.0000000000000000  0.0000000000000000
  0.0000000000000000  0.0000000000000000  0.0000000000000000
  0.0000000000000000  0.0000000000000000  0.0000000000000000
  0.0000000000000000  0.0000000000000000  0.0000000000000000
  0.0000000000000000  0.0000000000000000  0.0000000000000000
  0.0000000000000000  0.0000000000000000  0.0000000000000000
  0.0000000000000000  0.0000000000000000  0.0000000000000000
  0.0000000000000000  0.0000000000000000  0.0000000000000000
  0.0000000000000000  0.0000000000000000  0.0000000000000000
  0.0000000000000000  0.0000000000000000  0.0000000000000000
  0.0000000000000000  0.0000000000000000  0.0000000000000000
  0.0000000000000000  0.0000000000000000  0.0000000000000000
  0.0000000000000000  0.0000000000000000  0.0000000000000000
  0.0000000000000000  0.0000000000000000  0.0000000000000000
  0.0000000000000000  0.0000000000000000  0.0000000000000000
  0.0000000000000000  0.0000000000000000  0.0000000000000000
  0.0000000000000000  0.0000000000000000  0.0000000000000000
  0.0000000000000000  0.0000000000000000  0.0000000000000000
  0.0000000000000000  0.0000000000000000  0.0000000000000000
  0.0000000000000000  0.0000000000000000  0.0000000000000000
