C  N  H  Pb I                           
   1.0000000000000000     
     9.0193899931757802    0.0000000000000000    0.0000000000000000
     0.0000000000000000    8.7777678445653162    0.0000000000000000
     0.0000000000000000    0.0000000000000000   12.7961868062944486
  C               N               H               Pb              I             
     4     8    20     4    12
Direct
     0.5079545620594885    0.0406959883747646    0.2475946235704427
     0.0074029474262360    0.4622553009600807    0.6999323344482562
     0.9816199843397300    0.5487703142918079    0.2226761801779844
     0.4920454478785175    0.9593040127881096    0.7475946256013870
     0.5705946771768495    0.9354362274290722    0.1897252141182122
     0.8689385517965249    0.4174605299967808    0.7064509379342638
     0.1106090633465655    0.6017427538732107    0.1918957136088508
     0.6310336640152769    0.9161005167449332    0.7399588856927721
     0.3689663406760957    0.0838994856595292    0.2399588837149906
     0.0708291824661842    0.5605516760154643    0.7630887694973012
     0.9585886965248989    0.4108797348230908    0.2587494505825561
     0.4294053329446612    0.0645637684645806    0.6897252229388684
     0.5763163080256462    0.0964013618091926    0.3070350010383294
     0.0751786997397375    0.4147336465400855    0.6369219741254710
     0.8864381159341619    0.6258324461036864    0.2182303604174436
     0.4236837047439721    0.9035986570811900    0.8070350168177995
     0.6816203964682259    0.9153350004290033    0.1981420696355372
     0.8320011480532159    0.3345775798143364    0.6567044038006813
     0.1200070196836478    0.7131435057729973    0.1694321089548581
     0.6727440483713281    0.8381575300147404    0.7915835946568777
     0.5137159496301180    0.8799864858485265    0.1317994637689637
     0.7997257940603433    0.4558527548348650    0.7642086903844003
     0.2051455688020312    0.5383007058634561    0.1944946710355566
     0.7027680811919126    0.9631449364772280    0.6875867437071861
     0.2972319239003340    0.0368550498131768    0.1875867509889702
     0.0154169340163079    0.6115122277214482    0.8230327864003897
     0.0422225181268416    0.3322624453345995    0.2638606742474749
     0.4862840485959765    0.1200135117898071    0.6317994631872494
     0.3272559576570444    0.1618424731988952    0.2915835925839971
     0.1775182063138843    0.5945898333341617    0.7493805430549898
     0.8525619346544033    0.3779558497904603    0.2757778212330919
     0.3183796102733396    0.0846649986020438    0.6981420736952373
     0.5023441722619779    0.4879288203356396    0.9810849892003191
     0.0023441785924945    0.0120711836670608    0.4810849868122489
     0.9976558244282359    0.9879288178551917    0.9810849914872719
     0.4976558298475950    0.5120711849063113    0.4810849885500943
     0.7958928941106862    0.7105293335369609    0.5032699314851357
     0.9606598229172718    0.9944623124655507    0.2320592544955247
     0.7060293635732506    0.1956508126848462    0.9614522052702341
     0.2041070863312058    0.2894707010478257    0.0032699320500740
     0.2060293779368507    0.3043491755398549    0.4614522129329686
     0.2939706246777973    0.8043491828284957    0.4614522154174097
     0.7939706408800902    0.6956508110307098    0.9614522100061293
     0.7041071043942750    0.2105293303375291    0.5032699287679776
     0.4606598128207438    0.5055376617516671    0.7320592563212429
     0.0393401777688851    0.0055376740307977    0.7320592521911493
     0.2958929104798855    0.7894706933117490    0.0032699289927791
     0.5393401671427824    0.4944623109760684    0.2320592517272502

  0.00000000E+00  0.00000000E+00  0.00000000E+00
  0.00000000E+00  0.00000000E+00  0.00000000E+00
  0.00000000E+00  0.00000000E+00  0.00000000E+00
  0.00000000E+00  0.00000000E+00  0.00000000E+00
  0.00000000E+00  0.00000000E+00  0.00000000E+00
  0.00000000E+00  0.00000000E+00  0.00000000E+00
  0.00000000E+00  0.00000000E+00  0.00000000E+00
  0.00000000E+00  0.00000000E+00  0.00000000E+00
  0.00000000E+00  0.00000000E+00  0.00000000E+00
  0.00000000E+00  0.00000000E+00  0.00000000E+00
  0.00000000E+00  0.00000000E+00  0.00000000E+00
  0.00000000E+00  0.00000000E+00  0.00000000E+00
  0.00000000E+00  0.00000000E+00  0.00000000E+00
  0.00000000E+00  0.00000000E+00  0.00000000E+00
  0.00000000E+00  0.00000000E+00  0.00000000E+00
  0.00000000E+00  0.00000000E+00  0.00000000E+00
  0.00000000E+00  0.00000000E+00  0.00000000E+00
  0.00000000E+00  0.00000000E+00  0.00000000E+00
  0.00000000E+00  0.00000000E+00  0.00000000E+00
  0.00000000E+00  0.00000000E+00  0.00000000E+00
  0.00000000E+00  0.00000000E+00  0.00000000E+00
  0.00000000E+00  0.00000000E+00  0.00000000E+00
  0.00000000E+00  0.00000000E+00  0.00000000E+00
  0.00000000E+00  0.00000000E+00  0.00000000E+00
  0.00000000E+00  0.00000000E+00  0.00000000E+00
  0.00000000E+00  0.00000000E+00  0.00000000E+00
  0.00000000E+00  0.00000000E+00  0.00000000E+00
  0.00000000E+00  0.00000000E+00  0.00000000E+00
  0.00000000E+00  0.00000000E+00  0.00000000E+00
  0.00000000E+00  0.00000000E+00  0.00000000E+00
  0.00000000E+00  0.00000000E+00  0.00000000E+00
  0.00000000E+00  0.00000000E+00  0.00000000E+00
  0.00000000E+00  0.00000000E+00  0.00000000E+00
  0.00000000E+00  0.00000000E+00  0.00000000E+00
  0.00000000E+00  0.00000000E+00  0.00000000E+00
  0.00000000E+00  0.00000000E+00  0.00000000E+00
  0.00000000E+00  0.00000000E+00  0.00000000E+00
  0.00000000E+00  0.00000000E+00  0.00000000E+00
  0.00000000E+00  0.00000000E+00  0.00000000E+00
  0.00000000E+00  0.00000000E+00  0.00000000E+00
  0.00000000E+00  0.00000000E+00  0.00000000E+00
  0.00000000E+00  0.00000000E+00  0.00000000E+00
  0.00000000E+00  0.00000000E+00  0.00000000E+00
  0.00000000E+00  0.00000000E+00  0.00000000E+00
  0.00000000E+00  0.00000000E+00  0.00000000E+00
  0.00000000E+00  0.00000000E+00  0.00000000E+00
  0.00000000E+00  0.00000000E+00  0.00000000E+00
  0.00000000E+00  0.00000000E+00  0.00000000E+00
