C  N  H  Pb I                           
   1.0000000000000000     
     9.0193899931757802    0.0000000000000000    0.0000000000000000
     0.0000000000000000    8.7777678445653162    0.0000000000000000
     0.0000000000000000    0.0000000000000000   12.7961868062944486
  C               N               H               Pb              I             
     4     8    20     4    12
Direct
     0.5081138065294510    0.0404308022344964    0.2476192139836471
     0.0109662508654651    0.4563233206589956    0.7440647783289336
     0.9921173140317094    0.5356927314963400    0.2495253594063840
     0.4924175076865041    0.9595696321524869    0.7479239253237537
     0.5701930389723415    0.9354024245852273    0.1892538322549697
     0.0674381470256549    0.5619356225273791    0.6834108479841206
     0.1221046620187352    0.5996933281893675    0.2349655841785250
     0.6313027414618304    0.9163438899378491    0.7394612646312737
     0.3692341292894170    0.0841550498324750    0.2404089351908567
     0.8696077240035507    0.4212191781561501    0.7492233036756275
     0.9382966989306780    0.4238187255718771    0.1931040539512097
     0.4288245615558637    0.0640978703055950    0.6899469974596997
     0.5768840981582173    0.0954567512335203    0.3071232131495165
     0.0871209334867373    0.3929963741758158    0.7945301495991686
     0.9239926761421913    0.5786741030081402    0.3138689892743542
     0.4250134362872089    0.9045486833871905    0.8082017368938779
     0.6811868484109311    0.9148673892910466    0.1973820634444223
     0.1799961047097725    0.5754434050364878    0.6811933441389613
     0.1584043917429341    0.6815680003236864    0.2857507790631857
     0.6738551601379115    0.8390459765021419    0.7912008281804717
     0.5129123933804109    0.8805823168030003    0.1312429055461592
     0.0029195250313165    0.6242865206117827    0.6332902168592440
     0.1931786222646821    0.5655794194690387    0.1776637129777328
     0.7021938030026931    0.9627910063806269    0.6862740777239154
     0.2971463179999674    0.0377475818387225    0.1880104692238618
     0.7910231645689763    0.4756018697102888    0.7058523605245384
     0.9952474573487038    0.3793061721197120    0.1309286930245932
     0.4847699493529873    0.1188758224547684    0.6312737212695865
     0.3279733240562948    0.1618446452201425    0.2923916187976943
     0.8341444479414264    0.3421607812776557    0.8023479379982490
     0.8327025382450302    0.3868758979165321    0.2073631260660136
     0.3179250478633548    0.0842452811671919    0.6991058172124198
     0.5023441722619779    0.4879288203356396    0.9810849892003191
     0.0023441785924945    0.0120711836670608    0.4810849868122489
     0.9976558244282359    0.9879288178551917    0.9810849914872719
     0.4976558298475950    0.5120711849063113    0.4810849885500943
     0.7958928941106862    0.7105293335369609    0.5032699314851357
     0.9606598229172718    0.9944623124655507    0.2320592544955247
     0.7060293635732506    0.1956508126848462    0.9614522052702341
     0.2041070863312058    0.2894707010478257    0.0032699320500740
     0.2060293779368507    0.3043491755398549    0.4614522129329686
     0.2939706246777973    0.8043491828284957    0.4614522154174097
     0.7939706408800902    0.6956508110307098    0.9614522100061293
     0.7041071043942750    0.2105293303375291    0.5032699287679776
     0.4606598128207438    0.5055376617516671    0.7320592563212429
     0.0393401777688851    0.0055376740307977    0.7320592521911493
     0.2958929104798855    0.7894706933117490    0.0032699289927791
     0.5393401671427824    0.4944623109760684    0.2320592517272502

  0.00000000E+00  0.00000000E+00  0.00000000E+00
  0.00000000E+00  0.00000000E+00  0.00000000E+00
  0.00000000E+00  0.00000000E+00  0.00000000E+00
  0.00000000E+00  0.00000000E+00  0.00000000E+00
  0.00000000E+00  0.00000000E+00  0.00000000E+00
  0.00000000E+00  0.00000000E+00  0.00000000E+00
  0.00000000E+00  0.00000000E+00  0.00000000E+00
  0.00000000E+00  0.00000000E+00  0.00000000E+00
  0.00000000E+00  0.00000000E+00  0.00000000E+00
  0.00000000E+00  0.00000000E+00  0.00000000E+00
  0.00000000E+00  0.00000000E+00  0.00000000E+00
  0.00000000E+00  0.00000000E+00  0.00000000E+00
  0.00000000E+00  0.00000000E+00  0.00000000E+00
  0.00000000E+00  0.00000000E+00  0.00000000E+00
  0.00000000E+00  0.00000000E+00  0.00000000E+00
  0.00000000E+00  0.00000000E+00  0.00000000E+00
  0.00000000E+00  0.00000000E+00  0.00000000E+00
  0.00000000E+00  0.00000000E+00  0.00000000E+00
  0.00000000E+00  0.00000000E+00  0.00000000E+00
  0.00000000E+00  0.00000000E+00  0.00000000E+00
  0.00000000E+00  0.00000000E+00  0.00000000E+00
  0.00000000E+00  0.00000000E+00  0.00000000E+00
  0.00000000E+00  0.00000000E+00  0.00000000E+00
  0.00000000E+00  0.00000000E+00  0.00000000E+00
  0.00000000E+00  0.00000000E+00  0.00000000E+00
  0.00000000E+00  0.00000000E+00  0.00000000E+00
  0.00000000E+00  0.00000000E+00  0.00000000E+00
  0.00000000E+00  0.00000000E+00  0.00000000E+00
  0.00000000E+00  0.00000000E+00  0.00000000E+00
  0.00000000E+00  0.00000000E+00  0.00000000E+00
  0.00000000E+00  0.00000000E+00  0.00000000E+00
  0.00000000E+00  0.00000000E+00  0.00000000E+00
  0.00000000E+00  0.00000000E+00  0.00000000E+00
  0.00000000E+00  0.00000000E+00  0.00000000E+00
  0.00000000E+00  0.00000000E+00  0.00000000E+00
  0.00000000E+00  0.00000000E+00  0.00000000E+00
  0.00000000E+00  0.00000000E+00  0.00000000E+00
  0.00000000E+00  0.00000000E+00  0.00000000E+00
  0.00000000E+00  0.00000000E+00  0.00000000E+00
  0.00000000E+00  0.00000000E+00  0.00000000E+00
  0.00000000E+00  0.00000000E+00  0.00000000E+00
  0.00000000E+00  0.00000000E+00  0.00000000E+00
  0.00000000E+00  0.00000000E+00  0.00000000E+00
  0.00000000E+00  0.00000000E+00  0.00000000E+00
  0.00000000E+00  0.00000000E+00  0.00000000E+00
  0.00000000E+00  0.00000000E+00  0.00000000E+00
  0.00000000E+00  0.00000000E+00  0.00000000E+00
  0.00000000E+00  0.00000000E+00  0.00000000E+00
