C  N  H  Pb I 
 1.0000000000000000
     9.0193899931757802    0.0000000000000000    0.0000000000000000
     0.0000000000000000    8.7777678445653162    0.0000000000000000
     0.0000000000000000    0.0000000000000000   12.7961868062944486
 C   N   H   Pb  I  
   4   8  20   4  12
Direct
  0.5081138065294514  0.0404308022344997  0.2476192139836447
  0.0109662508654653  0.4563233206589924  0.7440647783289330
  0.9921173140317080  0.5356927314963433  0.2495253594063808
  0.4924175076865019  0.9595696321524845  0.7479239253237568
  0.5701930389723424  0.9354024245852253  0.1892538322549697
  0.0674381470256529  0.5619356225273791  0.6834108479841204
  0.1221046620187339  0.5996933281893695  0.2349655841785272
  0.6313027414618284  0.9163438899378455  0.7394612646312757
  0.3692341292894139  0.0841550498324776  0.2404089351908534
  0.8696077240035502  0.4212191781561521  0.7492233036756298
  0.9382966989306797  0.4238187255718764  0.1931040539512096
  0.4288245615558617  0.0640978703055957  0.6899469974597008
  0.5768840981582202  0.0954567512335170  0.3071232131495154
  0.0871209334867350  0.3929963741758129  0.7945301495991700
  0.9239926761421895  0.5786741030081407  0.3138689892743513
  0.4250134362872091  0.9045486833871941  0.8082017368938790
  0.6811868484109318  0.9148673892910464  0.1973820634444227
  0.1799961047097695  0.5754434050364907  0.6811933441389596
  0.1584043917429359  0.6815680003236839  0.2857507790631830
  0.6738551601379124  0.8390459765021446  0.7912008281804738
  0.5129123933804139  0.8805823168029997  0.1312429055461607
  0.0029195250313136  0.6242865206117809  0.6332902168592467
  0.1931786222646828  0.5655794194690389  0.1776637129777349
  0.7021938030026930  0.9627910063806254  0.6862740777239141
  0.2971463179999649  0.0377475818387258  0.1880104692238588
  0.7910231645689770  0.4756018697102861  0.7058523605245367
  0.9952474573487018  0.3793061721197132  0.1309286930245926
  0.4847699493529860  0.1188758224547711  0.6312737212695898
  0.3279733240562934  0.1618446452201429  0.2923916187976970
  0.8341444479414241  0.3421607812776546  0.8023479379982495
  0.8327025382450304  0.3868758979165307  0.2073631260660131
  0.3179250478633576  0.0842452811671910  0.6991058172124167
  0.5023441722619808  0.4879288203356366  0.9810849892003165
  0.0023441785924915  0.0120711836670638  0.4810849868122521
  0.9976558244282330  0.9879288178551918  0.9810849914872694
  0.4976558298475982  0.5120711849063111  0.4810849885500975
  0.7958928941106866  0.7105293335369601  0.5032699314851331
  0.9606598229172731  0.9944623124655482  0.2320592544955259
  0.7060293635732524  0.1956508126848427  0.9614522052702348
  0.2041070863312036  0.2894707010478275  0.0032699320500760
  0.2060293779368493  0.3043491755398582  0.4614522129329701
  0.2939706246777947  0.8043491828284943  0.4614522154174112
  0.7939706408800884  0.6956508110307111  0.9614522100061302
  0.7041071043942746  0.2105293303375289  0.5032699287679750
  0.4606598128207440  0.5055376617516696  0.7320592563212425
  0.0393401777688836  0.0055376740307987  0.7320592521911489
  0.2958929104798871  0.7894706933117497  0.0032699289927811
  0.5393401671427811  0.4944623109760681  0.2320592517272514
Cartesian
  0.0000000000000000  0.0000000000000000  0.0000000000000000
  0.0000000000000000  0.0000000000000000  0.0000000000000000
  0.0000000000000000  0.0000000000000000  0.0000000000000000
  0.0000000000000000  0.0000000000000000  0.0000000000000000
  0.0000000000000000  0.0000000000000000  0.0000000000000000
  0.0000000000000000  0.0000000000000000  0.0000000000000000
  0.0000000000000000  0.0000000000000000  0.0000000000000000
  0.0000000000000000  0.0000000000000000  0.0000000000000000
  0.0000000000000000  0.0000000000000000  0.0000000000000000
  0.0000000000000000  0.0000000000000000  0.0000000000000000
  0.0000000000000000  0.0000000000000000  0.0000000000000000
  0.0000000000000000  0.0000000000000000  0.0000000000000000
  0.0000000000000000  0.0000000000000000  0.0000000000000000
  0.0000000000000000  0.0000000000000000  0.0000000000000000
  0.0000000000000000  0.0000000000000000  0.0000000000000000
  0.0000000000000000  0.0000000000000000  0.0000000000000000
  0.0000000000000000  0.0000000000000000  0.0000000000000000
  0.0000000000000000  0.0000000000000000  0.0000000000000000
  0.0000000000000000  0.0000000000000000  0.0000000000000000
  0.0000000000000000  0.0000000000000000  0.0000000000000000
  0.0000000000000000  0.0000000000000000  0.0000000000000000
  0.0000000000000000  0.0000000000000000  0.0000000000000000
  0.0000000000000000  0.0000000000000000  0.0000000000000000
  0.0000000000000000  0.0000000000000000  0.0000000000000000
  0.0000000000000000  0.0000000000000000  0.0000000000000000
  0.0000000000000000  0.0000000000000000  0.0000000000000000
  0.0000000000000000  0.0000000000000000  0.0000000000000000
  0.0000000000000000  0.0000000000000000  0.0000000000000000
  0.0000000000000000  0.0000000000000000  0.0000000000000000
  0.0000000000000000  0.0000000000000000  0.0000000000000000
  0.0000000000000000  0.0000000000000000  0.0000000000000000
  0.0000000000000000  0.0000000000000000  0.0000000000000000
  0.0000000000000000  0.0000000000000000  0.0000000000000000
  0.0000000000000000  0.0000000000000000  0.0000000000000000
  0.0000000000000000  0.0000000000000000  0.0000000000000000
  0.0000000000000000  0.0000000000000000  0.0000000000000000
  0.0000000000000000  0.0000000000000000  0.0000000000000000
  0.0000000000000000  0.0000000000000000  0.0000000000000000
  0.0000000000000000  0.0000000000000000  0.0000000000000000
  0.0000000000000000  0.0000000000000000  0.0000000000000000
  0.0000000000000000  0.0000000000000000  0.0000000000000000
  0.0000000000000000  0.0000000000000000  0.0000000000000000
  0.0000000000000000  0.0000000000000000  0.0000000000000000
  0.0000000000000000  0.0000000000000000  0.0000000000000000
  0.0000000000000000  0.0000000000000000  0.0000000000000000
  0.0000000000000000  0.0000000000000000  0.0000000000000000
  0.0000000000000000  0.0000000000000000  0.0000000000000000
  0.0000000000000000  0.0000000000000000  0.0000000000000000
