C  N  H  Pb I                           
   1.0000000000000000     
     8.8412733347544155   -0.0363398348164505    0.0182049377729317
    -0.0363398348164505    8.8618999526495497   -0.0597541358638977
     0.0128713029553421   -0.0422475262004174    6.2524334441529259
  C               N               H               Pb              I             
     2     4    10     2     6
Direct
     0.4958885296611797    0.4736969815893772    0.5685872731144741
     0.0019965346483559    0.9991531762106618    0.5773632333919636
     0.5711836111327884    0.6138858901917246    0.5405764751763584
     0.4305749841961770    0.4123570294306376    0.4151016133037331
     0.0952972850071063    0.9122612256192184    0.4794452288137094
     0.9111101327619977    0.0900080516841655    0.4808720153152848
     0.4846071333251274    0.4345697842276337    0.7156805349562347
     0.6104257996945606    0.6538320712259704    0.6817721346982495
     0.5798986371682986    0.6676441268442943    0.4023808727167406
     0.4322686285766153    0.4365248297912672    0.2656787728024739
     0.3919757828965089    0.3158322395174764    0.4496206575989632
     0.9983235138817577    0.9942246440133147    0.7563962371721544
     0.1650765769735543    0.8450765869967185    0.5673811103700501
     0.0957533457764157    0.8993769857579323    0.3133170271527845
     0.8896312574429643    0.1070125647849594    0.3196963269902469
     0.8420205162594243    0.1563949265178692    0.5711503268949443
     0.0014063704015257    0.5039244540298924    0.9930793660842241
     0.5030221435234452    0.9918693355585120    0.9932587456024748
     0.0081713663256124    0.5020499021652327    0.4918785685233757
     0.4995748793014059    0.9967204284004083    0.4948784143456564
     0.2174936140306798    0.2164837209859627    0.9836127371634049
     0.2857431032300255    0.7143521909457320    0.9784543550076634
     0.7200309811511332    0.2799313814789315    0.9967915577237321
     0.7869307110674555    0.7877283204161714    0.9864500179460762

  0.00000000E+00  0.00000000E+00  0.00000000E+00
  0.00000000E+00  0.00000000E+00  0.00000000E+00
  0.00000000E+00  0.00000000E+00  0.00000000E+00
  0.00000000E+00  0.00000000E+00  0.00000000E+00
  0.00000000E+00  0.00000000E+00  0.00000000E+00
  0.00000000E+00  0.00000000E+00  0.00000000E+00
  0.00000000E+00  0.00000000E+00  0.00000000E+00
  0.00000000E+00  0.00000000E+00  0.00000000E+00
  0.00000000E+00  0.00000000E+00  0.00000000E+00
  0.00000000E+00  0.00000000E+00  0.00000000E+00
  0.00000000E+00  0.00000000E+00  0.00000000E+00
  0.00000000E+00  0.00000000E+00  0.00000000E+00
  0.00000000E+00  0.00000000E+00  0.00000000E+00
  0.00000000E+00  0.00000000E+00  0.00000000E+00
  0.00000000E+00  0.00000000E+00  0.00000000E+00
  0.00000000E+00  0.00000000E+00  0.00000000E+00
  0.00000000E+00  0.00000000E+00  0.00000000E+00
  0.00000000E+00  0.00000000E+00  0.00000000E+00
  0.00000000E+00  0.00000000E+00  0.00000000E+00
  0.00000000E+00  0.00000000E+00  0.00000000E+00
  0.00000000E+00  0.00000000E+00  0.00000000E+00
  0.00000000E+00  0.00000000E+00  0.00000000E+00
  0.00000000E+00  0.00000000E+00  0.00000000E+00
  0.00000000E+00  0.00000000E+00  0.00000000E+00
