C  N  H  Pb I 
 1.0000000000000000
     8.8412733347544155   -0.0363398348164505    0.0182049377729317
    -0.0363398348164505    8.8618999526495497   -0.0597541358638977
     0.0128713029553421   -0.0422475262004174    6.2524334441529259
 C   N   H   Pb  I  
   2   4  10   2   6
Direct
  0.4958885296611784  0.4736969815893761  0.5685872731144770
  0.0019965346483586  0.9991531762106642  0.5773632333919652
  0.5711836111327864  0.6138858901917230  0.5405764751763567
  0.4305749841961798  0.4123570294306373  0.4151016133037334
  0.0952972850071058  0.9122612256192150  0.4794452288137122
  0.9111101327619967  0.0900080516841650  0.4808720153152846
  0.4846071333251287  0.4345697842276310  0.7156805349562336
  0.6104257996945631  0.6538320712259676  0.6817721346982468
  0.5798986371682968  0.6676441268442928  0.4023808727167417
  0.4322686285766164  0.4365248297912647  0.2656787728024708
  0.3919757828965093  0.3158322395174756  0.4496206575989609
  0.9983235138817591  0.9942246440133170  0.7563962371721532
  0.1650765769735509  0.8450765869967153  0.5673811103700486
  0.0957533457764175  0.8993769857579310  0.3133170271527844
  0.8896312574429617  0.1070125647849584  0.3196963269902459
  0.8420205162594239  0.1563949265178708  0.5711503268949476
  0.0014063704015291  0.5039244540298897  0.9930793660842254
  0.5030221435234450  0.9918693355585111  0.9932587456024716
  0.0081713663256101  0.5020499021652362  0.4918785685233747
  0.4995748793014056  0.9967204284004076  0.4948784143456585
  0.2174936140306770  0.2164837209859629  0.9836127371634055
  0.2857431032300263  0.7143521909457300  0.9784543550076610
  0.7200309811511322  0.2799313814789326  0.9967915577237351
  0.7869307110674534  0.7877283204161709  0.9864500179460783
Cartesian
  0.0000000000000000  0.0000000000000000  0.0000000000000000
  0.0000000000000000  0.0000000000000000  0.0000000000000000
  0.0000000000000000  0.0000000000000000  0.0000000000000000
  0.0000000000000000  0.0000000000000000  0.0000000000000000
  0.0000000000000000  0.0000000000000000  0.0000000000000000
  0.0000000000000000  0.0000000000000000  0.0000000000000000
  0.0000000000000000  0.0000000000000000  0.0000000000000000
  0.0000000000000000  0.0000000000000000  0.0000000000000000
  0.0000000000000000  0.0000000000000000  0.0000000000000000
  0.0000000000000000  0.0000000000000000  0.0000000000000000
  0.0000000000000000  0.0000000000000000  0.0000000000000000
  0.0000000000000000  0.0000000000000000  0.0000000000000000
  0.0000000000000000  0.0000000000000000  0.0000000000000000
  0.0000000000000000  0.0000000000000000  0.0000000000000000
  0.0000000000000000  0.0000000000000000  0.0000000000000000
  0.0000000000000000  0.0000000000000000  0.0000000000000000
  0.0000000000000000  0.0000000000000000  0.0000000000000000
  0.0000000000000000  0.0000000000000000  0.0000000000000000
  0.0000000000000000  0.0000000000000000  0.0000000000000000
  0.0000000000000000  0.0000000000000000  0.0000000000000000
  0.0000000000000000  0.0000000000000000  0.0000000000000000
  0.0000000000000000  0.0000000000000000  0.0000000000000000
  0.0000000000000000  0.0000000000000000  0.0000000000000000
  0.0000000000000000  0.0000000000000000  0.0000000000000000
