C  N  H  Pb I                           
   1.0000000000000000     
     8.9515839677080429    0.0000000000000000    0.0000000000000000
     0.0000000000000000    8.9515839677080429    0.0000000000000000
     0.0000000000000000    0.0000000000000000    6.3289724258144924
  C               N               H               Pb              I             
     2     4    10     2     6
Direct
     0.5013983262258819    0.4927035890249130    0.5573286308275556
     0.0004831740292559    0.9995393186539872    0.5749687089105464
     0.5885792038469475    0.5948303401052897    0.4782401913373988
     0.4100159557311898    0.4061999009319734    0.4799659575349651
     0.0944147380961695    0.9112913941793650    0.4769805966752401
     0.9094753782818259    0.0986481154281194    0.4747656707001369
     0.5015518682216964    0.5046207657067896    0.7360078997137194
     0.6526938054879778    0.6539195515789444    0.5572565413310073
     0.6038176493837071    0.6047435074999115    0.3215592901154167
     0.3965768838139354    0.4010138089639739    0.3081354919340100
     0.3399877114432357    0.3472899780074243    0.5686370918049093
     0.9979559216535208    0.0039299037535372    0.7390151963532148
     0.1609803335913114    0.8363444976933323    0.5582907727433550
     0.1063361643725074    0.8996628989895186    0.3157573817375123
     0.8922692007092294    0.1023416844225764    0.3066341730182245
     0.8368119854050704    0.1590062221884736    0.5617159129816898
     0.9999005559146426    0.5031530558975987    0.9837598749993859
     0.5037995240019768    0.9987111557928898    0.0002214026259679
     0.9969430650291713    0.4999741441174095    0.4934715215275531
     0.4971205302040431    0.0002735680899235    0.4867217225940550
     0.2207684634281222    0.2138282484664984    0.9887701704926144
     0.2837681274250556    0.7124117099581113    0.9852605641907033
     0.7224920801293706    0.2831654047277752    0.9950375107125566
     0.7863200608874621    0.7788532470187590    0.9929814549696445

  0.00000000E+00  0.00000000E+00  0.00000000E+00
  0.00000000E+00  0.00000000E+00  0.00000000E+00
  0.00000000E+00  0.00000000E+00  0.00000000E+00
  0.00000000E+00  0.00000000E+00  0.00000000E+00
  0.00000000E+00  0.00000000E+00  0.00000000E+00
  0.00000000E+00  0.00000000E+00  0.00000000E+00
  0.00000000E+00  0.00000000E+00  0.00000000E+00
  0.00000000E+00  0.00000000E+00  0.00000000E+00
  0.00000000E+00  0.00000000E+00  0.00000000E+00
  0.00000000E+00  0.00000000E+00  0.00000000E+00
  0.00000000E+00  0.00000000E+00  0.00000000E+00
  0.00000000E+00  0.00000000E+00  0.00000000E+00
  0.00000000E+00  0.00000000E+00  0.00000000E+00
  0.00000000E+00  0.00000000E+00  0.00000000E+00
  0.00000000E+00  0.00000000E+00  0.00000000E+00
  0.00000000E+00  0.00000000E+00  0.00000000E+00
  0.00000000E+00  0.00000000E+00  0.00000000E+00
  0.00000000E+00  0.00000000E+00  0.00000000E+00
  0.00000000E+00  0.00000000E+00  0.00000000E+00
  0.00000000E+00  0.00000000E+00  0.00000000E+00
  0.00000000E+00  0.00000000E+00  0.00000000E+00
  0.00000000E+00  0.00000000E+00  0.00000000E+00
  0.00000000E+00  0.00000000E+00  0.00000000E+00
  0.00000000E+00  0.00000000E+00  0.00000000E+00
