C  N  H  Pb I 
 1.0000000000000000
     8.9515839677080429    0.0000000000000000    0.0000000000000000
     0.0000000000000000    8.9515839677080429    0.0000000000000000
     0.0000000000000000    0.0000000000000000    6.3289724258144924
 C   N   H   Pb  I  
   2   4  10   2   6
Direct
  0.5013983262258791  0.4927035890249094  0.5573286308275525
  0.0004831740292543  0.9995393186539843  0.5749687089105449
  0.5885792038469496  0.5948303401052872  0.4782401913373985
  0.4100159557311878  0.4061999009319723  0.4799659575349653
  0.0944147380961698  0.9112913941793629  0.4769805966752385
  0.9094753782818242  0.0986481154281205  0.4747656707001383
  0.5015518682216965  0.5046207657067896  0.7360078997137161
  0.6526938054879784  0.6539195515789472  0.5572565413310085
  0.6038176493837083  0.6047435074999120  0.3215592901154182
  0.3965768838139374  0.4010138089639756  0.3081354919340079
  0.3399877114432381  0.3472899780074211  0.5686370918049058
  0.9979559216535215  0.0039299037535401  0.7390151963532124
  0.1609803335913121  0.8363444976933306  0.5582907727433561
  0.1063361643725065  0.8996628989895216  0.3157573817375098
  0.8922692007092280  0.1023416844225735  0.3066341730182266
  0.8368119854050716  0.1590062221884707  0.5617159129816869
  0.9999005559146444  0.5031530558975993  0.9837598749993892
  0.5037995240019771  0.9987111557928900  0.0002214026259664
  0.9969430650291717  0.4999741441174101  0.4934715215275512
  0.4971205302040425  0.0002735680899211  0.4867217225940568
  0.2207684634281244  0.2138282484664995  0.9887701704926116
  0.2837681274250570  0.7124117099581111  0.9852605641907020
  0.7224920801293720  0.2831654047277751  0.9950375107125589
  0.7863200608874633  0.7788532470187558  0.9929814549696439
Cartesian
  0.0000000000000000  0.0000000000000000  0.0000000000000000
  0.0000000000000000  0.0000000000000000  0.0000000000000000
  0.0000000000000000  0.0000000000000000  0.0000000000000000
  0.0000000000000000  0.0000000000000000  0.0000000000000000
  0.0000000000000000  0.0000000000000000  0.0000000000000000
  0.0000000000000000  0.0000000000000000  0.0000000000000000
  0.0000000000000000  0.0000000000000000  0.0000000000000000
  0.0000000000000000  0.0000000000000000  0.0000000000000000
  0.0000000000000000  0.0000000000000000  0.0000000000000000
  0.0000000000000000  0.0000000000000000  0.0000000000000000
  0.0000000000000000  0.0000000000000000  0.0000000000000000
  0.0000000000000000  0.0000000000000000  0.0000000000000000
  0.0000000000000000  0.0000000000000000  0.0000000000000000
  0.0000000000000000  0.0000000000000000  0.0000000000000000
  0.0000000000000000  0.0000000000000000  0.0000000000000000
  0.0000000000000000  0.0000000000000000  0.0000000000000000
  0.0000000000000000  0.0000000000000000  0.0000000000000000
  0.0000000000000000  0.0000000000000000  0.0000000000000000
  0.0000000000000000  0.0000000000000000  0.0000000000000000
  0.0000000000000000  0.0000000000000000  0.0000000000000000
  0.0000000000000000  0.0000000000000000  0.0000000000000000
  0.0000000000000000  0.0000000000000000  0.0000000000000000
  0.0000000000000000  0.0000000000000000  0.0000000000000000
  0.0000000000000000  0.0000000000000000  0.0000000000000000
