C  N  H  Pb I                           
   1.0000000000000000     
     9.0515976665045965   -0.0116609442906427    0.0591982930886552
    -0.0116609442906427    8.9633404227009716    0.0034770675920049
     0.0418545327804496    0.0024583654682655    6.4156883247088992
  C               N               H               Pb              I             
     2     4    10     2     6
Direct
     0.5034737824388031    0.4781108606241844    0.5686226078071499
     0.9948381289149140    0.9811756445104365    0.5661635935599207
     0.6184262117856179    0.5587294125856488    0.4844228370893688
     0.3810452998435707    0.4619157903087796    0.4682239521412228
     0.0299066100993741    0.8928472892697172    0.4162178469206523
     0.9727671620619418    0.1285841525748879    0.5457419099205012
     0.5160415736630526    0.4283399557210998    0.7292946728808190
     0.7023957555325850    0.5682309729625388    0.5836211561953064
     0.6165093227062570    0.6191130061056853    0.3521503022059491
     0.3471196231521887    0.4942385291718168    0.3209735407795549
     0.3016366447730405    0.3900698347329623    0.5303161507051541
     0.9799773858788541    0.9291008139374100    0.7243210680518075
     0.0458279324770814    0.7789864621719644    0.4367988159442149
     0.0477433040998321    0.9257044882511352    0.2567055073490465
     0.9793102800788347    0.1825033880758653    0.4142169703416272
     0.9474897795428561    0.1810827114222988    0.6830116453272197
     0.0008690704798511    0.5026098491354745    0.9967992111876498
     0.4963577298722299    0.9957470102109980    0.9907529589235722
     0.9970451233382178    0.4999255204712725    0.4929826570671949
     0.5003136453220876    0.0002468374604305    0.4914647927780180
     0.2205180958049553    0.2211260924111187    0.9940776677482361
     0.2856949875066590    0.7214635888814058    0.9926998944110963
     0.7141997681829224    0.2834490050884355    0.9913618078742346
     0.7809490065280613    0.7791459195203103    0.9773704473182718

  0.00000000E+00  0.00000000E+00  0.00000000E+00
  0.00000000E+00  0.00000000E+00  0.00000000E+00
  0.00000000E+00  0.00000000E+00  0.00000000E+00
  0.00000000E+00  0.00000000E+00  0.00000000E+00
  0.00000000E+00  0.00000000E+00  0.00000000E+00
  0.00000000E+00  0.00000000E+00  0.00000000E+00
  0.00000000E+00  0.00000000E+00  0.00000000E+00
  0.00000000E+00  0.00000000E+00  0.00000000E+00
  0.00000000E+00  0.00000000E+00  0.00000000E+00
  0.00000000E+00  0.00000000E+00  0.00000000E+00
  0.00000000E+00  0.00000000E+00  0.00000000E+00
  0.00000000E+00  0.00000000E+00  0.00000000E+00
  0.00000000E+00  0.00000000E+00  0.00000000E+00
  0.00000000E+00  0.00000000E+00  0.00000000E+00
  0.00000000E+00  0.00000000E+00  0.00000000E+00
  0.00000000E+00  0.00000000E+00  0.00000000E+00
  0.00000000E+00  0.00000000E+00  0.00000000E+00
  0.00000000E+00  0.00000000E+00  0.00000000E+00
  0.00000000E+00  0.00000000E+00  0.00000000E+00
  0.00000000E+00  0.00000000E+00  0.00000000E+00
  0.00000000E+00  0.00000000E+00  0.00000000E+00
  0.00000000E+00  0.00000000E+00  0.00000000E+00
  0.00000000E+00  0.00000000E+00  0.00000000E+00
  0.00000000E+00  0.00000000E+00  0.00000000E+00
