C  N  H  Pb I 
 1.0000000000000000
     9.0515976665045965   -0.0116609442906427    0.0591982930886552
    -0.0116609442906427    8.9633404227009716    0.0034770675920049
     0.0418545327804496    0.0024583654682655    6.4156883247088992
 C   N   H   Pb  I  
   2   4  10   2   6
Direct
  0.5034737824388041  0.4781108606241832  0.5686226078071469
  0.9948381289149114  0.9811756445104340  0.5661635935599184
  0.6184262117856195  0.5587294125856518  0.4844228370893721
  0.3810452998435712  0.4619157903087809  0.4682239521412251
  0.0299066100993760  0.8928472892697139  0.4162178469206489
  0.9727671620619428  0.1285841525748848  0.5457419099205022
  0.5160415736630510  0.4283399557211027  0.7292946728808202
  0.7023957555325818  0.5682309729625420  0.5836211561953042
  0.6165093227062586  0.6191130061056862  0.3521503022059456
  0.3471196231521893  0.4942385291718174  0.3209735407795574
  0.3016366447730399  0.3900698347329635  0.5303161507051551
  0.9799773858788563  0.9291008139374125  0.7243210680518091
  0.0458279324770848  0.7789864621719615  0.4367988159442173
  0.0477433040998335  0.9257044882511341  0.2567055073490480
  0.9793102800788350  0.1825033880758654  0.4142169703416261
  0.9474897795428557  0.1810827114223013  0.6830116453272229
  0.0008690704798505  0.5026098491354768  0.9967992111876472
  0.4963577298722304  0.9957470102109980  0.9907529589235742
  0.9970451233382168  0.4999255204712748  0.4929826570671960
  0.5003136453220858  0.0002468374604335  0.4914647927780204
  0.2205180958049548  0.2211260924111215  0.9940776677482396
  0.2856949875066604  0.7214635888814075  0.9926998944110988
  0.7141997681829242  0.2834490050884360  0.9913618078742377
  0.7809490065280615  0.7791459195203075  0.9773704473182685
Cartesian
  0.0000000000000000  0.0000000000000000  0.0000000000000000
  0.0000000000000000  0.0000000000000000  0.0000000000000000
  0.0000000000000000  0.0000000000000000  0.0000000000000000
  0.0000000000000000  0.0000000000000000  0.0000000000000000
  0.0000000000000000  0.0000000000000000  0.0000000000000000
  0.0000000000000000  0.0000000000000000  0.0000000000000000
  0.0000000000000000  0.0000000000000000  0.0000000000000000
  0.0000000000000000  0.0000000000000000  0.0000000000000000
  0.0000000000000000  0.0000000000000000  0.0000000000000000
  0.0000000000000000  0.0000000000000000  0.0000000000000000
  0.0000000000000000  0.0000000000000000  0.0000000000000000
  0.0000000000000000  0.0000000000000000  0.0000000000000000
  0.0000000000000000  0.0000000000000000  0.0000000000000000
  0.0000000000000000  0.0000000000000000  0.0000000000000000
  0.0000000000000000  0.0000000000000000  0.0000000000000000
  0.0000000000000000  0.0000000000000000  0.0000000000000000
  0.0000000000000000  0.0000000000000000  0.0000000000000000
  0.0000000000000000  0.0000000000000000  0.0000000000000000
  0.0000000000000000  0.0000000000000000  0.0000000000000000
  0.0000000000000000  0.0000000000000000  0.0000000000000000
  0.0000000000000000  0.0000000000000000  0.0000000000000000
  0.0000000000000000  0.0000000000000000  0.0000000000000000
  0.0000000000000000  0.0000000000000000  0.0000000000000000
  0.0000000000000000  0.0000000000000000  0.0000000000000000
