C  N  H  Pb I                           
   1.0000000000000000     
     8.9515839677080429    0.0000000000000000    0.0000000000000000
     0.0000000000000000    8.9515839677080429    0.0000000000000000
     0.0000000000000000    0.0000000000000000    6.3289724258144924
  C               N               H               Pb              I             
     2     4    10     2     6
Direct
     0.5010011862249257    0.5038258632060248    0.5794379332244830
     0.9960493901613603    0.0046213213362520    0.5791410398586052
     0.5886193305725484    0.5993087132572796    0.4866656776879594
     0.4045180843840157    0.4034744428777515    0.4729016632756782
     0.0902482825060744    0.9129993499001543    0.4889092593736279
     0.9027317717039338    0.0953094933415954    0.4743843839401762
     0.4939090072505508    0.5004803393871669    0.7381827340671165
     0.6623773456374877    0.6536646143451605    0.5781991864850511
     0.5923644793658696    0.5932859436573779    0.3311613967693532
     0.3921746998256666    0.4052572824631966    0.3172861297341001
     0.3384660052524495    0.3432400367035982    0.5738200511454039
     0.9928939040126821    0.9860964827081489    0.7464870449257148
     0.1509298177538696    0.8320277353930834    0.5643933580365683
     0.1107856800733202    0.8969682441097291    0.3272697778750455
     0.8875862418851810    0.1027596077255808    0.3093735256234780
     0.8398644232871604    0.1643212509516516    0.5620353052975489
     0.0040482350085611    0.4955482939040294    0.0000853998777544
     0.4957250866007641    0.0044017915651438    0.9898676260474559
     0.0059150302237470    0.4917437467046781    0.4857828519174205
     0.4886482835126884    0.0049334334388078    0.5022857044305908
     0.2153885982389596    0.2234937575967635    0.9989994990289119
     0.2790660780135639    0.7222673207382186    0.9840962052327313
     0.7288952960819728    0.2787559898749805    0.9813801119214958
     0.7647486222830437    0.7780482686454349    0.9790748364402262

  0.00000000E+00  0.00000000E+00  0.00000000E+00
  0.00000000E+00  0.00000000E+00  0.00000000E+00
  0.00000000E+00  0.00000000E+00  0.00000000E+00
  0.00000000E+00  0.00000000E+00  0.00000000E+00
  0.00000000E+00  0.00000000E+00  0.00000000E+00
  0.00000000E+00  0.00000000E+00  0.00000000E+00
  0.00000000E+00  0.00000000E+00  0.00000000E+00
  0.00000000E+00  0.00000000E+00  0.00000000E+00
  0.00000000E+00  0.00000000E+00  0.00000000E+00
  0.00000000E+00  0.00000000E+00  0.00000000E+00
  0.00000000E+00  0.00000000E+00  0.00000000E+00
  0.00000000E+00  0.00000000E+00  0.00000000E+00
  0.00000000E+00  0.00000000E+00  0.00000000E+00
  0.00000000E+00  0.00000000E+00  0.00000000E+00
  0.00000000E+00  0.00000000E+00  0.00000000E+00
  0.00000000E+00  0.00000000E+00  0.00000000E+00
  0.00000000E+00  0.00000000E+00  0.00000000E+00
  0.00000000E+00  0.00000000E+00  0.00000000E+00
  0.00000000E+00  0.00000000E+00  0.00000000E+00
  0.00000000E+00  0.00000000E+00  0.00000000E+00
  0.00000000E+00  0.00000000E+00  0.00000000E+00
  0.00000000E+00  0.00000000E+00  0.00000000E+00
  0.00000000E+00  0.00000000E+00  0.00000000E+00
  0.00000000E+00  0.00000000E+00  0.00000000E+00
