C  N  H  Pb I 
 1.0000000000000000
     8.9515839677080429    0.0000000000000000    0.0000000000000000
     0.0000000000000000    8.9515839677080429    0.0000000000000000
     0.0000000000000000    0.0000000000000000    6.3289724258144924
 C   N   H   Pb  I  
   2   4  10   2   6
Direct
  0.5010011862249266  0.5038258632060220  0.5794379332244824
  0.9960493901613624  0.0046213213362543  0.5791410398586019
  0.5886193305725491  0.5993087132572762  0.4866656776879611
  0.4045180843840139  0.4034744428777484  0.4729016632756750
  0.0902482825060768  0.9129993499001527  0.4889092593736269
  0.9027317717039361  0.0953094933415939  0.4743843839401732
  0.4939090072505522  0.5004803393871642  0.7381827340671173
  0.6623773456374850  0.6536646143451615  0.5781991864850492
  0.5923644793658712  0.5932859436573755  0.3311613967693505
  0.3921746998256631  0.4052572824631988  0.3172861297340996
  0.3384660052524460  0.3432400367036010  0.5738200511454035
  0.9928939040126828  0.9860964827081478  0.7464870449257115
  0.1509298177538720  0.8320277353930808  0.5643933580365672
  0.1107856800733205  0.8969682441097266  0.3272697778750461
  0.8875862418851808  0.1027596077255827  0.3093735256234751
  0.8398644232871624  0.1643212509516521  0.5620353052975458
  0.0040482350085645  0.4955482939040290  0.0000853998777520
  0.4957250866007670  0.0044017915651414  0.9898676260474525
  0.0059150302237455  0.4917437467046811  0.4857828519174209
  0.4886482835126871  0.0049334334388089  0.5022857044305937
  0.2153885982389580  0.2234937575967650  0.9989994990289106
  0.2790660780135616  0.7222673207382200  0.9840962052327332
  0.7288952960819757  0.2787559898749783  0.9813801119214932
  0.7647486222830471  0.7780482686454329  0.9790748364402231
Cartesian
  0.0000000000000000  0.0000000000000000  0.0000000000000000
  0.0000000000000000  0.0000000000000000  0.0000000000000000
  0.0000000000000000  0.0000000000000000  0.0000000000000000
  0.0000000000000000  0.0000000000000000  0.0000000000000000
  0.0000000000000000  0.0000000000000000  0.0000000000000000
  0.0000000000000000  0.0000000000000000  0.0000000000000000
  0.0000000000000000  0.0000000000000000  0.0000000000000000
  0.0000000000000000  0.0000000000000000  0.0000000000000000
  0.0000000000000000  0.0000000000000000  0.0000000000000000
  0.0000000000000000  0.0000000000000000  0.0000000000000000
  0.0000000000000000  0.0000000000000000  0.0000000000000000
  0.0000000000000000  0.0000000000000000  0.0000000000000000
  0.0000000000000000  0.0000000000000000  0.0000000000000000
  0.0000000000000000  0.0000000000000000  0.0000000000000000
  0.0000000000000000  0.0000000000000000  0.0000000000000000
  0.0000000000000000  0.0000000000000000  0.0000000000000000
  0.0000000000000000  0.0000000000000000  0.0000000000000000
  0.0000000000000000  0.0000000000000000  0.0000000000000000
  0.0000000000000000  0.0000000000000000  0.0000000000000000
  0.0000000000000000  0.0000000000000000  0.0000000000000000
  0.0000000000000000  0.0000000000000000  0.0000000000000000
  0.0000000000000000  0.0000000000000000  0.0000000000000000
  0.0000000000000000  0.0000000000000000  0.0000000000000000
  0.0000000000000000  0.0000000000000000  0.0000000000000000
