C  N  H  Pb I 
 1.0000000000000000
     8.8664039518077224   -0.0479765080618511   -0.0624838092502648
    -0.0479765080618511    9.0658679555709192   -0.0753679289242606
    -0.0441774670529099   -0.0532868312103342    6.4488477425209076
 C   N   H   Pb  I  
   2   4  10   2   6
Direct
  0.5000018554397698  0.5000022537173052  0.5710180843918635
  0.0000007410375673  0.9999987646105948  0.5710173459562398
  0.5923581034953975  0.5923585163879724  0.4765803103999292
  0.4076407503633792  0.4076411399921032  0.4765811169345087
  0.0923596624104001  0.9076399465760632  0.4765807909973079
  0.9076407520067941  0.0923588334847715  0.4765810251555297
  0.5000002811686741  0.5000006754111793  0.7434031870421924
  0.6592043223742974  0.6592047228670137  0.5661117567204834
  0.6020540182598020  0.6020543629609084  0.3166118097023155
  0.3979460835827361  0.3979464056777410  0.3166130108747678
  0.3407963330843803  0.3407967026589521  0.5661133888189647
  0.0000003891983269  0.9999991386351891  0.7434028011511008
  0.1592037642541199  0.8407958108961852  0.5661101690442599
  0.1020541224786791  0.8979456517450165  0.3166108718828010
  0.8979457520127502  0.1020539951781196  0.3166116306627342
  0.8407959940430518  0.1592035362748205  0.5661129987487661
  0.9974409046751342  0.4987295611720153  0.9933524382455741
  0.5001539324682394  0.9984708272958460  0.9966669709681584
  0.9959041446263903  0.4991343153563050  0.4914128607662144
  0.4989658298734349  0.9987591745293536  0.4889418405037783
  0.2210998451729418  0.2199320060526029  0.9892501214326775
  0.2808194421051425  0.7183428284897538  0.9939583693160056
  0.7177128472402957  0.2825336282255262  0.9905070660259641
  0.7817153716057668  0.7820422063626049  0.9901766626137656
Cartesian
  0.0000000000000000  0.0000000000000000  0.0000000000000000
  0.0000000000000000  0.0000000000000000  0.0000000000000000
  0.0000000000000000  0.0000000000000000  0.0000000000000000
  0.0000000000000000  0.0000000000000000  0.0000000000000000
  0.0000000000000000  0.0000000000000000  0.0000000000000000
  0.0000000000000000  0.0000000000000000  0.0000000000000000
  0.0000000000000000  0.0000000000000000  0.0000000000000000
  0.0000000000000000  0.0000000000000000  0.0000000000000000
  0.0000000000000000  0.0000000000000000  0.0000000000000000
  0.0000000000000000  0.0000000000000000  0.0000000000000000
  0.0000000000000000  0.0000000000000000  0.0000000000000000
  0.0000000000000000  0.0000000000000000  0.0000000000000000
  0.0000000000000000  0.0000000000000000  0.0000000000000000
  0.0000000000000000  0.0000000000000000  0.0000000000000000
  0.0000000000000000  0.0000000000000000  0.0000000000000000
  0.0000000000000000  0.0000000000000000  0.0000000000000000
  0.0000000000000000  0.0000000000000000  0.0000000000000000
  0.0000000000000000  0.0000000000000000  0.0000000000000000
  0.0000000000000000  0.0000000000000000  0.0000000000000000
  0.0000000000000000  0.0000000000000000  0.0000000000000000
  0.0000000000000000  0.0000000000000000  0.0000000000000000
  0.0000000000000000  0.0000000000000000  0.0000000000000000
  0.0000000000000000  0.0000000000000000  0.0000000000000000
  0.0000000000000000  0.0000000000000000  0.0000000000000000
