C  N  H  Pb I                           
   1.0000000000000000     
     8.9513990798777012    0.0446063349478628   -0.0531812274922226
     0.0434113673835491    8.7164298726900373    0.0172042413488127
    -0.0754504375676640    0.0250802584504767   12.7455681435653290
  C               N               H               Pb              I             
     4     8    20     4    12
Direct
     0.5087886587793307    0.0440805617861812    0.2417795227563886
     0.0014299299396185    0.4697683585034724    0.7583026873280332
     0.0139661093257928    0.5224817254778813    0.2533550812167178
     0.5034547102850979    0.9542841112616998    0.7515675521053211
     0.5432299419771240    0.9051427005748565    0.2345496654263215
     0.0998643988094798    0.5012801183337530    0.6879813603069067
     0.1363534318720525    0.5749629682617936    0.2140557668821330
     0.6346655381574564    0.9164013404697826    0.7123263173848571
     0.3802255697436934    0.1080084402929486    0.1977185862050490
     0.8592872084110112    0.4711479259306302    0.7375789025403350
     0.9070120787893572    0.4578449674925906    0.2083905197384155
     0.4122494050219316    0.0638885684884585    0.7154763656361069
     0.5806815108867767    0.1250016571569077    0.2857817034619998
     0.0319647856836340    0.4470690669948922    0.8347009912328858
     0.0039124193047471    0.5250840498788278    0.3386301226147452
     0.4726532136952315    0.8968879656233000    0.8215941473362989
     0.6455646195323723    0.8660886960718983    0.2688545760511900
     0.2051235884249039    0.4890796368758359    0.7072669340939726
     0.2142712454038787    0.6233615256749516    0.2683940627577783
     0.7026590830629260    0.8383496032245077    0.7465302264891065
     0.4866448993380175    0.8297034340427203    0.1950086371568318
     0.0758720711503429    0.5280287855099814    0.6135947870009559
     0.1537497534844974    0.5671838129448474    0.1397514190954112
     0.6774370217215449    0.9724824960176832    0.6456258242519155
     0.3132895357968266    0.0429258308993425    0.1601362784560223
     0.8058777204678620    0.4947105600973529    0.6671224844866259
     0.9076958478164983    0.4484760239763048    0.1216367899431745
     0.4412873682511105    0.1229275017641598    0.6483758114809106
     0.3622045340460218    0.2225370031399407    0.2156944908298968
     0.7812842241595845    0.4439457507406246    0.7957885671065767
     0.8107049645994877    0.4229191974133641    0.2470262189903565
     0.3173444990515435    0.0778660461640541    0.7498830812538841
     0.5042360596771047    0.4924457220504053    0.9832330611292548
     0.0033130928144658    0.0140931022493191    0.4802191906020283
     0.9949637665592661    0.9876918969376902    0.9786299976851254
     0.4950058975456457    0.5130135621739740    0.4799960121155991
     0.7959709488537356    0.7139089182800475    0.5064390944182264
     0.9597802072636412    0.9996047993699193    0.2332702088726251
     0.7020236637216186    0.1990088792941194    0.9649998845136594
     0.2036915964357888    0.2849569435918866    0.9991530688780870
     0.2053525563206264    0.3024109791600580    0.4588137402002275
     0.2878004452757992    0.7970074962159259    0.4629626952869828
     0.7927233281693518    0.6937983562294150    0.9567673162305894
     0.7036895510064767    0.2095165008286557    0.5016904888098566
     0.4593709733962683    0.5064148666797834    0.7344553451163875
     0.0379599201404659    0.0033561824112027    0.7308998309357690
     0.2964708752829495    0.7890280505097422    0.0032272928972432
     0.5399223054863000    0.4921946979536429    0.2313219653652041

  0.00000000E+00  0.00000000E+00  0.00000000E+00
  0.00000000E+00  0.00000000E+00  0.00000000E+00
  0.00000000E+00  0.00000000E+00  0.00000000E+00
  0.00000000E+00  0.00000000E+00  0.00000000E+00
  0.00000000E+00  0.00000000E+00  0.00000000E+00
  0.00000000E+00  0.00000000E+00  0.00000000E+00
  0.00000000E+00  0.00000000E+00  0.00000000E+00
  0.00000000E+00  0.00000000E+00  0.00000000E+00
  0.00000000E+00  0.00000000E+00  0.00000000E+00
  0.00000000E+00  0.00000000E+00  0.00000000E+00
  0.00000000E+00  0.00000000E+00  0.00000000E+00
  0.00000000E+00  0.00000000E+00  0.00000000E+00
  0.00000000E+00  0.00000000E+00  0.00000000E+00
  0.00000000E+00  0.00000000E+00  0.00000000E+00
  0.00000000E+00  0.00000000E+00  0.00000000E+00
  0.00000000E+00  0.00000000E+00  0.00000000E+00
  0.00000000E+00  0.00000000E+00  0.00000000E+00
  0.00000000E+00  0.00000000E+00  0.00000000E+00
  0.00000000E+00  0.00000000E+00  0.00000000E+00
  0.00000000E+00  0.00000000E+00  0.00000000E+00
  0.00000000E+00  0.00000000E+00  0.00000000E+00
  0.00000000E+00  0.00000000E+00  0.00000000E+00
  0.00000000E+00  0.00000000E+00  0.00000000E+00
  0.00000000E+00  0.00000000E+00  0.00000000E+00
  0.00000000E+00  0.00000000E+00  0.00000000E+00
  0.00000000E+00  0.00000000E+00  0.00000000E+00
  0.00000000E+00  0.00000000E+00  0.00000000E+00
  0.00000000E+00  0.00000000E+00  0.00000000E+00
  0.00000000E+00  0.00000000E+00  0.00000000E+00
  0.00000000E+00  0.00000000E+00  0.00000000E+00
  0.00000000E+00  0.00000000E+00  0.00000000E+00
  0.00000000E+00  0.00000000E+00  0.00000000E+00
  0.00000000E+00  0.00000000E+00  0.00000000E+00
  0.00000000E+00  0.00000000E+00  0.00000000E+00
  0.00000000E+00  0.00000000E+00  0.00000000E+00
  0.00000000E+00  0.00000000E+00  0.00000000E+00
  0.00000000E+00  0.00000000E+00  0.00000000E+00
  0.00000000E+00  0.00000000E+00  0.00000000E+00
  0.00000000E+00  0.00000000E+00  0.00000000E+00
  0.00000000E+00  0.00000000E+00  0.00000000E+00
  0.00000000E+00  0.00000000E+00  0.00000000E+00
  0.00000000E+00  0.00000000E+00  0.00000000E+00
  0.00000000E+00  0.00000000E+00  0.00000000E+00
  0.00000000E+00  0.00000000E+00  0.00000000E+00
  0.00000000E+00  0.00000000E+00  0.00000000E+00
  0.00000000E+00  0.00000000E+00  0.00000000E+00
  0.00000000E+00  0.00000000E+00  0.00000000E+00
  0.00000000E+00  0.00000000E+00  0.00000000E+00
