C  N  H  Pb I 
 1.0000000000000000
     8.9513990798777012    0.0446063349478628   -0.0531812274922226
     0.0434113673835491    8.7164298726900373    0.0172042413488127
    -0.0754504375676640    0.0250802584504767   12.7455681435653290
 C   N   H   Pb  I  
   4   8  20   4  12
Direct
  0.5087886587793302  0.0440805617861807  0.2417795227563921
  0.0014299299396188  0.4697683585034754  0.7583026873280356
  0.0139661093257926  0.5224817254778816  0.2533550812167156
  0.5034547102851015  0.9542841112617005  0.7515675521053197
  0.5432299419771243  0.9051427005748574  0.2345496654263204
  0.0998643988094785  0.5012801183337499  0.6879813603069078
  0.1363534318720552  0.5749629682617963  0.2140557668821318
  0.6346655381574585  0.9164013404697813  0.7123263173848573
  0.3802255697436965  0.1080084402929454  0.1977185862050513
  0.8592872084110109  0.4711479259306315  0.7375789025403315
  0.9070120787893570  0.4578449674925873  0.2083905197384155
  0.4122494050219286  0.0638885684884563  0.7154763656361049
  0.5806815108867743  0.1250016571569058  0.2857817034619972
  0.0319647856836351  0.4470690669948947  0.8347009912328857
  0.0039124193047451  0.5250840498788258  0.3386301226147417
  0.4726532136952306  0.8968879656232995  0.8215941473363009
  0.6455646195323697  0.8660886960718989  0.2688545760511867
  0.2051235884249027  0.4890796368758367  0.7072669340939722
  0.2142712454038760  0.6233615256749524  0.2683940627577773
  0.7026590830629289  0.8383496032245075  0.7465302264891035
  0.4866448993380185  0.8297034340427172  0.1950086371568326
  0.0758720711503400  0.5280287855099802  0.6135947870009540
  0.1537497534844943  0.5671838129448481  0.1397514190954112
  0.6774370217215423  0.9724824960176832  0.6456258242519121
  0.3132895357968266  0.0429258308993397  0.1601362784560236
  0.8058777204678651  0.4947105600973494  0.6671224844866286
  0.9076958478164993  0.4484760239763058  0.1216367899431779
  0.4412873682511082  0.1229275017641574  0.6483758114809102
  0.3622045340460228  0.2225370031399375  0.2156944908298985
  0.7812842241595814  0.4439457507406250  0.7957885671065776
  0.8107049645994897  0.4229191974133626  0.2470262189903547
  0.3173444990515467  0.0778660461640517  0.7498830812538851
  0.5042360596771033  0.4924457220504078  0.9832330611292563
  0.0033130928144654  0.0140931022493179  0.4802191906020261
  0.9949637665592657  0.9876918969376899  0.9786299976851248
  0.4950058975456469  0.5130135621739706  0.4799960121155988
  0.7959709488537355  0.7139089182800503  0.5064390944182252
  0.9597802072636391  0.9996047993699183  0.2332702088726240
  0.7020236637216213  0.1990088792941212  0.9649998845136629
  0.2036915964357916  0.2849569435918858  0.9991530688780889
  0.2053525563206281  0.3024109791600609  0.4588137402002239
  0.2878004452757982  0.7970074962159284  0.4629626952869793
  0.7927233281693485  0.6937983562294161  0.9567673162305904
  0.7036895510064743  0.2095165008286568  0.5016904888098548
  0.4593709733962671  0.5064148666797826  0.7344553451163890
  0.0379599201404630  0.0033561824112037  0.7308998309357699
  0.2964708752829492  0.7890280505097440  0.0032272928972464
  0.5399223054863027  0.4921946979536413  0.2313219653652019
Cartesian
  0.0000000000000000  0.0000000000000000  0.0000000000000000
  0.0000000000000000  0.0000000000000000  0.0000000000000000
  0.0000000000000000  0.0000000000000000  0.0000000000000000
  0.0000000000000000  0.0000000000000000  0.0000000000000000
  0.0000000000000000  0.0000000000000000  0.0000000000000000
  0.0000000000000000  0.0000000000000000  0.0000000000000000
  0.0000000000000000  0.0000000000000000  0.0000000000000000
  0.0000000000000000  0.0000000000000000  0.0000000000000000
  0.0000000000000000  0.0000000000000000  0.0000000000000000
  0.0000000000000000  0.0000000000000000  0.0000000000000000
  0.0000000000000000  0.0000000000000000  0.0000000000000000
  0.0000000000000000  0.0000000000000000  0.0000000000000000
  0.0000000000000000  0.0000000000000000  0.0000000000000000
  0.0000000000000000  0.0000000000000000  0.0000000000000000
  0.0000000000000000  0.0000000000000000  0.0000000000000000
  0.0000000000000000  0.0000000000000000  0.0000000000000000
  0.0000000000000000  0.0000000000000000  0.0000000000000000
  0.0000000000000000  0.0000000000000000  0.0000000000000000
  0.0000000000000000  0.0000000000000000  0.0000000000000000
  0.0000000000000000  0.0000000000000000  0.0000000000000000
  0.0000000000000000  0.0000000000000000  0.0000000000000000
  0.0000000000000000  0.0000000000000000  0.0000000000000000
  0.0000000000000000  0.0000000000000000  0.0000000000000000
  0.0000000000000000  0.0000000000000000  0.0000000000000000
  0.0000000000000000  0.0000000000000000  0.0000000000000000
  0.0000000000000000  0.0000000000000000  0.0000000000000000
  0.0000000000000000  0.0000000000000000  0.0000000000000000
  0.0000000000000000  0.0000000000000000  0.0000000000000000
  0.0000000000000000  0.0000000000000000  0.0000000000000000
  0.0000000000000000  0.0000000000000000  0.0000000000000000
  0.0000000000000000  0.0000000000000000  0.0000000000000000
  0.0000000000000000  0.0000000000000000  0.0000000000000000
  0.0000000000000000  0.0000000000000000  0.0000000000000000
  0.0000000000000000  0.0000000000000000  0.0000000000000000
  0.0000000000000000  0.0000000000000000  0.0000000000000000
  0.0000000000000000  0.0000000000000000  0.0000000000000000
  0.0000000000000000  0.0000000000000000  0.0000000000000000
  0.0000000000000000  0.0000000000000000  0.0000000000000000
  0.0000000000000000  0.0000000000000000  0.0000000000000000
  0.0000000000000000  0.0000000000000000  0.0000000000000000
  0.0000000000000000  0.0000000000000000  0.0000000000000000
  0.0000000000000000  0.0000000000000000  0.0000000000000000
  0.0000000000000000  0.0000000000000000  0.0000000000000000
  0.0000000000000000  0.0000000000000000  0.0000000000000000
  0.0000000000000000  0.0000000000000000  0.0000000000000000
  0.0000000000000000  0.0000000000000000  0.0000000000000000
  0.0000000000000000  0.0000000000000000  0.0000000000000000
  0.0000000000000000  0.0000000000000000  0.0000000000000000
