C  N  H  Pb I 
 1.0000000000000000
     8.9382614941695255    0.0348677259391739    0.0497137209112638
     0.0339336478180417    8.6211559394688830    0.0767811363814873
     0.0705309405733466    0.1119311631083286   12.9257363575171986
 C   N   H   Pb  I  
   4   8  20   4  12
Direct
  0.5079545620594851  0.0406959883747638  0.2475946235704421
  0.0079545554343785  0.4593040156808086  0.7475946208954541
  0.9920454334685082  0.5406959860585880  0.2475946299923700
  0.4920454478785191  0.9593040127881082  0.7475946256013860
  0.5705946771768486  0.9354362274290696  0.1897252141182124
  0.0705946740239366  0.5645637727658525  0.6897252201605891
  0.1310336582348178  0.5838994807281045  0.2399588818968305
  0.6310336640152745  0.9161005167449353  0.7399588856927696
  0.3689663406760988  0.0838994856595276  0.2399588837149886
  0.8689663414621858  0.4161005194902584  0.7399588873068382
  0.9294053217315231  0.4354362199708706  0.1897252216917170
  0.4294053329446624  0.0645637684645837  0.6897252229388680
  0.5763163080256496  0.0964013618091920  0.3070350010383272
  0.0763163041439384  0.4035986538439505  0.8070350065760272
  0.9236836942065133  0.5964013535599979  0.3070350101048525
  0.4236837047439705  0.9035986570811890  0.8070350168177971
  0.6816203964682235  0.9153350004290036  0.1981420696355345
  0.1816203953774488  0.5846650008662725  0.6981420678013570
  0.1727440398663828  0.6618424652955208  0.2915835922463332
  0.6727440483713266  0.8381575300147405  0.7915835946568771
  0.5137159496301194  0.8799864858485238  0.1317994637689627
  0.0137159530701184  0.6200135182310212  0.6317994618654598
  0.2027680669080062  0.5368550561063355  0.1875867459194598
  0.7027680811919138  0.9631449364772251  0.6875867437071856
  0.2972319239003343  0.0368550498131778  0.1875867509889691
  0.7972319185576198  0.4631449498156996  0.6875867489999620
  0.9862840415021580  0.3799864786951984  0.1317994707683488
  0.4862840485959766  0.1200135117898100  0.6317994631872471
  0.3272559576570425  0.1618424731988937  0.2915835925839972
  0.8272559591671836  0.3381575261065085  0.7915835908767330
  0.8183796010724744  0.4153349919539672  0.1981420818729490
  0.3183796102733418  0.0846649986020452  0.6981420736952380
  0.5010472400028362  0.4851929052247824  0.9820010076643222
  0.0019826150071776  0.0114992736383518  0.4809320269159242
  0.9951810010553520  0.9867885000535125  0.9802418522768011
  0.4955801723161246  0.5116921579115762  0.4797550718000039
  0.7991705618206161  0.7102103225571652  0.5012299230691794
  0.9606137889390866  0.9938023116138054  0.2329959199707386
  0.7072760100205252  0.1915308848362343  0.9590274204107482
  0.2043190314277186  0.2884372203047722  0.0036682946109389
  0.2083201660314647  0.3055485679536343  0.4616209425681028
  0.2968828321121832  0.8056773853813176  0.4622144965390709
  0.7921308698493055  0.6966616516980851  0.9590745709302697
  0.7029067806064996  0.2091309716230446  0.5041357836255019
  0.4578769282509157  0.5054413556467239  0.7321093005072177
  0.0393972251182708  0.0063065818449507  0.7325297604455969
  0.2947297367428157  0.7928753499604123  0.0018036827992580
  0.5403609356799911  0.4942874408651512  0.2349227143561666
Cartesian
  0.0000000000000000  0.0000000000000000  0.0000000000000000
  0.0000000000000000  0.0000000000000000  0.0000000000000000
  0.0000000000000000  0.0000000000000000  0.0000000000000000
  0.0000000000000000  0.0000000000000000  0.0000000000000000
  0.0000000000000000  0.0000000000000000  0.0000000000000000
  0.0000000000000000  0.0000000000000000  0.0000000000000000
  0.0000000000000000  0.0000000000000000  0.0000000000000000
  0.0000000000000000  0.0000000000000000  0.0000000000000000
  0.0000000000000000  0.0000000000000000  0.0000000000000000
  0.0000000000000000  0.0000000000000000  0.0000000000000000
  0.0000000000000000  0.0000000000000000  0.0000000000000000
  0.0000000000000000  0.0000000000000000  0.0000000000000000
  0.0000000000000000  0.0000000000000000  0.0000000000000000
  0.0000000000000000  0.0000000000000000  0.0000000000000000
  0.0000000000000000  0.0000000000000000  0.0000000000000000
  0.0000000000000000  0.0000000000000000  0.0000000000000000
  0.0000000000000000  0.0000000000000000  0.0000000000000000
  0.0000000000000000  0.0000000000000000  0.0000000000000000
  0.0000000000000000  0.0000000000000000  0.0000000000000000
  0.0000000000000000  0.0000000000000000  0.0000000000000000
  0.0000000000000000  0.0000000000000000  0.0000000000000000
  0.0000000000000000  0.0000000000000000  0.0000000000000000
  0.0000000000000000  0.0000000000000000  0.0000000000000000
  0.0000000000000000  0.0000000000000000  0.0000000000000000
  0.0000000000000000  0.0000000000000000  0.0000000000000000
  0.0000000000000000  0.0000000000000000  0.0000000000000000
  0.0000000000000000  0.0000000000000000  0.0000000000000000
  0.0000000000000000  0.0000000000000000  0.0000000000000000
  0.0000000000000000  0.0000000000000000  0.0000000000000000
  0.0000000000000000  0.0000000000000000  0.0000000000000000
  0.0000000000000000  0.0000000000000000  0.0000000000000000
  0.0000000000000000  0.0000000000000000  0.0000000000000000
  0.0000000000000000  0.0000000000000000  0.0000000000000000
  0.0000000000000000  0.0000000000000000  0.0000000000000000
  0.0000000000000000  0.0000000000000000  0.0000000000000000
  0.0000000000000000  0.0000000000000000  0.0000000000000000
  0.0000000000000000  0.0000000000000000  0.0000000000000000
  0.0000000000000000  0.0000000000000000  0.0000000000000000
  0.0000000000000000  0.0000000000000000  0.0000000000000000
  0.0000000000000000  0.0000000000000000  0.0000000000000000
  0.0000000000000000  0.0000000000000000  0.0000000000000000
  0.0000000000000000  0.0000000000000000  0.0000000000000000
  0.0000000000000000  0.0000000000000000  0.0000000000000000
  0.0000000000000000  0.0000000000000000  0.0000000000000000
  0.0000000000000000  0.0000000000000000  0.0000000000000000
  0.0000000000000000  0.0000000000000000  0.0000000000000000
  0.0000000000000000  0.0000000000000000  0.0000000000000000
  0.0000000000000000  0.0000000000000000  0.0000000000000000
