C  N  H  Pb I 
 1.0000000000000000
     9.1218357539369279   -0.0426362352054953   -0.0852748480420710
    -0.0414940450167123    8.7944605717814834   -0.0201402329718679
    -0.1209830028694100   -0.0293603326032229   12.9478003462743505
 C   N   H   Pb  I  
   4   8  20   4  12
Direct
  0.5079545620594850  0.0406959883747638  0.2475946235704422
  0.0079545554343785  0.4593040156808084  0.7475946208954544
  0.9920454334685079  0.5406959860585880  0.2475946299923701
  0.4920454478785190  0.9593040127881087  0.7475946256013861
  0.5705946771768488  0.9354362274290704  0.1897252141182125
  0.0705946740239366  0.5645637727658526  0.6897252201605892
  0.1310336582348178  0.5838994807281045  0.2399588818968306
  0.6310336640152745  0.9161005167449352  0.7399588856927695
  0.3689663406760988  0.0838994856595276  0.2399588837149887
  0.8689663414621855  0.4161005194902583  0.7399588873068385
  0.9294053217315231  0.4354362199708706  0.1897252216917170
  0.4294053329446624  0.0645637684645837  0.6897252229388682
  0.5763163080256496  0.0964013618091920  0.3070350010383273
  0.0763163041439384  0.4035986538439505  0.8070350065760273
  0.9236836942065132  0.5964013535599978  0.3070350101048526
  0.4236837047439704  0.9035986570811891  0.8070350168177974
  0.6816203964682234  0.9153350004290041  0.1981420696355345
  0.1816203953774488  0.5846650008662725  0.6981420678013571
  0.1727440398663827  0.6618424652955208  0.2915835922463332
  0.6727440483713266  0.8381575300147406  0.7915835946568774
  0.5137159496301191  0.8799864858485239  0.1317994637689628
  0.0137159530701184  0.6200135182310215  0.6317994618654603
  0.2027680669080061  0.5368550561063358  0.1875867459194599
  0.7027680811919138  0.9631449364772254  0.6875867437071860
  0.2972319239003343  0.0368550498131778  0.1875867509889692
  0.7972319185576197  0.4631449498156998  0.6875867489999619
  0.9862840415021579  0.3799864786951982  0.1317994707683488
  0.4862840485959766  0.1200135117898101  0.6317994631872469
  0.3272559576570425  0.1618424731988938  0.2915835925839972
  0.8272559591671834  0.3381575261065085  0.7915835908767332
  0.8183796010724742  0.4153349919539672  0.1981420818729490
  0.3183796102733418  0.0846649986020452  0.6981420736952381
  0.4967430056714942  0.4880379343972149  0.9784004327515138
  0.0064183279932327  0.0118250332418234  0.4804268056011197
  0.9979206603617246  0.9911113744311481  0.9817176235907979
  0.5001922415800810  0.5120480854994659  0.4811339189623475
  0.7924997766207065  0.7086250976580499  0.5041868007040418
  0.9614561569034560  0.9914575376140315  0.2305362784441392
  0.7065114136922246  0.1968181218453338  0.9606357756111992
  0.2042724845182640  0.2880520664635882  0.0031268482536838
  0.2100728430213478  0.3042637810231968  0.4571600777959929
  0.2957103256692365  0.8059583651942275  0.4637115092913153
  0.7949752903439954  0.6970090301555019  0.9611708039924700
  0.7002979913630873  0.2096672398292657  0.5025210681979415
  0.4615495101680828  0.5079158711972065  0.7326171323515286
  0.0416530524740831  0.0091852505205594  0.7319825755265570
  0.2945305369003287  0.7884075677658297  0.0020806280698872
  0.5389243613465290  0.4939972340341323  0.2303111905047328
Cartesian
  0.0000000000000000  0.0000000000000000  0.0000000000000000
  0.0000000000000000  0.0000000000000000  0.0000000000000000
  0.0000000000000000  0.0000000000000000  0.0000000000000000
  0.0000000000000000  0.0000000000000000  0.0000000000000000
  0.0000000000000000  0.0000000000000000  0.0000000000000000
  0.0000000000000000  0.0000000000000000  0.0000000000000000
  0.0000000000000000  0.0000000000000000  0.0000000000000000
  0.0000000000000000  0.0000000000000000  0.0000000000000000
  0.0000000000000000  0.0000000000000000  0.0000000000000000
  0.0000000000000000  0.0000000000000000  0.0000000000000000
  0.0000000000000000  0.0000000000000000  0.0000000000000000
  0.0000000000000000  0.0000000000000000  0.0000000000000000
  0.0000000000000000  0.0000000000000000  0.0000000000000000
  0.0000000000000000  0.0000000000000000  0.0000000000000000
  0.0000000000000000  0.0000000000000000  0.0000000000000000
  0.0000000000000000  0.0000000000000000  0.0000000000000000
  0.0000000000000000  0.0000000000000000  0.0000000000000000
  0.0000000000000000  0.0000000000000000  0.0000000000000000
  0.0000000000000000  0.0000000000000000  0.0000000000000000
  0.0000000000000000  0.0000000000000000  0.0000000000000000
  0.0000000000000000  0.0000000000000000  0.0000000000000000
  0.0000000000000000  0.0000000000000000  0.0000000000000000
  0.0000000000000000  0.0000000000000000  0.0000000000000000
  0.0000000000000000  0.0000000000000000  0.0000000000000000
  0.0000000000000000  0.0000000000000000  0.0000000000000000
  0.0000000000000000  0.0000000000000000  0.0000000000000000
  0.0000000000000000  0.0000000000000000  0.0000000000000000
  0.0000000000000000  0.0000000000000000  0.0000000000000000
  0.0000000000000000  0.0000000000000000  0.0000000000000000
  0.0000000000000000  0.0000000000000000  0.0000000000000000
  0.0000000000000000  0.0000000000000000  0.0000000000000000
  0.0000000000000000  0.0000000000000000  0.0000000000000000
  0.0000000000000000  0.0000000000000000  0.0000000000000000
  0.0000000000000000  0.0000000000000000  0.0000000000000000
  0.0000000000000000  0.0000000000000000  0.0000000000000000
  0.0000000000000000  0.0000000000000000  0.0000000000000000
  0.0000000000000000  0.0000000000000000  0.0000000000000000
  0.0000000000000000  0.0000000000000000  0.0000000000000000
  0.0000000000000000  0.0000000000000000  0.0000000000000000
  0.0000000000000000  0.0000000000000000  0.0000000000000000
  0.0000000000000000  0.0000000000000000  0.0000000000000000
  0.0000000000000000  0.0000000000000000  0.0000000000000000
  0.0000000000000000  0.0000000000000000  0.0000000000000000
  0.0000000000000000  0.0000000000000000  0.0000000000000000
  0.0000000000000000  0.0000000000000000  0.0000000000000000
  0.0000000000000000  0.0000000000000000  0.0000000000000000
  0.0000000000000000  0.0000000000000000  0.0000000000000000
  0.0000000000000000  0.0000000000000000  0.0000000000000000
