24
Lattice="8.951583967708043 0.0 0.0 0.0 8.951583967708043 0.0 0.0 0.0 6.328972425814492" Properties=species:S:1:pos:R:3:momenta:R:3 config_id=t-FAPI3_al_global_rattle_01__global_rattle__sev-0.208__seed-new phase=t-FAPI3 mode=active_learning seed=1638607990 seed_origin=new seed_origin_config_id= parity_master_seed new_master_seed=20260901 source=t-FAPI3/CONTCAR formula=C2H10I6N4Pb2 natoms=24 fa_groups="_JSON [[0, 2, 3, 6, 7, 10, 8, 9], [1, 4, 5, 11, 12, 15, 13, 14]]" cell_A="_JSON [[8.9515839677, 0.0, 0.0], [0.0, 8.9515839677, 0.0], [0.0, 0.0, 6.3289724258]]" distortion_family=global_rattle distortion_severity=0.208 rattle_target=all rattle_sigma_A=0.06892 distortion_label=global_rattle minimum_distance_A=1.0249337236660427 minimum_pair_indices="_JSON [4, 13]" minimum_pair_symbols="_JSON [\"N\", \"H\"]" pbc="T T T"
C        4.44587326       4.58182261       3.53338968       0.00000000       0.00000000       0.00000000
C        8.82589826       8.93420132       3.63827755       0.00000000       0.00000000       0.00000000
N        5.33178952       5.08438698       3.06619005       0.00000000       0.00000000       0.00000000
N        3.72752995       3.56036498       3.01074372       0.00000000       0.00000000       0.00000000
N        0.76839277       8.04774928       3.05138033       0.00000000       0.00000000       0.00000000
N        8.12567300       0.87952851       2.93909390       0.00000000       0.00000000       0.00000000
H        4.50744782       4.41934835       4.59499148       0.00000000       0.00000000       0.00000000
H        5.89276773       5.91097192       3.66568270       0.00000000       0.00000000       0.00000000
H        5.47349511       5.40767876       1.88310677       0.00000000       0.00000000       0.00000000
H        3.49243620       3.41881887       1.87447084       0.00000000       0.00000000       0.00000000
H        2.99611162       2.94505721       3.49830474       0.00000000       0.00000000       0.00000000
H        8.94120367       0.03388353       4.68089907       0.00000000       0.00000000       0.00000000
H        1.51912101       7.61908658       3.67108623       0.00000000       0.00000000       0.00000000
H        0.90516907       8.05826646       2.03566838       0.00000000       0.00000000       0.00000000
H        8.01456880       0.96535712       1.88977541       0.00000000       0.00000000       0.00000000
H        7.46403709       1.39622039       3.66908744       0.00000000       0.00000000       0.00000000
Pb       0.03669620       4.45123458       6.22330621       0.00000000       0.00000000       0.00000000
Pb       4.53757818       0.00338727       6.19988279       0.00000000       0.00000000       0.00000000
I        0.02496944       4.50314091       3.07104286       0.00000000       0.00000000       0.00000000
I        4.49979058       8.93595495       3.09834086       0.00000000       0.00000000       0.00000000
I        2.06335106       1.94327943       6.32890548       0.00000000       0.00000000       0.00000000
I        2.54246931       6.44173729       6.31970967       0.00000000       0.00000000       0.00000000
I        6.45416244       2.68080284       6.32248929       0.00000000       0.00000000       0.00000000
I        6.97538247       6.95315789       6.15288271       0.00000000       0.00000000       0.00000000
24
Lattice="8.951583967708043 0.0 0.0 0.0 8.951583967708043 0.0 0.0 0.0 6.328972425814492" Properties=species:S:1:pos:R:3:momenta:R:3 config_id=t-FAPI3_al_global_rattle_02__global_rattle__sev-0.224__seed-new phase=t-FAPI3 mode=active_learning seed=3775353260 seed_origin=new seed_origin_config_id= parity_master_seed new_master_seed=20260901 source=t-FAPI3/CONTCAR formula=C2H10I6N4Pb2 natoms=24 fa_groups="_JSON [[0, 2, 3, 6, 7, 10, 8, 9], [1, 4, 5, 11, 12, 15, 13, 14]]" cell_A="_JSON [[8.9515839677, 0.0, 0.0], [0.0, 8.9515839677, 0.0], [0.0, 0.0, 6.3289724258]]" distortion_family=global_rattle distortion_severity=0.224 rattle_target=all rattle_sigma_A=0.07076 distortion_label=global_rattle minimum_distance_A=0.8572370765158783 minimum_pair_indices="_JSON [3, 9]" minimum_pair_symbols="_JSON [\"N\", \"H\"]" pbc="T T T"
C        4.42199879       4.38204009       3.57556272       0.00000000       0.00000000       0.00000000
C        0.04285212       8.86555010       3.59029538       0.00000000       0.00000000       0.00000000
N        5.27538590       5.32608466       3.03245515       0.00000000       0.00000000       0.00000000
N        3.79176889       3.56986754       2.94149306       0.00000000       0.00000000       0.00000000
N        0.73790001       8.14271676       3.17470644       0.00000000       0.00000000       0.00000000
N        8.14395216       0.89122358       3.04424236       0.00000000       0.00000000       0.00000000
H        4.41506723       4.53774884       4.69721903       0.00000000       0.00000000       0.00000000
H        5.86520144       5.85376886       3.59725630       0.00000000       0.00000000       0.00000000
H        5.35620622       5.35604967       2.09390413       0.00000000       0.00000000       0.00000000
H        3.48329933       3.54731085       2.14199752       0.00000000       0.00000000       0.00000000
H        3.18301813       2.90070727       3.57237495       0.00000000       0.00000000       0.00000000
H        0.08270746       0.05680979       4.62823561       0.00000000       0.00000000       0.00000000
H        1.49738009       7.49341999       3.56134486       0.00000000       0.00000000       0.00000000
H        1.00632988       7.98439200       1.94302679       0.00000000       0.00000000       0.00000000
H        7.96671742       1.02231502       1.92347309       0.00000000       0.00000000       0.00000000
H        7.48489235       1.49737536       3.54485432       0.00000000       0.00000000       0.00000000
Pb       8.93913991       4.49233180       0.04931927       0.00000000       0.00000000       0.00000000
Pb       4.44765973       8.90306370       6.32214915       0.00000000       0.00000000       0.00000000
I        8.91474426       4.41871379       3.12586926       0.00000000       0.00000000       0.00000000
I        4.47616762       8.79723258       3.01834828       0.00000000       0.00000000       0.00000000
I        1.85575238       1.99545637       0.04675492       0.00000000       0.00000000       0.00000000
I        2.47666137       6.50473296       6.18936690       0.00000000       0.00000000       0.00000000
I        6.42800510       2.41853088       6.31172808       0.00000000       0.00000000       0.00000000
I        6.97766452       6.90117377       6.26538630       0.00000000       0.00000000       0.00000000
24
Lattice="8.951583967708043 0.0 0.0 0.0 8.951583967708043 0.0 0.0 0.0 6.328972425814492" Properties=species:S:1:pos:R:3:momenta:R:3 config_id=t-FAPI3_al_global_rattle_03__global_rattle__sev-0.240__seed-parity phase=t-FAPI3 mode=active_learning seed=347544039 seed_origin=parity seed_origin_config_id=t-FAPI3_parity_12__global_rattle__sev-0.2 parity_master_seed=20260810 new_master_seed source=t-FAPI3/CONTCAR formula=C2H10I6N4Pb2 natoms=24 fa_groups="_JSON [[0, 2, 3, 6, 7, 10, 8, 9], [1, 4, 5, 11, 12, 15, 13, 14]]" cell_A="_JSON [[8.9515839677, 0.0, 0.0], [0.0, 8.9515839677, 0.0], [0.0, 0.0, 6.3289724258]]" distortion_family=global_rattle distortion_severity=0.24 rattle_target=all rattle_sigma_A=0.0726 distortion_label=global_rattle minimum_distance_A=0.927645445226185 minimum_pair_indices="_JSON [5, 15]" minimum_pair_symbols="_JSON [\"N\", \"H\"]" pbc="T T T"
C        4.39580519       4.45336803       3.65414019       0.00000000       0.00000000       0.00000000
C        0.01546063       0.10031800       3.65347201       0.00000000       0.00000000       0.00000000
N        5.30048715       5.28487119       2.97764363       0.00000000       0.00000000       0.00000000
N        3.56524763       3.65676451       2.98263732       0.00000000       0.00000000       0.00000000
N        0.84698974       8.13931803       3.02004312       0.00000000       0.00000000       0.00000000
N        8.11378120       0.99349743       3.00096325       0.00000000       0.00000000       0.00000000
H        4.37191801       4.49684951       4.66180536       0.00000000       0.00000000       0.00000000
H        5.89375017       5.91319052       3.71357947       0.00000000       0.00000000       0.00000000
H        5.46710651       5.52981273       1.91206533       0.00000000       0.00000000       0.00000000
H        3.68611329       3.47220214       1.97477189       0.00000000       0.00000000       0.00000000
H        3.11080817       2.93566693       3.53349897       0.00000000       0.00000000       0.00000000
H        0.05422281       0.01248035       4.76420660       0.00000000       0.00000000       0.00000000
H        1.38710698       7.48757942       3.49838073       0.00000000       0.00000000       0.00000000
H        0.85387279       8.11008854       1.92629724       0.00000000       0.00000000       0.00000000
H        7.97283959       0.99778304       2.03189906       0.00000000       0.00000000       0.00000000
H        7.46845677       1.38646828       3.53916058       0.00000000       0.00000000       0.00000000
Pb       0.03635368       4.39546872       6.24221940       0.00000000       0.00000000       0.00000000
Pb       4.56276250       8.91857360       6.26662454       0.00000000       0.00000000       0.00000000
I        8.92958993       4.42975734       3.25130564       0.00000000       0.00000000       0.00000000
I        4.51702197       8.94872874       3.05785822       0.00000000       0.00000000       0.00000000
I        1.89394841       2.06451404       6.21464580       0.00000000       0.00000000       0.00000000
I        2.48047870       6.37900555       6.16085177       0.00000000       0.00000000       0.00000000
I        6.33010559       2.57489383       6.30368125       0.00000000       0.00000000       0.00000000
I        7.05001699       7.07852635       0.00604670       0.00000000       0.00000000       0.00000000
24
Lattice="8.951583967708043 0.0 0.0 0.0 8.951583967708043 0.0 0.0 0.0 6.328972425814492" Properties=species:S:1:pos:R:3:momenta:R:3 config_id=t-FAPI3_al_global_rattle_04__global_rattle__sev-0.256__seed-new phase=t-FAPI3 mode=active_learning seed=3065620901 seed_origin=new seed_origin_config_id= parity_master_seed new_master_seed=20260901 source=t-FAPI3/CONTCAR formula=C2H10I6N4Pb2 natoms=24 fa_groups="_JSON [[0, 2, 3, 6, 7, 10, 8, 9], [1, 4, 5, 11, 12, 15, 13, 14]]" cell_A="_JSON [[8.9515839677, 0.0, 0.0], [0.0, 8.9515839677, 0.0], [0.0, 0.0, 6.3289724258]]" distortion_family=global_rattle distortion_severity=0.256 rattle_target=all rattle_sigma_A=0.07444 distortion_label=global_rattle minimum_distance_A=0.8496576643545233 minimum_pair_indices="_JSON [0, 6]" minimum_pair_symbols="_JSON [\"C\", \"H\"]" pbc="T T T"
C        4.38131736       4.42133505       3.75947431       0.00000000       0.00000000       0.00000000
C        8.91654474       0.00134746       3.79156382       0.00000000       0.00000000       0.00000000
N        5.30976533       5.22999914       3.09395776       0.00000000       0.00000000       0.00000000
N        3.63553560       3.60493103       3.00902744       0.00000000       0.00000000       0.00000000
N        0.86012596       8.22342999       3.18434870       0.00000000       0.00000000       0.00000000
N        8.12906246       0.77105328       3.03516281       0.00000000       0.00000000       0.00000000
H        4.38910522       4.42002734       4.60909528       0.00000000       0.00000000       0.00000000
H        5.91379692       5.84639545       3.49469367       0.00000000       0.00000000       0.00000000
H        5.27773206       5.19681032       2.00075939       0.00000000       0.00000000       0.00000000
H        3.72948894       3.52929043       2.09639742       0.00000000       0.00000000       0.00000000
H        3.03344434       3.07700742       3.54618961       0.00000000       0.00000000       0.00000000
H        0.04374716       8.86545523       4.64841077       0.00000000       0.00000000       0.00000000
H        1.56085322       7.67971583       3.72053687       0.00000000       0.00000000       0.00000000
H        0.85060810       7.99619366       2.08287162       0.00000000       0.00000000       0.00000000
H        8.06684983       0.79996302       1.81622384       0.00000000       0.00000000       0.00000000
H        7.45644850       1.40177746       3.60042830       0.00000000       0.00000000       0.00000000
Pb       0.13168375       4.42540512       6.32247290       0.00000000       0.00000000       0.00000000
Pb       4.37582668       8.89896195       6.21503676       0.00000000       0.00000000       0.00000000
I        8.91080582       4.48929441       3.12050961       0.00000000       0.00000000       0.00000000
I        4.44579042       8.93207893       3.06916793       0.00000000       0.00000000       0.00000000
I        1.99427186       1.89937942       6.30868916       0.00000000       0.00000000       0.00000000
I        2.45019927       6.43108637       6.06965669       0.00000000       0.00000000       0.00000000
I        6.44960609       2.52653201       6.25218460       0.00000000       0.00000000       0.00000000
I        6.98078825       6.92189527       6.24002231       0.00000000       0.00000000       0.00000000
24
Lattice="8.951583967708043 0.0 0.0 0.0 8.951583967708043 0.0 0.0 0.0 6.328972425814492" Properties=species:S:1:pos:R:3:momenta:R:3 config_id=t-FAPI3_al_global_rattle_05__global_rattle__sev-0.272__seed-new phase=t-FAPI3 mode=active_learning seed=732447489 seed_origin=new seed_origin_config_id= parity_master_seed new_master_seed=20260901 source=t-FAPI3/CONTCAR formula=C2H10I6N4Pb2 natoms=24 fa_groups="_JSON [[0, 2, 3, 6, 7, 10, 8, 9], [1, 4, 5, 11, 12, 15, 13, 14]]" cell_A="_JSON [[8.9515839677, 0.0, 0.0], [0.0, 8.9515839677, 0.0], [0.0, 0.0, 6.3289724258]]" distortion_family=global_rattle distortion_severity=0.272 rattle_target=all rattle_sigma_A=0.07628 distortion_label=global_rattle minimum_distance_A=0.8396919011326015 minimum_pair_indices="_JSON [4, 13]" minimum_pair_symbols="_JSON [\"N\", \"H\"]" pbc="T T T"
C        4.59718261       4.48048808       3.60154673       0.00000000       0.00000000       0.00000000
C        0.04412184       0.03015768       3.66752059       0.00000000       0.00000000       0.00000000
N        5.38109467       5.43745941       2.92199079       0.00000000       0.00000000       0.00000000
N        3.55632451       3.71666719       3.02689601       0.00000000       0.00000000       0.00000000
N        0.83612673       8.08549701       3.00627910       0.00000000       0.00000000       0.00000000
N        8.11775649       0.84935308       3.05684103       0.00000000       0.00000000       0.00000000
H        4.62880196       4.38752041       4.85684130       0.00000000       0.00000000       0.00000000
H        5.89240214       6.08736378       3.68171391       0.00000000       0.00000000       0.00000000
H        5.49661753       5.56112342       2.04034286       0.00000000       0.00000000       0.00000000
H        3.47104137       3.53470602       1.94652942       0.00000000       0.00000000       0.00000000
H        2.84618621       3.00928971       3.56427774       0.00000000       0.00000000       0.00000000
H        8.90822367       0.05314476       4.78031326       0.00000000       0.00000000       0.00000000
H        1.52126707       7.56879246       3.57851644       0.00000000       0.00000000       0.00000000
H        0.88755718       8.04086075       2.16935318       0.00000000       0.00000000       0.00000000
H        7.98023003       0.98138222       2.00295220       0.00000000       0.00000000       0.00000000
H        7.49867543       1.56878220       3.63131012       0.00000000       0.00000000       0.00000000
Pb       8.93046160       4.62757259       0.08740978       0.00000000       0.00000000       0.00000000
Pb       4.45304173       0.06843174       0.01579333       0.00000000       0.00000000       0.00000000
I        8.83433943       4.40444452       3.11179955       0.00000000       0.00000000       0.00000000
I        4.48243769       0.07689206       3.12132590       0.00000000       0.00000000       0.00000000
I        1.91312286       1.99265754       6.28186192       0.00000000       0.00000000       0.00000000
I        2.70790069       6.38402174       6.22405787       0.00000000       0.00000000       0.00000000
I        6.43209252       2.52178663       6.30087100       0.00000000       0.00000000       0.00000000
I        7.11037985       6.99284977       6.17712848       0.00000000       0.00000000       0.00000000
24
Lattice="8.951583967708043 0.0 0.0 0.0 8.951583967708043 0.0 0.0 0.0 6.328972425814492" Properties=species:S:1:pos:R:3:momenta:R:3 config_id=t-FAPI3_al_global_rattle_06__global_rattle__sev-0.288__seed-new phase=t-FAPI3 mode=active_learning seed=3468941427 seed_origin=new seed_origin_config_id= parity_master_seed new_master_seed=20260901 source=t-FAPI3/CONTCAR formula=C2H10I6N4Pb2 natoms=24 fa_groups="_JSON [[0, 2, 3, 6, 7, 10, 8, 9], [1, 4, 5, 11, 12, 15, 13, 14]]" cell_A="_JSON [[8.9515839677, 0.0, 0.0], [0.0, 8.9515839677, 0.0], [0.0, 0.0, 6.3289724258]]" distortion_family=global_rattle distortion_severity=0.288 rattle_target=all rattle_sigma_A=0.07812 distortion_label=global_rattle minimum_distance_A=0.9892962960697573 minimum_pair_indices="_JSON [4, 12]" minimum_pair_symbols="_JSON [\"N\", \"H\"]" pbc="T T T"
C        4.52506343       4.47184311       3.71550059       0.00000000       0.00000000       0.00000000
C        8.90526710       0.08211404       3.67091576       0.00000000       0.00000000       0.00000000
N        5.29658830       5.29974235       2.98529333       0.00000000       0.00000000       0.00000000
N        3.61581518       3.71849968       3.07442155       0.00000000       0.00000000       0.00000000
N        0.71776330       8.17343941       3.06947259       0.00000000       0.00000000       0.00000000
N        8.16719654       0.78550126       3.15424636       0.00000000       0.00000000       0.00000000
H        4.58760629       4.53497432       4.77408375       0.00000000       0.00000000       0.00000000
H        6.07869099       5.85868854       3.66275118       0.00000000       0.00000000       0.00000000
H        5.50147400       5.38511819       1.98714466       0.00000000       0.00000000       0.00000000
H        3.58100878       3.55577918       1.84777559       0.00000000       0.00000000       0.00000000
H        2.91172318       2.98043614       3.59321515       0.00000000       0.00000000       0.00000000
H        8.90579608       8.88264170       4.83120874       0.00000000       0.00000000       0.00000000
H        1.42070457       7.61970811       3.49132847       0.00000000       0.00000000       0.00000000
H        0.88295997       8.07792549       2.07270853       0.00000000       0.00000000       0.00000000
H        8.17695445       1.03944269       1.98371263       0.00000000       0.00000000       0.00000000
H        7.56560359       1.61496782       3.64732336       0.00000000       0.00000000       0.00000000
Pb       0.08117534       4.41404037       6.27659261       0.00000000       0.00000000       0.00000000
Pb       4.59730903       0.14369088       6.25049787       0.00000000       0.00000000       0.00000000
I        0.00645356       4.26852132       3.13545578       0.00000000       0.00000000       0.00000000
I        4.51317266       0.02888099       3.00459519       0.00000000       0.00000000       0.00000000
I        2.01892612       2.00060204       6.24748533       0.00000000       0.00000000       0.00000000
I        2.48502368       6.44490806       6.32178557       0.00000000       0.00000000       0.00000000
I        6.53567661       2.52636973       6.29109706       0.00000000       0.00000000       0.00000000
I        7.08978466       7.04137712       6.13963831       0.00000000       0.00000000       0.00000000
24
Lattice="8.951583967708043 0.0 0.0 0.0 8.951583967708043 0.0 0.0 0.0 6.328972425814492" Properties=species:S:1:pos:R:3:momenta:R:3 config_id=t-FAPI3_al_global_rattle_07__global_rattle__sev-0.304__seed-new phase=t-FAPI3 mode=active_learning seed=1137749044 seed_origin=new seed_origin_config_id= parity_master_seed new_master_seed=20260901 source=t-FAPI3/CONTCAR formula=C2H10I6N4Pb2 natoms=24 fa_groups="_JSON [[0, 2, 3, 6, 7, 10, 8, 9], [1, 4, 5, 11, 12, 15, 13, 14]]" cell_A="_JSON [[8.9515839677, 0.0, 0.0], [0.0, 8.9515839677, 0.0], [0.0, 0.0, 6.3289724258]]" distortion_family=global_rattle distortion_severity=0.304 rattle_target=all rattle_sigma_A=0.07996 distortion_label=global_rattle minimum_distance_A=0.8751456770804467 minimum_pair_indices="_JSON [3, 9]" minimum_pair_symbols="_JSON [\"N\", \"H\"]" pbc="T T T"
C        4.38949525       4.47095153       3.58189668       0.00000000       0.00000000       0.00000000
C        0.01097833       8.85854633       3.69939773       0.00000000       0.00000000       0.00000000
N        5.19657727       5.34145534       3.04367189       0.00000000       0.00000000       0.00000000
N        3.56400839       3.64895108       2.89917592       0.00000000       0.00000000       0.00000000
N        0.87417002       8.32596320       2.95209672       0.00000000       0.00000000       0.00000000
N        8.32060315       0.77633554       3.10224479       0.00000000       0.00000000       0.00000000
H        4.36454729       4.36719235       4.65137866       0.00000000       0.00000000       0.00000000
H        6.02461530       5.78530795       3.55734251       0.00000000       0.00000000       0.00000000
H        5.33893663       5.29075804       1.97147455       0.00000000       0.00000000       0.00000000
H        3.58015022       3.54811241       2.03000910       0.00000000       0.00000000       0.00000000
H        3.21257607       2.99455799       3.67358906       0.00000000       0.00000000       0.00000000
H        0.02708047       8.91444028       4.77848374       0.00000000       0.00000000       0.00000000
H        1.49444819       7.44325945       3.69994169       0.00000000       0.00000000       0.00000000
H        0.98664253       8.19542209       1.79484630       0.00000000       0.00000000       0.00000000
H        8.17734581       0.83847749       1.90410328       0.00000000       0.00000000       0.00000000
H        7.55374450       1.37821922       3.60987372       0.00000000       0.00000000       0.00000000
Pb       0.00518608       4.51096135       6.23631223       0.00000000       0.00000000       0.00000000
Pb       4.43710054       0.20480198       6.24864034       0.00000000       0.00000000       0.00000000
I        8.85071562       4.44767675       3.14266978       0.00000000       0.00000000       0.00000000
I        4.46470178       8.92013941       3.13591326       0.00000000       0.00000000       0.00000000
I        2.04829535       1.85373883       0.03755835       0.00000000       0.00000000       0.00000000
I        2.51973521       6.35323322       6.13466265       0.00000000       0.00000000       0.00000000
I        6.43373153       2.39668554       0.03104913       0.00000000       0.00000000       0.00000000
I        7.00184690       6.89889425       0.07929172       0.00000000       0.00000000       0.00000000
24
Lattice="8.951583967708043 0.0 0.0 0.0 8.951583967708043 0.0 0.0 0.0 6.328972425814492" Properties=species:S:1:pos:R:3:momenta:R:3 config_id=t-FAPI3_al_global_rattle_08__global_rattle__sev-0.320__seed-parity phase=t-FAPI3 mode=active_learning seed=2130594558 seed_origin=parity seed_origin_config_id=t-FAPI3_parity_14__global_rattle__sev-0.4 parity_master_seed=20260810 new_master_seed source=t-FAPI3/CONTCAR formula=C2H10I6N4Pb2 natoms=24 fa_groups="_JSON [[0, 2, 3, 6, 7, 10, 8, 9], [1, 4, 5, 11, 12, 15, 13, 14]]" cell_A="_JSON [[8.9515839677, 0.0, 0.0], [0.0, 8.9515839677, 0.0], [0.0, 0.0, 6.3289724258]]" distortion_family=global_rattle distortion_severity=0.32 rattle_target=all rattle_sigma_A=0.0818 distortion_label=global_rattle minimum_distance_A=0.9255655987213962 minimum_pair_indices="_JSON [3, 9]" minimum_pair_symbols="_JSON [\"N\", \"H\"]" pbc="T T T"
C        4.54078417       4.52448094       3.68011873       0.00000000       0.00000000       0.00000000
C        0.03647990       8.92657461       3.73103191       0.00000000       0.00000000       0.00000000
N        5.38121798       5.37670093       2.87486066       0.00000000       0.00000000       0.00000000
N        3.59722849       3.50975823       2.96917091       0.00000000       0.00000000       0.00000000
N        0.72054509       8.06005679       2.91858024       0.00000000       0.00000000       0.00000000
N        8.16919163       0.78795820       2.98926761       0.00000000       0.00000000       0.00000000
H        4.58633288       4.50119027       4.84749679       0.00000000       0.00000000       0.00000000
H        5.90438524       5.93099305       3.63330572       0.00000000       0.00000000       0.00000000
H        5.40062196       5.58203314       1.88806749       0.00000000       0.00000000       0.00000000
H        3.52123157       3.56674643       2.04849264       0.00000000       0.00000000       0.00000000
H        2.89116808       3.01766921       3.58439739       0.00000000       0.00000000       0.00000000
H        0.13763385       8.86011431       4.66866634       0.00000000       0.00000000       0.00000000
H        1.39146765       7.46570663       3.67071496       0.00000000       0.00000000       0.00000000
H        0.73232895       8.13179656       1.98813898       0.00000000       0.00000000       0.00000000
H        7.92445283       0.87948871       2.00650371       0.00000000       0.00000000       0.00000000
H        7.53565973       1.48317069       3.54786083       0.00000000       0.00000000       0.00000000
Pb       8.89499414       4.41310611       6.27232950       0.00000000       0.00000000       0.00000000
Pb       4.48386822       0.01493999       0.00339669       0.00000000       0.00000000       0.00000000
I        0.06353879       4.46332856       3.02089345       0.00000000       0.00000000       0.00000000
I        4.51875970       8.94286623       3.05147249       0.00000000       0.00000000       0.00000000
I        1.90289544       1.83057743       0.09338008       0.00000000       0.00000000       0.00000000
I        2.55061470       6.32145648       0.02156833       0.00000000       0.00000000       0.00000000
I        6.21378720       2.47340254       6.25459430       0.00000000       0.00000000       0.00000000
I        6.96336695       7.04123035       6.30309400       0.00000000       0.00000000       0.00000000
24
Lattice="8.951583967708043 0.0 0.0 0.0 8.951583967708043 0.0 0.0 0.0 6.328972425814492" Properties=species:S:1:pos:R:3:momenta:R:3 config_id=t-FAPI3_al_global_rattle_09__global_rattle__sev-0.336__seed-new phase=t-FAPI3 mode=active_learning seed=3683584627 seed_origin=new seed_origin_config_id= parity_master_seed new_master_seed=20260901 source=t-FAPI3/CONTCAR formula=C2H10I6N4Pb2 natoms=24 fa_groups="_JSON [[0, 2, 3, 6, 7, 10, 8, 9], [1, 4, 5, 11, 12, 15, 13, 14]]" cell_A="_JSON [[8.9515839677, 0.0, 0.0], [0.0, 8.9515839677, 0.0], [0.0, 0.0, 6.3289724258]]" distortion_family=global_rattle distortion_severity=0.336 rattle_target=all rattle_sigma_A=0.08363999999999999 distortion_label=global_rattle minimum_distance_A=0.8495800631837149 minimum_pair_indices="_JSON [5, 15]" minimum_pair_symbols="_JSON [\"N\", \"H\"]" pbc="T T T"
C        4.49291827       4.57189471       3.63409293       0.00000000       0.00000000       0.00000000
C        0.04579758       8.93797228       3.68154268       0.00000000       0.00000000       0.00000000
N        5.26257958       5.20086218       3.18817367       0.00000000       0.00000000       0.00000000
N        3.75862981       3.66743547       3.05659032       0.00000000       0.00000000       0.00000000
N        0.73665567       8.07489366       3.10681165       0.00000000       0.00000000       0.00000000
N        8.13679605       0.89599068       3.15510000       0.00000000       0.00000000       0.00000000
H        4.52276984       4.45373761       4.83247840       0.00000000       0.00000000       0.00000000
H        5.88208957       5.91229876       3.64821304       0.00000000       0.00000000       0.00000000
H        5.27241586       5.44901835       2.05829207       0.00000000       0.00000000       0.00000000
H        3.40730197       3.59565072       2.00593107       0.00000000       0.00000000       0.00000000
H        2.97986327       3.33147830       3.53419013       0.00000000       0.00000000       0.00000000
H        0.06445201       8.90092355       4.76498172       0.00000000       0.00000000       0.00000000
H        1.43480577       7.48160164       3.72421089       0.00000000       0.00000000       0.00000000
H        0.96489372       7.94590738       2.12894106       0.00000000       0.00000000       0.00000000
H        8.09601092       0.89205987       2.12682225       0.00000000       0.00000000       0.00000000
H        7.58390998       1.38416333       3.57675240       0.00000000       0.00000000       0.00000000
Pb       8.85292992       4.44602819       6.22096796       0.00000000       0.00000000       0.00000000
Pb       4.35111841       8.91373600       6.27947906       0.00000000       0.00000000       0.00000000
I        0.01148722       4.47738583       3.23337658       0.00000000       0.00000000       0.00000000
I        4.48252085       8.77544331       3.16795874       0.00000000       0.00000000       0.00000000
I        2.01145264       2.00663887       6.10499297       0.00000000       0.00000000       0.00000000
I        2.40139346       6.42401962       0.01255126       0.00000000       0.00000000       0.00000000
I        6.47193895       2.39539910       6.30289395       0.00000000       0.00000000       0.00000000
I        7.04948293       7.03774517       6.32381205       0.00000000       0.00000000       0.00000000
24
Lattice="8.951583967708043 0.0 0.0 0.0 8.951583967708043 0.0 0.0 0.0 6.328972425814492" Properties=species:S:1:pos:R:3:momenta:R:3 config_id=t-FAPI3_al_global_rattle_10__global_rattle__sev-0.352__seed-new phase=t-FAPI3 mode=active_learning seed=2715035719 seed_origin=new seed_origin_config_id= parity_master_seed new_master_seed=20260901 source=t-FAPI3/CONTCAR formula=C2H10I6N4Pb2 natoms=24 fa_groups="_JSON [[0, 2, 3, 6, 7, 10, 8, 9], [1, 4, 5, 11, 12, 15, 13, 14]]" cell_A="_JSON [[8.9515839677, 0.0, 0.0], [0.0, 8.9515839677, 0.0], [0.0, 0.0, 6.3289724258]]" distortion_family=global_rattle distortion_severity=0.352 rattle_target=all rattle_sigma_A=0.08548 distortion_label=global_rattle minimum_distance_A=0.8939613100650722 minimum_pair_indices="_JSON [5, 14]" minimum_pair_symbols="_JSON [\"N\", \"H\"]" pbc="T T T"
C        4.49866326       4.59322938       3.72528279       0.00000000       0.00000000       0.00000000
C        0.08813311       8.94898532       3.59016564       0.00000000       0.00000000       0.00000000
N        5.34099626       5.16856712       3.11016922       0.00000000       0.00000000       0.00000000
N        3.72377576       3.58152329       2.97150428       0.00000000       0.00000000       0.00000000
N        0.78114653       8.09209807       2.98984236       0.00000000       0.00000000       0.00000000
N        8.23621564       0.83327401       2.93772355       0.00000000       0.00000000       0.00000000
H        4.57495741       4.54613923       4.80916471       0.00000000       0.00000000       0.00000000
H        5.86121610       5.80146549       3.61655566       0.00000000       0.00000000       0.00000000
H        5.36950005       5.30223217       1.90682192       0.00000000       0.00000000       0.00000000
H        3.57466246       3.56771379       2.03148303       0.00000000       0.00000000       0.00000000
H        3.01187641       3.14376301       3.87940955       0.00000000       0.00000000       0.00000000
H        0.02266932       8.93732694       4.67991501       0.00000000       0.00000000       0.00000000
H        1.33695101       7.56314090       3.55751540       0.00000000       0.00000000       0.00000000
H        0.86101082       7.99302976       2.04139168       0.00000000       0.00000000       0.00000000
H        7.89354574       0.77785740       2.11390733       0.00000000       0.00000000       0.00000000
H        7.65095917       1.31833221       3.49644819       0.00000000       0.00000000       0.00000000
Pb       0.11317511       4.45702890       6.30694847       0.00000000       0.00000000       0.00000000
Pb       4.38871200       0.02977590       6.07848110       0.00000000       0.00000000       0.00000000
I        8.86661665       4.48175794       3.05117771       0.00000000       0.00000000       0.00000000
I        4.54508895       0.04470298       3.22017924       0.00000000       0.00000000       0.00000000
I        1.80567020       2.02270855       6.21175501       0.00000000       0.00000000       0.00000000
I        2.69648138       6.41533397       6.19488281       0.00000000       0.00000000       0.00000000
I        6.34745191       2.50914932       6.27376223       0.00000000       0.00000000       0.00000000
I        6.82775373       7.06518887       6.26505069       0.00000000       0.00000000       0.00000000
24
Lattice="8.951583967708043 0.0 0.0 0.0 8.951583967708043 0.0 0.0 0.0 6.328972425814492" Properties=species:S:1:pos:R:3:momenta:R:3 config_id=t-FAPI3_al_global_rattle_11__global_rattle__sev-0.368__seed-new phase=t-FAPI3 mode=active_learning seed=1677727419 seed_origin=new seed_origin_config_id= parity_master_seed new_master_seed=20260901 source=t-FAPI3/CONTCAR formula=C2H10I6N4Pb2 natoms=24 fa_groups="_JSON [[0, 2, 3, 6, 7, 10, 8, 9], [1, 4, 5, 11, 12, 15, 13, 14]]" cell_A="_JSON [[8.9515839677, 0.0, 0.0], [0.0, 8.9515839677, 0.0], [0.0, 0.0, 6.3289724258]]" distortion_family=global_rattle distortion_severity=0.368 rattle_target=all rattle_sigma_A=0.08732000000000001 distortion_label=global_rattle minimum_distance_A=0.9357045831780499 minimum_pair_indices="_JSON [4, 12]" minimum_pair_symbols="_JSON [\"N\", \"H\"]" pbc="T T T"
C        4.39824653       4.43851677       3.56412623       0.00000000       0.00000000       0.00000000
C        0.06646621       0.01445243       3.57970603       0.00000000       0.00000000       0.00000000
N        5.23918802       5.24923515       3.13955068       0.00000000       0.00000000       0.00000000
N        3.74318128       3.54647543       2.98353322       0.00000000       0.00000000       0.00000000
N        0.88393777       8.17921442       2.99509209       0.00000000       0.00000000       0.00000000
N        8.08692016       1.02688395       2.95312979       0.00000000       0.00000000       0.00000000
H        4.57557161       4.50083087       4.72922369       0.00000000       0.00000000       0.00000000
H        5.92786166       5.83401377       3.56655446       0.00000000       0.00000000       0.00000000
H        5.37465457       5.29589694       2.13108467       0.00000000       0.00000000       0.00000000
H        3.57371431       3.57103373       2.00272627       0.00000000       0.00000000       0.00000000
H        3.18577240       3.00281662       3.74131848       0.00000000       0.00000000       0.00000000
H        8.95041410       8.94267152       4.71323706       0.00000000       0.00000000       0.00000000
H        1.39391625       7.50538861       3.39686789       0.00000000       0.00000000       0.00000000
H        0.99027296       7.92730150       1.96188475       0.00000000       0.00000000       0.00000000
H        7.99740216       1.05164779       1.98565650       0.00000000       0.00000000       0.00000000
H        7.46909709       1.38288482       3.60553794       0.00000000       0.00000000       0.00000000
Pb       8.94274117       4.43083444       6.30329420       0.00000000       0.00000000       0.00000000
Pb       4.46818106       0.01510303       0.05060851       0.00000000       0.00000000       0.00000000
I        0.06566656       4.37927660       3.30780488       0.00000000       0.00000000       0.00000000
I        4.43456591       8.91950014       3.16968283       0.00000000       0.00000000       0.00000000
I        1.80941539       1.97897829       6.26201506       0.00000000       0.00000000       0.00000000
I        2.44110100       6.46034956       0.00446393       0.00000000       0.00000000       0.00000000
I        6.55429845       2.44004997       6.25776976       0.00000000       0.00000000       0.00000000
I        7.06117157       7.04511864       6.17402189       0.00000000       0.00000000       0.00000000
24
Lattice="8.951583967708043 0.0 0.0 0.0 8.951583967708043 0.0 0.0 0.0 6.328972425814492" Properties=species:S:1:pos:R:3:momenta:R:3 config_id=t-FAPI3_al_global_rattle_12__global_rattle__sev-0.384__seed-new phase=t-FAPI3 mode=active_learning seed=3334769154 seed_origin=new seed_origin_config_id= parity_master_seed new_master_seed=20260901 source=t-FAPI3/CONTCAR formula=C2H10I6N4Pb2 natoms=24 fa_groups="_JSON [[0, 2, 3, 6, 7, 10, 8, 9], [1, 4, 5, 11, 12, 15, 13, 14]]" cell_A="_JSON [[8.9515839677, 0.0, 0.0], [0.0, 8.9515839677, 0.0], [0.0, 0.0, 6.3289724258]]" distortion_family=global_rattle distortion_severity=0.384 rattle_target=all rattle_sigma_A=0.08916 distortion_label=global_rattle minimum_distance_A=0.7294159089244682 minimum_pair_indices="_JSON [2, 7]" minimum_pair_symbols="_JSON [\"N\", \"H\"]" pbc="T T T"
C        4.41201164       4.43268784       3.55088555       0.00000000       0.00000000       0.00000000
C        0.02706732       8.90860926       3.63464886       0.00000000       0.00000000       0.00000000
N        5.41982841       5.32597574       3.14880041       0.00000000       0.00000000       0.00000000
N        3.52462874       3.74808705       2.97699364       0.00000000       0.00000000       0.00000000
N        0.76952552       8.10504666       2.97874018       0.00000000       0.00000000       0.00000000
N        8.14979864       1.04150421       3.12637168       0.00000000       0.00000000       0.00000000
H        4.47638411       4.42854070       4.72320536       0.00000000       0.00000000       0.00000000
H        5.79944945       5.78222677       3.57279384       0.00000000       0.00000000       0.00000000
H        5.23138286       5.30769579       1.99640543       0.00000000       0.00000000       0.00000000
H        3.44173036       3.51338350       2.07437137       0.00000000       0.00000000       0.00000000
H        3.14078064       3.13166234       3.67934324       0.00000000       0.00000000       0.00000000
H        0.13052462       0.02372104       4.68352451       0.00000000       0.00000000       0.00000000
H        1.33768184       7.53845963       3.40738984       0.00000000       0.00000000       0.00000000
H        1.08426732       8.17365746       2.04339352       0.00000000       0.00000000       0.00000000
H        8.09435305       0.83734863       1.84742807       0.00000000       0.00000000       0.00000000
H        7.52989940       1.59478419       3.67522651       0.00000000       0.00000000       0.00000000
Pb       0.18056567       4.45547273       6.13496781       0.00000000       0.00000000       0.00000000
Pb       4.72364745       0.02480126       0.04589357       0.00000000       0.00000000       0.00000000
I        0.04443061       4.53577112       3.26882794       0.00000000       0.00000000       0.00000000
I        4.48071844       0.01831886       3.22910627       0.00000000       0.00000000       0.00000000
I        2.00310122       1.89860898       0.02749855       0.00000000       0.00000000       0.00000000
I        2.47588833       6.43854957       6.32611499       0.00000000       0.00000000       0.00000000
I        6.54447213       2.62984125       6.23375469       0.00000000       0.00000000       0.00000000
I        7.19866182       6.95116518       6.28959512       0.00000000       0.00000000       0.00000000
24
Lattice="8.951583967708043 0.0 0.0 0.0 8.951583967708043 0.0 0.0 0.0 6.328972425814492" Properties=species:S:1:pos:R:3:momenta:R:3 config_id=t-FAPI3_al_global_rattle_13__global_rattle__sev-0.400__seed-parity phase=t-FAPI3 mode=active_learning seed=896969109 seed_origin=parity seed_origin_config_id=t-FAPI3_parity_16__global_rattle__sev-0.6 parity_master_seed=20260810 new_master_seed source=t-FAPI3/CONTCAR formula=C2H10I6N4Pb2 natoms=24 fa_groups="_JSON [[0, 2, 3, 6, 7, 10, 8, 9], [1, 4, 5, 11, 12, 15, 13, 14]]" cell_A="_JSON [[8.9515839677, 0.0, 0.0], [0.0, 8.9515839677, 0.0], [0.0, 0.0, 6.3289724258]]" distortion_family=global_rattle distortion_severity=0.4 rattle_target=all rattle_sigma_A=0.091 distortion_label=global_rattle minimum_distance_A=0.9097441333930884 minimum_pair_indices="_JSON [3, 9]" minimum_pair_symbols="_JSON [\"N\", \"H\"]" pbc="T T T"
C        4.47004003       4.52630624       3.42808962       0.00000000       0.00000000       0.00000000
C        0.01026701       8.94192518       3.62678347       0.00000000       0.00000000       0.00000000
N        5.36920712       5.36626448       2.98830237       0.00000000       0.00000000       0.00000000
N        3.74025485       3.67672748       2.87753225       0.00000000       0.00000000       0.00000000
N        0.72101507       8.01406619       3.09038863       0.00000000       0.00000000       0.00000000
N        8.11397726       0.80804417       3.05662088       0.00000000       0.00000000       0.00000000
H        4.46175668       4.40330179       4.59809062       0.00000000       0.00000000       0.00000000
H        5.87877775       5.85929108       3.62651891       0.00000000       0.00000000       0.00000000
H        5.40573307       5.45430463       1.95458777       0.00000000       0.00000000       0.00000000
H        3.61134308       3.62367563       1.97853189       0.00000000       0.00000000       0.00000000
H        3.03778698       3.14119435       3.67501369       0.00000000       0.00000000       0.00000000
H        0.00859225       0.06661387       4.66621639       0.00000000       0.00000000       0.00000000
H        1.47262462       7.51722070       3.41787122       0.00000000       0.00000000       0.00000000
H        0.92322635       7.82260059       2.15528751       0.00000000       0.00000000       0.00000000
H        7.89263062       1.00257044       1.98312008       0.00000000       0.00000000       0.00000000
H        7.37947275       1.15447769       3.53817850       0.00000000       0.00000000       0.00000000
Pb       8.93748182       4.67588762       6.18202335       0.00000000       0.00000000       0.00000000
Pb       4.36590202       0.00836386       0.01544184       0.00000000       0.00000000       0.00000000
I        8.83960245       4.56245052       3.16983944       0.00000000       0.00000000       0.00000000
I        4.42905206       8.80103220       2.98055371       0.00000000       0.00000000       0.00000000
I        1.71871128       2.06344243       6.13862349       0.00000000       0.00000000       0.00000000
I        2.48540617       6.39853370       6.25553291       0.00000000       0.00000000       0.00000000
I        6.38835848       2.56276499       6.14952828       0.00000000       0.00000000       0.00000000
I        6.95725550       6.83954353       0.06992206       0.00000000       0.00000000       0.00000000
24
Lattice="8.951583967708043 0.0 0.0 0.0 8.951583967708043 0.0 0.0 0.0 6.328972425814492" Properties=species:S:1:pos:R:3:momenta:R:3 config_id=t-FAPI3_al_global_rattle_14__global_rattle__sev-0.416__seed-new phase=t-FAPI3 mode=active_learning seed=3847535413 seed_origin=new seed_origin_config_id= parity_master_seed new_master_seed=20260901 source=t-FAPI3/CONTCAR formula=C2H10I6N4Pb2 natoms=24 fa_groups="_JSON [[0, 2, 3, 6, 7, 10, 8, 9], [1, 4, 5, 11, 12, 15, 13, 14]]" cell_A="_JSON [[8.9515839677, 0.0, 0.0], [0.0, 8.9515839677, 0.0], [0.0, 0.0, 6.3289724258]]" distortion_family=global_rattle distortion_severity=0.416 rattle_target=all rattle_sigma_A=0.09284 distortion_label=global_rattle minimum_distance_A=0.6702099975149571 minimum_pair_indices="_JSON [2, 7]" minimum_pair_symbols="_JSON [\"N\", \"H\"]" pbc="T T T"
C        4.50248380       4.39264099       3.64879959       0.00000000       0.00000000       0.00000000
C        0.04983702       0.00480022       3.54645638       0.00000000       0.00000000       0.00000000
N        5.41129648       5.31625304       3.16137533       0.00000000       0.00000000       0.00000000
N        3.48992063       3.90890163       2.90371975       0.00000000       0.00000000       0.00000000
N        0.64227042       8.26376121       2.91659752       0.00000000       0.00000000       0.00000000
N        8.07528597       0.95638653       2.98616476       0.00000000       0.00000000       0.00000000
H        4.48805486       4.50568233       4.68139158       0.00000000       0.00000000       0.00000000
H        5.77687226       5.80031031       3.44637418       0.00000000       0.00000000       0.00000000
H        5.19574592       5.33265430       1.91902162       0.00000000       0.00000000       0.00000000
H        3.52631541       3.68890198       2.06644597       0.00000000       0.00000000       0.00000000
H        3.07599841       3.04420428       3.61393421       0.00000000       0.00000000       0.00000000
H        8.93081717       8.93635664       4.75488251       0.00000000       0.00000000       0.00000000
H        1.28133735       7.58688874       3.49988982       0.00000000       0.00000000       0.00000000
H        0.85404204       8.06474586       1.92904140       0.00000000       0.00000000       0.00000000
H        8.06214489       0.82276515       1.82371452       0.00000000       0.00000000       0.00000000
H        7.47808200       1.32587124       3.63879625       0.00000000       0.00000000       0.00000000
Pb       8.89222038       4.55390784       6.25042716       0.00000000       0.00000000       0.00000000
Pb       4.44223355       8.94882451       6.26114091       0.00000000       0.00000000       0.00000000
I        8.90087707       4.47754889       3.09276650       0.00000000       0.00000000       0.00000000
I        4.48637544       0.00515934       2.94675185       0.00000000       0.00000000       0.00000000
I        1.85328593       1.95409798       0.02847113       0.00000000       0.00000000       0.00000000
I        2.36320668       6.38217715       6.32819742       0.00000000       0.00000000       0.00000000
I        6.31335929       2.66903663       6.14178293       0.00000000       0.00000000       0.00000000
I        7.06637208       7.00918188       6.29304919       0.00000000       0.00000000       0.00000000
24
Lattice="8.951583967708043 0.0 0.0 0.0 8.951583967708043 0.0 0.0 0.0 6.328972425814492" Properties=species:S:1:pos:R:3:momenta:R:3 config_id=t-FAPI3_al_global_rattle_15__global_rattle__sev-0.432__seed-new phase=t-FAPI3 mode=active_learning seed=2221333174 seed_origin=new seed_origin_config_id= parity_master_seed new_master_seed=20260901 source=t-FAPI3/CONTCAR formula=C2H10I6N4Pb2 natoms=24 fa_groups="_JSON [[0, 2, 3, 6, 7, 10, 8, 9], [1, 4, 5, 11, 12, 15, 13, 14]]" cell_A="_JSON [[8.9515839677, 0.0, 0.0], [0.0, 8.9515839677, 0.0], [0.0, 0.0, 6.3289724258]]" distortion_family=global_rattle distortion_severity=0.432 rattle_target=all rattle_sigma_A=0.09468 distortion_label=global_rattle minimum_distance_A=0.7692973360000752 minimum_pair_indices="_JSON [2, 8]" minimum_pair_symbols="_JSON [\"N\", \"H\"]" pbc="T T T"
C        4.34964409       4.50702414       3.61512363       0.00000000       0.00000000       0.00000000
C        8.87946428       8.87790667       3.65514150       0.00000000       0.00000000       0.00000000
N        5.30544107       5.37165102       2.93286122       0.00000000       0.00000000       0.00000000
N        3.59644855       3.73193503       2.99041939       0.00000000       0.00000000       0.00000000
N        0.83960662       8.18917941       3.02261130       0.00000000       0.00000000       0.00000000
N        8.11550522       0.79599435       2.92372273       0.00000000       0.00000000       0.00000000
H        4.42765276       4.51045623       4.63587469       0.00000000       0.00000000       0.00000000
H        5.78643450       5.86380783       3.79180886       0.00000000       0.00000000       0.00000000
H        5.24021211       5.23451320       2.17870156       0.00000000       0.00000000       0.00000000
H        3.73509957       3.39803916       2.03150066       0.00000000       0.00000000       0.00000000
H        3.08567927       3.04411229       3.42331462       0.00000000       0.00000000       0.00000000
H        0.04133454       0.03996185       4.67874792       0.00000000       0.00000000       0.00000000
H        1.52858210       7.63679784       3.54093420       0.00000000       0.00000000       0.00000000
H        0.96616653       8.12436403       2.14108338       0.00000000       0.00000000       0.00000000
H        8.08238823       0.96978024       2.05367175       0.00000000       0.00000000       0.00000000
H        7.48100264       1.62315856       3.58640800       0.00000000       0.00000000       0.00000000
Pb       0.03934644       4.45795698       6.28155084       0.00000000       0.00000000       0.00000000
Pb       4.27947413       8.81634098       6.12385961       0.00000000       0.00000000       0.00000000
I        0.06286822       4.49370142       3.04110356       0.00000000       0.00000000       0.00000000
I        4.42665022       0.09486082       3.14035918       0.00000000       0.00000000       0.00000000
I        1.94848639       1.95872169       6.25272393       0.00000000       0.00000000       0.00000000
I        2.57697558       6.60990153       6.22684522       0.00000000       0.00000000       0.00000000
I        6.54778274       2.39582033       6.19063305       0.00000000       0.00000000       0.00000000
I        7.27474179       6.82312669       6.14844634       0.00000000       0.00000000       0.00000000
24
Lattice="8.951583967708043 0.0 0.0 0.0 8.951583967708043 0.0 0.0 0.0 6.328972425814492" Properties=species:S:1:pos:R:3:momenta:R:3 config_id=t-FAPI3_al_global_rattle_16__global_rattle__sev-0.448__seed-new phase=t-FAPI3 mode=active_learning seed=2672412283 seed_origin=new seed_origin_config_id= parity_master_seed new_master_seed=20260901 source=t-FAPI3/CONTCAR formula=C2H10I6N4Pb2 natoms=24 fa_groups="_JSON [[0, 2, 3, 6, 7, 10, 8, 9], [1, 4, 5, 11, 12, 15, 13, 14]]" cell_A="_JSON [[8.9515839677, 0.0, 0.0], [0.0, 8.9515839677, 0.0], [0.0, 0.0, 6.3289724258]]" distortion_family=global_rattle distortion_severity=0.448 rattle_target=all rattle_sigma_A=0.09652 distortion_label=global_rattle minimum_distance_A=0.8551721462456009 minimum_pair_indices="_JSON [3, 9]" minimum_pair_symbols="_JSON [\"N\", \"H\"]" pbc="T T T"
C        4.39333559       4.36863805       3.75430679       0.00000000       0.00000000       0.00000000
C        0.15289351       0.05413162       3.58927436       0.00000000       0.00000000       0.00000000
N        5.38087663       5.20619259       3.08418925       0.00000000       0.00000000       0.00000000
N        3.57575540       3.59828180       2.98485552       0.00000000       0.00000000       0.00000000
N        0.88526006       8.11080008       3.00090383       0.00000000       0.00000000       0.00000000
N        8.24371264       0.74590137       3.10230528       0.00000000       0.00000000       0.00000000
H        4.61781617       4.39597888       4.62812822       0.00000000       0.00000000       0.00000000
H        5.94663428       5.99924150       3.60806232       0.00000000       0.00000000       0.00000000
H        5.25114168       5.36565358       2.10004455       0.00000000       0.00000000       0.00000000
H        3.47472086       3.62815824       2.13619845       0.00000000       0.00000000       0.00000000
H        3.12262017       3.02624986       3.62309369       0.00000000       0.00000000       0.00000000
H        8.94937474       8.94870248       4.87154481       0.00000000       0.00000000       0.00000000
H        1.42761686       7.55898621       3.76294651       0.00000000       0.00000000       0.00000000
H        0.80560434       8.12198013       2.01272157       0.00000000       0.00000000       0.00000000
H        7.91542345       0.91141106       1.90659747       0.00000000       0.00000000       0.00000000
H        7.54255699       1.52084001       3.51002064       0.00000000       0.00000000       0.00000000
Pb       8.87420012       4.50589129       0.15673281       0.00000000       0.00000000       0.00000000
Pb       4.22793985       0.04678565       0.10235151       0.00000000       0.00000000       0.00000000
I        0.15547480       4.30161438       3.15743668       0.00000000       0.00000000       0.00000000
I        4.43392740       8.81508864       3.02712621       0.00000000       0.00000000       0.00000000
I        1.80255170       1.94120107       6.29007476       0.00000000       0.00000000       0.00000000
I        2.61896917       6.52413431       6.19448896       0.00000000       0.00000000       0.00000000
I        6.46172142       2.48065701       0.01159348       0.00000000       0.00000000       0.00000000
I        6.99592790       6.82314445       0.03309359       0.00000000       0.00000000       0.00000000
24
Lattice="8.951583967708043 0.0 0.0 0.0 8.951583967708043 0.0 0.0 0.0 6.328972425814492" Properties=species:S:1:pos:R:3:momenta:R:3 config_id=t-FAPI3_al_global_rattle_17__global_rattle__sev-0.464__seed-new phase=t-FAPI3 mode=active_learning seed=2062456882 seed_origin=new seed_origin_config_id= parity_master_seed new_master_seed=20260901 source=t-FAPI3/CONTCAR formula=C2H10I6N4Pb2 natoms=24 fa_groups="_JSON [[0, 2, 3, 6, 7, 10, 8, 9], [1, 4, 5, 11, 12, 15, 13, 14]]" cell_A="_JSON [[8.9515839677, 0.0, 0.0], [0.0, 8.9515839677, 0.0], [0.0, 0.0, 6.3289724258]]" distortion_family=global_rattle distortion_severity=0.464 rattle_target=all rattle_sigma_A=0.09836 distortion_label=global_rattle minimum_distance_A=0.9376276562451982 minimum_pair_indices="_JSON [2, 8]" minimum_pair_symbols="_JSON [\"N\", \"H\"]" pbc="T T T"
C        4.56866533       4.50455590       3.39932693       0.00000000       0.00000000       0.00000000
C        0.03191061       8.92595776       3.49522274       0.00000000       0.00000000       0.00000000
N        5.22687004       5.35773351       3.02127745       0.00000000       0.00000000       0.00000000
N        3.74754685       3.59000382       3.02143079       0.00000000       0.00000000       0.00000000
N        0.99404372       8.09024407       2.91838179       0.00000000       0.00000000       0.00000000
N        8.03311968       0.66439180       3.19777287       0.00000000       0.00000000       0.00000000
H        4.45113874       4.38934402       4.60256000       0.00000000       0.00000000       0.00000000
H        5.85281507       6.08797681       3.58141697       0.00000000       0.00000000       0.00000000
H        5.50937933       5.52889773       2.14375996       0.00000000       0.00000000       0.00000000
H        3.60522372       3.58637981       1.93890761       0.00000000       0.00000000       0.00000000
H        2.97563848       2.99428714       3.71955495       0.00000000       0.00000000       0.00000000
H        0.04008791       8.80564190       4.64150449       0.00000000       0.00000000       0.00000000
H        1.38526207       7.42206601       3.67850214       0.00000000       0.00000000       0.00000000
H        0.76724899       8.01377333       1.87257293       0.00000000       0.00000000       0.00000000
H        8.07205180       1.01405949       1.88491922       0.00000000       0.00000000       0.00000000
H        7.60129235       1.51387353       3.46995164       0.00000000       0.00000000       0.00000000
Pb       0.09728461       4.41417176       6.31059592       0.00000000       0.00000000       0.00000000
Pb       4.41481343       8.86944645       6.24892172       0.00000000       0.00000000       0.00000000
I        8.92235115       4.64632292       3.10568926       0.00000000       0.00000000       0.00000000
I        4.38556324       8.78166974       3.16479763       0.00000000       0.00000000       0.00000000
I        1.84719501       1.92928593       0.04923478       0.00000000       0.00000000       0.00000000
I        2.51822660       6.49597665       6.24022325       0.00000000       0.00000000       0.00000000
I        6.37623923       2.71740784       0.03450418       0.00000000       0.00000000       0.00000000
I        6.96888422       6.77116819       6.11389749       0.00000000       0.00000000       0.00000000
24
Lattice="8.951583967708043 0.0 0.0 0.0 8.951583967708043 0.0 0.0 0.0 6.328972425814492" Properties=species:S:1:pos:R:3:momenta:R:3 config_id=t-FAPI3_al_global_rattle_18__global_rattle__sev-0.480__seed-parity phase=t-FAPI3 mode=active_learning seed=2856594127 seed_origin=parity seed_origin_config_id=t-FAPI3_parity_18__global_rattle__sev-0.8 parity_master_seed=20260810 new_master_seed source=t-FAPI3/CONTCAR formula=C2H10I6N4Pb2 natoms=24 fa_groups="_JSON [[0, 2, 3, 6, 7, 10, 8, 9], [1, 4, 5, 11, 12, 15, 13, 14]]" cell_A="_JSON [[8.9515839677, 0.0, 0.0], [0.0, 8.9515839677, 0.0], [0.0, 0.0, 6.3289724258]]" distortion_family=global_rattle distortion_severity=0.48 rattle_target=all rattle_sigma_A=0.1002 distortion_label=global_rattle minimum_distance_A=0.8328663533694458 minimum_pair_indices="_JSON [3, 10]" minimum_pair_symbols="_JSON [\"N\", \"H\"]" pbc="T T T"
C        4.44060979       4.50921769       3.64338306       0.00000000       0.00000000       0.00000000
C        0.18266005       8.88868549       3.48886513       0.00000000       0.00000000       0.00000000
N        5.37403241       5.30762717       2.97774831       0.00000000       0.00000000       0.00000000
N        3.53366667       3.60420840       3.13462757       0.00000000       0.00000000       0.00000000
N        0.93722619       8.12481636       3.11453245       0.00000000       0.00000000       0.00000000
N        8.28889107       0.75862303       2.91376824       0.00000000       0.00000000       0.00000000
H        4.42701928       4.37338887       4.52686209       0.00000000       0.00000000       0.00000000
H        5.82319953       5.88034368       3.62965685       0.00000000       0.00000000       0.00000000
H        5.43153407       5.52560302       2.04416102       0.00000000       0.00000000       0.00000000
H        3.64448460       3.62205533       1.99401869       0.00000000       0.00000000       0.00000000
H        3.23950203       3.08428637       3.71498488       0.00000000       0.00000000       0.00000000
H        0.20888179       0.08575353       4.66793296       0.00000000       0.00000000       0.00000000
H        1.38540273       7.39370595       3.61112634       0.00000000       0.00000000       0.00000000
H        0.92596172       8.03976169       2.10889484       0.00000000       0.00000000       0.00000000
H        7.95237125       0.89200479       1.98432749       0.00000000       0.00000000       0.00000000
H        7.63273688       1.45533996       3.58433631       0.00000000       0.00000000       0.00000000
Pb       8.93747504       4.59303191       6.16648445       0.00000000       0.00000000       0.00000000
Pb       4.45430765       0.01524791       6.14008284       0.00000000       0.00000000       0.00000000
I        0.02132081       4.36651096       3.18477620       0.00000000       0.00000000       0.00000000
I        4.54684640       0.05024512       3.14544765       0.00000000       0.00000000       0.00000000
I        1.93006720       2.04003900       0.01100679       0.00000000       0.00000000       0.00000000
I        2.41050194       6.19322731       6.07790649       0.00000000       0.00000000       0.00000000
I        6.49303098       2.55997598       0.02443361       0.00000000       0.00000000       0.00000000
I        7.22583910       7.00304663       6.16338430       0.00000000       0.00000000       0.00000000
24
Lattice="8.951583967708043 0.0 0.0 0.0 8.951583967708043 0.0 0.0 0.0 6.328972425814492" Properties=species:S:1:pos:R:3:momenta:R:3 config_id=t-FAPI3_al_global_rattle_19__global_rattle__sev-0.496__seed-new phase=t-FAPI3 mode=active_learning seed=3228527386 seed_origin=new seed_origin_config_id= parity_master_seed new_master_seed=20260901 source=t-FAPI3/CONTCAR formula=C2H10I6N4Pb2 natoms=24 fa_groups="_JSON [[0, 2, 3, 6, 7, 10, 8, 9], [1, 4, 5, 11, 12, 15, 13, 14]]" cell_A="_JSON [[8.9515839677, 0.0, 0.0], [0.0, 8.9515839677, 0.0], [0.0, 0.0, 6.3289724258]]" distortion_family=global_rattle distortion_severity=0.496 rattle_target=all rattle_sigma_A=0.10203999999999999 distortion_label=global_rattle minimum_distance_A=0.896300640525187 minimum_pair_indices="_JSON [0, 6]" minimum_pair_symbols="_JSON [\"C\", \"H\"]" pbc="T T T"
C        4.40943256       4.54541839       3.86105840       0.00000000       0.00000000       0.00000000
C        0.00334983       8.87203647       3.64876505       0.00000000       0.00000000       0.00000000
N        5.38396028       5.31905154       2.97800847       0.00000000       0.00000000       0.00000000
N        3.69515857       3.87835827       2.87997744       0.00000000       0.00000000       0.00000000
N        0.86494621       8.09867024       3.24749485       0.00000000       0.00000000       0.00000000
N        8.14329214       0.69571107       3.05586983       0.00000000       0.00000000       0.00000000
H        4.34453333       4.50252018       4.75397646       0.00000000       0.00000000       0.00000000
H        5.97428360       5.85764943       3.50973422       0.00000000       0.00000000       0.00000000
H        5.58751559       5.44870481       2.01279676       0.00000000       0.00000000       0.00000000
H        3.74644341       3.54363672       2.02637618       0.00000000       0.00000000       0.00000000
H        2.98034259       3.03927030       3.60434611       0.00000000       0.00000000       0.00000000
H        8.88600565       0.06216434       4.70949822       0.00000000       0.00000000       0.00000000
H        1.52770011       7.47729907       3.46836027       0.00000000       0.00000000       0.00000000
H        0.92098637       7.98341556       2.03860894       0.00000000       0.00000000       0.00000000
H        8.27730217       0.88905555       1.95722096       0.00000000       0.00000000       0.00000000
H        7.48031621       1.50727519       3.75250530       0.00000000       0.00000000       0.00000000
Pb       8.86361846       4.33276810       6.31677289       0.00000000       0.00000000       0.00000000
Pb       4.50722481       8.92058956       0.11220436       0.00000000       0.00000000       0.00000000
I        8.91871396       4.38273678       3.17939644       0.00000000       0.00000000       0.00000000
I        4.39332164       8.90341738       3.34919001       0.00000000       0.00000000       0.00000000
I        1.94110282       1.92152698       6.20661958       0.00000000       0.00000000       0.00000000
I        2.43956544       6.53201935       0.03063867       0.00000000       0.00000000       0.00000000
I        6.55017253       2.54023059       0.05773402       0.00000000       0.00000000       0.00000000
I        6.82155205       6.95412717       6.13504799       0.00000000       0.00000000       0.00000000
24
Lattice="8.951583967708043 0.0 0.0 0.0 8.951583967708043 0.0 0.0 0.0 6.328972425814492" Properties=species:S:1:pos:R:3:momenta:R:3 config_id=t-FAPI3_al_global_rattle_20__global_rattle__sev-0.512__seed-new phase=t-FAPI3 mode=active_learning seed=4223592017 seed_origin=new seed_origin_config_id= parity_master_seed new_master_seed=20260901 source=t-FAPI3/CONTCAR formula=C2H10I6N4Pb2 natoms=24 fa_groups="_JSON [[0, 2, 3, 6, 7, 10, 8, 9], [1, 4, 5, 11, 12, 15, 13, 14]]" cell_A="_JSON [[8.9515839677, 0.0, 0.0], [0.0, 8.9515839677, 0.0], [0.0, 0.0, 6.3289724258]]" distortion_family=global_rattle distortion_severity=0.512 rattle_target=all rattle_sigma_A=0.10388 distortion_label=global_rattle minimum_distance_A=0.8822446179138912 minimum_pair_indices="_JSON [3, 9]" minimum_pair_symbols="_JSON [\"N\", \"H\"]" pbc="T T T"
C        4.49277861       4.44634161       3.65913920       0.00000000       0.00000000       0.00000000
C        0.00040875       0.13321229       3.70004977       0.00000000       0.00000000       0.00000000
N        5.29756603       5.46671117       2.88662965       0.00000000       0.00000000       0.00000000
N        3.76034202       3.52735727       2.93727432       0.00000000       0.00000000       0.00000000
N        0.82036051       7.99271675       3.11013644       0.00000000       0.00000000       0.00000000
N        8.20551668       0.81031358       2.95784967       0.00000000       0.00000000       0.00000000
H        4.51380534       4.60208297       4.84748290       0.00000000       0.00000000       0.00000000
H        5.91664428       5.87590999       3.65914105       0.00000000       0.00000000       0.00000000
H        5.29779083       5.18284188       1.89571932       0.00000000       0.00000000       0.00000000
H        3.73582473       3.56609009       2.05622141       0.00000000       0.00000000       0.00000000
H        3.07420536       3.13110629       3.60869794       0.00000000       0.00000000       0.00000000
H        0.02543168       8.83920505       4.74344645       0.00000000       0.00000000       0.00000000
H        1.39501589       7.48055263       3.64617395       0.00000000       0.00000000       0.00000000
H        0.98273664       7.96270747       2.09262585       0.00000000       0.00000000       0.00000000
H        8.16169137       1.13269554       2.03562337       0.00000000       0.00000000       0.00000000
H        7.56210916       1.31014367       3.56446513       0.00000000       0.00000000       0.00000000
Pb       0.01672712       4.45117794       6.21693789       0.00000000       0.00000000       0.00000000
Pb       4.44152437       0.04256882       6.18829242       0.00000000       0.00000000       0.00000000
I        8.93112566       4.64411856       3.31710879       0.00000000       0.00000000       0.00000000
I        4.53895276       8.72898958       3.17739583       0.00000000       0.00000000       0.00000000
I        2.06163995       1.84119657       6.22081385       0.00000000       0.00000000       0.00000000
I        2.71360769       6.27687815       6.32412178       0.00000000       0.00000000       0.00000000
I        6.59454814       2.52689523       0.08590334       0.00000000       0.00000000       0.00000000
I        7.05468932       6.86644786       6.26537436       0.00000000       0.00000000       0.00000000
24
Lattice="8.951583967708043 0.0 0.0 0.0 8.951583967708043 0.0 0.0 0.0 6.328972425814492" Properties=species:S:1:pos:R:3:momenta:R:3 config_id=t-FAPI3_al_global_rattle_21__global_rattle__sev-0.528__seed-new phase=t-FAPI3 mode=active_learning seed=1056656662 seed_origin=new seed_origin_config_id= parity_master_seed new_master_seed=20260901 source=t-FAPI3/CONTCAR formula=C2H10I6N4Pb2 natoms=24 fa_groups="_JSON [[0, 2, 3, 6, 7, 10, 8, 9], [1, 4, 5, 11, 12, 15, 13, 14]]" cell_A="_JSON [[8.9515839677, 0.0, 0.0], [0.0, 8.9515839677, 0.0], [0.0, 0.0, 6.3289724258]]" distortion_family=global_rattle distortion_severity=0.528 rattle_target=all rattle_sigma_A=0.10572000000000001 distortion_label=global_rattle minimum_distance_A=0.9059469706397394 minimum_pair_indices="_JSON [2, 7]" minimum_pair_symbols="_JSON [\"N\", \"H\"]" pbc="T T T"
C        4.44453426       4.63894327       3.52837330       0.00000000       0.00000000       0.00000000
C        0.05859967       8.88181331       3.54280087       0.00000000       0.00000000       0.00000000
N        5.37294088       5.39923453       2.94793993       0.00000000       0.00000000       0.00000000
N        3.81834475       3.59862162       2.95633107       0.00000000       0.00000000       0.00000000
N        0.95252466       8.23277794       2.98539899       0.00000000       0.00000000       0.00000000
N        8.17885127       0.88975067       2.94436073       0.00000000       0.00000000       0.00000000
H        4.28706428       4.49983460       4.63552617       0.00000000       0.00000000       0.00000000
H        5.81718501       5.86582132       3.58487307       0.00000000       0.00000000       0.00000000
H        5.33381080       5.29369525       1.68021561       0.00000000       0.00000000       0.00000000
H        3.42835403       3.65100652       1.99420183       0.00000000       0.00000000       0.00000000
H        2.92306757       3.08245424       3.64589810       0.00000000       0.00000000       0.00000000
H        8.79977518       0.05079613       4.52568995       0.00000000       0.00000000       0.00000000
H        1.42734261       7.46846286       3.63646576       0.00000000       0.00000000       0.00000000
H        1.07249175       7.92209256       2.09577196       0.00000000       0.00000000       0.00000000
H        8.09445576       0.91311751       1.97423457       0.00000000       0.00000000       0.00000000
H        7.38857013       1.32593577       3.43491807       0.00000000       0.00000000       0.00000000
Pb       0.10127367       4.56599664       6.19776268       0.00000000       0.00000000       0.00000000
Pb       4.56238887       8.77065013       6.31825486       0.00000000       0.00000000       0.00000000
I        0.01734156       4.47973413       3.02255387       0.00000000       0.00000000       0.00000000
I        4.30336416       0.05447892       3.39398987       0.00000000       0.00000000       0.00000000
I        1.94732669       2.04570050       0.08416631       0.00000000       0.00000000       0.00000000
I        2.47659231       6.45997079       6.31296440       0.00000000       0.00000000       0.00000000
I        6.44983310       2.58452530       6.19688708       0.00000000       0.00000000       0.00000000
I        7.22335394       7.24622622       0.07038623       0.00000000       0.00000000       0.00000000
24
Lattice="8.951583967708043 0.0 0.0 0.0 8.951583967708043 0.0 0.0 0.0 6.328972425814492" Properties=species:S:1:pos:R:3:momenta:R:3 config_id=t-FAPI3_al_global_rattle_22__global_rattle__sev-0.544__seed-new phase=t-FAPI3 mode=active_learning seed=2748656156 seed_origin=new seed_origin_config_id= parity_master_seed new_master_seed=20260901 source=t-FAPI3/CONTCAR formula=C2H10I6N4Pb2 natoms=24 fa_groups="_JSON [[0, 2, 3, 6, 7, 10, 8, 9], [1, 4, 5, 11, 12, 15, 13, 14]]" cell_A="_JSON [[8.9515839677, 0.0, 0.0], [0.0, 8.9515839677, 0.0], [0.0, 0.0, 6.3289724258]]" distortion_family=global_rattle distortion_severity=0.544 rattle_target=all rattle_sigma_A=0.10756 distortion_label=global_rattle minimum_distance_A=0.8340266702609576 minimum_pair_indices="_JSON [2, 8]" minimum_pair_symbols="_JSON [\"N\", \"H\"]" pbc="T T T"
C        4.50739898       4.38568530       3.72436105       0.00000000       0.00000000       0.00000000
C        8.75264491       8.76274768       3.60392823       0.00000000       0.00000000       0.00000000
N        5.35744172       5.21039539       2.77085719       0.00000000       0.00000000       0.00000000
N        3.76092552       3.71969920       3.09313060       0.00000000       0.00000000       0.00000000
N        0.76033178       7.92673302       3.01642607       0.00000000       0.00000000       0.00000000
N        8.08589418       0.58416052       3.01473853       0.00000000       0.00000000       0.00000000
H        4.42487621       4.32008835       4.58490149       0.00000000       0.00000000       0.00000000
H        5.83041139       6.05471088       3.56817792       0.00000000       0.00000000       0.00000000
H        5.42493506       5.38572191       1.95826520       0.00000000       0.00000000       0.00000000
H        3.49148708       3.59899135       2.22397906       0.00000000       0.00000000       0.00000000
H        3.13195541       3.00516008       3.51137113       0.00000000       0.00000000       0.00000000
H        0.04130977       8.75511182       4.80462303       0.00000000       0.00000000       0.00000000
H        1.48068661       7.59346554       3.65007625       0.00000000       0.00000000       0.00000000
H        0.98998497       8.18797400       2.02830289       0.00000000       0.00000000       0.00000000
H        7.86362898       0.75429798       1.88262348       0.00000000       0.00000000       0.00000000
H        7.65376127       1.34625739       3.60875713       0.00000000       0.00000000       0.00000000
Pb       8.91229883       4.45167791       0.11624352       0.00000000       0.00000000       0.00000000
Pb       4.61557205       8.87516001       0.13104690       0.00000000       0.00000000       0.00000000
I        8.82231156       4.48196902       3.14290091       0.00000000       0.00000000       0.00000000
I        4.35398768       0.08353568       3.15954224       0.00000000       0.00000000       0.00000000
I        1.67655160       1.93041387       6.26793645       0.00000000       0.00000000       0.00000000
I        2.54034784       6.46582424       6.28318242       0.00000000       0.00000000       0.00000000
I        6.42384866       2.47599362       0.04799053       0.00000000       0.00000000       0.00000000
I        7.10343922       7.10396688       0.07495743       0.00000000       0.00000000       0.00000000
24
Lattice="8.951583967708043 0.0 0.0 0.0 8.951583967708043 0.0 0.0 0.0 6.328972425814492" Properties=species:S:1:pos:R:3:momenta:R:3 config_id=t-FAPI3_al_global_rattle_23__global_rattle__sev-0.560__seed-parity phase=t-FAPI3 mode=active_learning seed=3728018837 seed_origin=parity seed_origin_config_id=t-FAPI3_parity_20__global_rattle__sev-1.0 parity_master_seed=20260810 new_master_seed source=t-FAPI3/CONTCAR formula=C2H10I6N4Pb2 natoms=24 fa_groups="_JSON [[0, 2, 3, 6, 7, 10, 8, 9], [1, 4, 5, 11, 12, 15, 13, 14]]" cell_A="_JSON [[8.9515839677, 0.0, 0.0], [0.0, 8.9515839677, 0.0], [0.0, 0.0, 6.3289724258]]" distortion_family=global_rattle distortion_severity=0.56 rattle_target=all rattle_sigma_A=0.10940000000000001 distortion_label=global_rattle minimum_distance_A=0.8000543822122673 minimum_pair_indices="_JSON [2, 8]" minimum_pair_symbols="_JSON [\"N\", \"H\"]" pbc="T T T"
C        4.49575407       4.40631651       3.60941604       0.00000000       0.00000000       0.00000000
C        0.12395326       8.74858908       3.71527298       0.00000000       0.00000000       0.00000000
N        5.17742752       5.04417701       2.68902660       0.00000000       0.00000000       0.00000000
N        3.54957413       3.43022903       2.95420341       0.00000000       0.00000000       0.00000000
N        0.88466582       8.19831654       3.00839904       0.00000000       0.00000000       0.00000000
N        8.20393310       0.82234371       2.91185590       0.00000000       0.00000000       0.00000000
H        4.48498280       4.47554090       4.79576406       0.00000000       0.00000000       0.00000000
H        5.76706590       5.82798465       3.56891850       0.00000000       0.00000000       0.00000000
H        5.35938948       5.46059479       2.03056392       0.00000000       0.00000000       0.00000000
H        3.65991695       3.56665312       2.09068899       0.00000000       0.00000000       0.00000000
H        3.16699356       2.84930243       3.55542921       0.00000000       0.00000000       0.00000000
H        0.01517777       8.93946477       4.70975469       0.00000000       0.00000000       0.00000000
H        1.38843709       7.71386157       3.48592774       0.00000000       0.00000000       0.00000000
H        0.83791945       8.08966182       1.93997053       0.00000000       0.00000000       0.00000000
H        7.93670218       0.89592172       2.04754501       0.00000000       0.00000000       0.00000000
H        7.55596199       1.41400564       3.65247086       0.00000000       0.00000000       0.00000000
Pb       0.02192784       4.19691747       0.12887622       0.00000000       0.00000000       0.00000000
Pb       4.38981145       0.05086709       6.16185881       0.00000000       0.00000000       0.00000000
I        0.02867306       4.56896999       2.88592594       0.00000000       0.00000000       0.00000000
I        4.77635116       0.01153044       3.16173419       0.00000000       0.00000000       0.00000000
I        1.90368713       2.03614609       6.31169666       0.00000000       0.00000000       0.00000000
I        2.66569620       6.45112684       0.05355624       0.00000000       0.00000000       0.00000000
I        6.68299757       2.49587664       6.31446508       0.00000000       0.00000000       0.00000000
I        6.96709887       6.85705785       6.23377548       0.00000000       0.00000000       0.00000000
24
Lattice="8.951583967708043 0.0 0.0 0.0 8.951583967708043 0.0 0.0 0.0 6.328972425814492" Properties=species:S:1:pos:R:3:momenta:R:3 config_id=t-FAPI3_al_global_rattle_24__global_rattle__sev-0.576__seed-new phase=t-FAPI3 mode=active_learning seed=2530019190 seed_origin=new seed_origin_config_id= parity_master_seed new_master_seed=20260901 source=t-FAPI3/CONTCAR formula=C2H10I6N4Pb2 natoms=24 fa_groups="_JSON [[0, 2, 3, 6, 7, 10, 8, 9], [1, 4, 5, 11, 12, 15, 13, 14]]" cell_A="_JSON [[8.9515839677, 0.0, 0.0], [0.0, 8.9515839677, 0.0], [0.0, 0.0, 6.3289724258]]" distortion_family=global_rattle distortion_severity=0.576 rattle_target=all rattle_sigma_A=0.11123999999999999 distortion_label=global_rattle minimum_distance_A=0.8956204233134386 minimum_pair_indices="_JSON [5, 15]" minimum_pair_symbols="_JSON [\"N\", \"H\"]" pbc="T T T"
C        4.54524598       4.64732775       3.58084404       0.00000000       0.00000000       0.00000000
C        0.02467294       0.03931389       3.62051301       0.00000000       0.00000000       0.00000000
N        5.18483480       5.40269059       3.21933692       0.00000000       0.00000000       0.00000000
N        3.52803139       3.77160412       2.96601662       0.00000000       0.00000000       0.00000000
N        0.69150029       8.13385685       3.07559875       0.00000000       0.00000000       0.00000000
N        7.90436244       0.88199958       3.08893231       0.00000000       0.00000000       0.00000000
H        4.41215543       4.63736087       4.65114647       0.00000000       0.00000000       0.00000000
H        5.70177235       6.07170538       3.63328431       0.00000000       0.00000000       0.00000000
H        5.33595208       5.35873439       2.09216738       0.00000000       0.00000000       0.00000000
H        3.43617581       3.55283489       1.88723014       0.00000000       0.00000000       0.00000000
H        3.01425159       3.29259533       3.79440350       0.00000000       0.00000000       0.00000000
H        8.92355393       8.85935082       4.66007201       0.00000000       0.00000000       0.00000000
H        1.46324698       7.55945639       3.69225314       0.00000000       0.00000000       0.00000000
H        0.60267874       8.09418706       2.13701773       0.00000000       0.00000000       0.00000000
H        7.87960617       0.94795862       1.94578200       0.00000000       0.00000000       0.00000000
H        7.42772836       1.46290276       3.57627962       0.00000000       0.00000000       0.00000000
Pb       8.93196323       4.39862406       0.06659199       0.00000000       0.00000000       0.00000000
Pb       4.59009252       8.76898749       0.04243491       0.00000000       0.00000000       0.00000000
I        8.88419837       4.54887103       3.07190132       0.00000000       0.00000000       0.00000000
I        4.51562591       0.01993992       3.12238490       0.00000000       0.00000000       0.00000000
I        2.18784378       1.92737134       6.30467397       0.00000000       0.00000000       0.00000000
I        2.44639137       6.26707525       6.32552061       0.00000000       0.00000000       0.00000000
I        6.51640428       2.43570488       0.08810693       0.00000000       0.00000000       0.00000000
I        7.01697726       7.04054852       6.21059117       0.00000000       0.00000000       0.00000000
24
Lattice="8.951583967708043 0.0 0.0 0.0 8.951583967708043 0.0 0.0 0.0 6.328972425814492" Properties=species:S:1:pos:R:3:momenta:R:3 config_id=t-FAPI3_al_global_rattle_25__global_rattle__sev-0.592__seed-new phase=t-FAPI3 mode=active_learning seed=4160889706 seed_origin=new seed_origin_config_id= parity_master_seed new_master_seed=20260901 source=t-FAPI3/CONTCAR formula=C2H10I6N4Pb2 natoms=24 fa_groups="_JSON [[0, 2, 3, 6, 7, 10, 8, 9], [1, 4, 5, 11, 12, 15, 13, 14]]" cell_A="_JSON [[8.9515839677, 0.0, 0.0], [0.0, 8.9515839677, 0.0], [0.0, 0.0, 6.3289724258]]" distortion_family=global_rattle distortion_severity=0.592 rattle_target=all rattle_sigma_A=0.11308 distortion_label=global_rattle minimum_distance_A=0.775640919409967 minimum_pair_indices="_JSON [2, 8]" minimum_pair_symbols="_JSON [\"N\", \"H\"]" pbc="T T T"
C        4.65545534       4.54851455       3.48741968       0.00000000       0.00000000       0.00000000
C        0.05822338       8.78608792       3.52930051       0.00000000       0.00000000       0.00000000
N        5.24571275       5.36115819       2.78780067       0.00000000       0.00000000       0.00000000
N        3.57307094       3.63130344       3.18055804       0.00000000       0.00000000       0.00000000
N        0.98301700       8.30409973       3.10941177       0.00000000       0.00000000       0.00000000
N        7.93705366       0.77947093       3.04939172       0.00000000       0.00000000       0.00000000
H        4.59044957       4.32287173       4.52702194       0.00000000       0.00000000       0.00000000
H        5.94844854       5.78666476       3.50642265       0.00000000       0.00000000       0.00000000
H        5.42286122       5.54729892       2.05596128       0.00000000       0.00000000       0.00000000
H        3.48993007       3.59519657       2.15130520       0.00000000       0.00000000       0.00000000
H        2.92317029       3.02842511       3.54922712       0.00000000       0.00000000       0.00000000
H        8.85662062       0.19214049       4.71827893       0.00000000       0.00000000       0.00000000
H        1.50104470       7.38031764       3.63069328       0.00000000       0.00000000       0.00000000
H        0.78674891       7.93911987       1.78442573       0.00000000       0.00000000       0.00000000
H        8.10770151       0.75013847       1.81467465       0.00000000       0.00000000       0.00000000
H        7.50945885       1.43590670       3.35431149       0.00000000       0.00000000       0.00000000
Pb       8.79281730       4.55408378       0.04606212       0.00000000       0.00000000       0.00000000
Pb       4.61438765       8.88845585       6.17658910       0.00000000       0.00000000       0.00000000
I        0.02404648       4.40654885       3.11958136       0.00000000       0.00000000       0.00000000
I        4.24795721       8.85800698       2.81621470       0.00000000       0.00000000       0.00000000
I        1.74275129       2.09100376       6.32855321       0.00000000       0.00000000       0.00000000
I        2.48738057       6.28596486       0.07138703       0.00000000       0.00000000       0.00000000
I        6.71136161       2.24199137       6.25617321       0.00000000       0.00000000       0.00000000
I        6.98227645       6.93367844       6.21501446       0.00000000       0.00000000       0.00000000
24
Lattice="8.90464395266641 0.07918948628295247 0.08122439632221086 0.07918948628295247 9.098622225691782 -0.018499467712225375 0.05742748618357896 -0.013079542287184474 6.234445141623793" Properties=species:S:1:pos:R:3:momenta:R:3 config_id=t-FAPI3_al_combined_01__combined_strain_rattle_fa_rotation__sev-0.208__seed-new phase=t-FAPI3 mode=active_learning seed=469357205 seed_origin=new seed_origin_config_id= parity_master_seed new_master_seed=20260901 source=t-FAPI3/CONTCAR formula=C2H10I6N4Pb2 natoms=24 fa_groups="_JSON [[0, 2, 3, 6, 7, 10, 8, 9], [1, 4, 5, 11, 12, 15, 13, 14]]" cell_A="_JSON [[8.9046439527, 0.0791894863, 0.0812243963], [0.0791894863, 9.0986222257, -0.0184994677], [0.0574274862, -0.0130795423, 6.2344451416]]" distortion_family=combined distortion_severity=0.208 rotations="_JSON [{\"fa_group\": 0, \"kind\": \"axis_angle\", \"angle_deg\": -22.065066, \"axis\": [-0.14078291, 0.86107436, -0.48860119]}, {\"fa_group\": 1, \"kind\": \"axis_angle\", \"angle_deg\": 24.127593, \"axis\": [-0.96384532, 0.13657981, -0.2287972]}]" strain="_JSON [[-0.00524377, 0.00884642, 0.00907375], [0.00884642, 0.01642595, -0.00206661], [0.00907375, -0.00206661, -0.01493564]]" rattle_target=all rattle_sigma_A=0.053720000000000004 distortion_label=combined_strain_rattle_fa_rotation minimum_distance_A=0.955510868333803 minimum_pair_indices="_JSON [3, 9]" minimum_pair_symbols="_JSON [\"N\", \"H\"]" pbc="T T T"
C        4.36563614       4.64269848       3.57292874       0.00000000       0.00000000       0.00000000
C        0.10834826       0.19742788       3.50239479       0.00000000       0.00000000       0.00000000
N        5.20108648       5.58610803       3.30484201       0.00000000       0.00000000       0.00000000
N        3.96537041       3.66909514       2.69437802       0.00000000       0.00000000       0.00000000
N        0.84697628       8.22214083       3.29611146       0.00000000       0.00000000       0.00000000
N        8.28624737       0.80878183       2.77881485       0.00000000       0.00000000       0.00000000
H        4.10068145       4.40810531       4.63919923       0.00000000       0.00000000       0.00000000
H        5.40725469       6.16663614       4.08327656       0.00000000       0.00000000       0.00000000
H        5.61817449       5.78339321       2.43469120       0.00000000       0.00000000       0.00000000
H        4.07657704       3.58371647       1.74920894       0.00000000       0.00000000       0.00000000
H        3.34468896       2.80658615       3.02386199       0.00000000       0.00000000       0.00000000
H        0.12813604       0.56654416       4.59650482       0.00000000       0.00000000       0.00000000
H        1.51640439       7.70210819       4.02729481       0.00000000       0.00000000       0.00000000
H        0.72930393       7.71271299       2.38589612       0.00000000       0.00000000       0.00000000
H        7.93426410       0.56218206       1.81124245       0.00000000       0.00000000       0.00000000
H        7.73983920       1.73663714       3.00273519       0.00000000       0.00000000       0.00000000
Pb       8.97970591       4.64037701       6.14757319       0.00000000       0.00000000       0.00000000
Pb       4.40584782       0.08303240       6.21153055       0.00000000       0.00000000       0.00000000
I        8.91357151       4.64664011       3.14013225       0.00000000       0.00000000       0.00000000
I        4.50095958       0.05130241       3.09064402       0.00000000       0.00000000       0.00000000
I        1.94622806       1.95969847       6.19019349       0.00000000       0.00000000       0.00000000
I        2.60026083       6.45427950       6.23578932       0.00000000       0.00000000       0.00000000
I        6.61108184       2.61623880       6.24353832       0.00000000       0.00000000       0.00000000
I        7.02818148       7.07140519       6.19277597       0.00000000       0.00000000       0.00000000
24
Lattice="8.847338412100637 -0.08289946942698158 -0.03224378760081217 -0.08289946942698158 8.91463523064134 0.009679223942655916 -0.022797087461338912 0.006843430353481628 6.386632212314165" Properties=species:S:1:pos:R:3:momenta:R:3 config_id=t-FAPI3_al_combined_02__combined_strain_rattle_fa_rotation__sev-0.224__seed-new phase=t-FAPI3 mode=active_learning seed=46993116 seed_origin=new seed_origin_config_id= parity_master_seed new_master_seed=20260901 source=t-FAPI3/CONTCAR formula=C2H10I6N4Pb2 natoms=24 fa_groups="_JSON [[0, 2, 3, 6, 7, 10, 8, 9], [1, 4, 5, 11, 12, 15, 13, 14]]" cell_A="_JSON [[8.8473384121, -0.0828994694, -0.0322437876], [-0.0828994694, 8.9146352306, 0.0096792239], [-0.0227970875, 0.0068434304, 6.3866322123]]" distortion_family=combined distortion_severity=0.224 rotations="_JSON [{\"fa_group\": 0, \"kind\": \"axis_angle\", \"angle_deg\": -2.335679, \"axis\": [0.09635029, -0.67941035, -0.72740511]}, {\"fa_group\": 1, \"kind\": \"axis_angle\", \"angle_deg\": 15.034803, \"axis\": [-0.04940135, 0.84192474, 0.5373288]}]" strain="_JSON [[-0.01164549, -0.00926087, -0.00360202], [-0.00926087, -0.00412762, 0.00108129], [-0.00360202, 0.00108129, 0.00911045]]" rattle_target=all rattle_sigma_A=0.05516 distortion_label=combined_strain_rattle_fa_rotation minimum_distance_A=0.9252252691960186 minimum_pair_indices="_JSON [0, 6]" minimum_pair_symbols="_JSON [\"C\", \"H\"]" pbc="T T T"
C        4.39951856       4.35337900       3.72189029       0.00000000       0.00000000       0.00000000
C        0.03398734       8.88596142       3.60084825       0.00000000       0.00000000       0.00000000
N        5.20257608       5.27048694       2.96948107       0.00000000       0.00000000       0.00000000
N        3.64806033       3.64941465       3.06888304       0.00000000       0.00000000       0.00000000
N        0.73531204       8.21157036       2.90550300       0.00000000       0.00000000       0.00000000
N        7.97946089       0.63438570       3.17804779       0.00000000       0.00000000       0.00000000
H        4.41921646       4.45016768       4.64182819       0.00000000       0.00000000       0.00000000
H        5.78150823       5.82508746       3.59338531       0.00000000       0.00000000       0.00000000
H        5.17559580       5.30051130       1.99454633       0.00000000       0.00000000       0.00000000
H        3.46264545       3.50049766       2.11468986       0.00000000       0.00000000       0.00000000
H        3.04092734       2.95374732       3.70350905       0.00000000       0.00000000       0.00000000
H        0.20030884       0.02245984       4.73990356       0.00000000       0.00000000       0.00000000
H        1.58127178       7.82726801       3.31416635       0.00000000       0.00000000       0.00000000
H        0.62120176       8.09537609       1.85709056       0.00000000       0.00000000       0.00000000
H        7.63014521       0.62370966       2.12978803       0.00000000       0.00000000       0.00000000
H        7.38292075       1.09764745       3.92774855       0.00000000       0.00000000       0.00000000
Pb      -0.05080792       4.50040297       6.34358226       0.00000000       0.00000000       0.00000000
Pb       4.43644249      -0.02043490      -0.00531956       0.00000000       0.00000000       0.00000000
I        8.77423079       4.28744404       3.16064197       0.00000000       0.00000000       0.00000000
I        4.32513022       8.82381473       3.17376141       0.00000000       0.00000000       0.00000000
I        1.85220593       1.92376795       6.34771210       0.00000000       0.00000000       0.00000000
I        2.50069506       6.29770497       6.24523860       0.00000000       0.00000000       0.00000000
I        6.37455019       2.38397741       6.23689059       0.00000000       0.00000000       0.00000000
I        6.85007502       6.82777185       6.30746024       0.00000000       0.00000000       0.00000000
24
Lattice="8.89174906763078 -0.046187325295494075 0.06792418202167709 -0.046187325295494075 8.861896155438462 -0.03776555163147788 0.04802393370960778 -0.026701099580088594 6.247210058837968" Properties=species:S:1:pos:R:3:momenta:R:3 config_id=t-FAPI3_al_combined_03__combined_strain_rattle_fa_rotation__sev-0.240__seed-parity phase=t-FAPI3 mode=active_learning seed=4025090763 seed_origin=parity seed_origin_config_id=t-FAPI3_parity_42__combined_strain_rattle_fa_rotation__sev-0.2 parity_master_seed=20260810 new_master_seed source=t-FAPI3/CONTCAR formula=C2H10I6N4Pb2 natoms=24 fa_groups="_JSON [[0, 2, 3, 6, 7, 10, 8, 9], [1, 4, 5, 11, 12, 15, 13, 14]]" cell_A="_JSON [[8.8917490676, -0.0461873253, 0.067924182], [-0.0461873253, 8.8618961554, -0.0377655516], [0.0480239337, -0.0267010996, 6.2472100588]]" distortion_family=combined distortion_severity=0.24 rotations="_JSON [{\"fa_group\": 0, \"kind\": \"axis_angle\", \"angle_deg\": 7.488608, \"axis\": [-0.74336243, -0.59888116, -0.29791551]}, {\"fa_group\": 1, \"kind\": \"axis_angle\", \"angle_deg\": 0.931851, \"axis\": [0.93524633, 0.34353818, 0.08541557]}]" strain="_JSON [[-0.00668428, -0.00515968, 0.00758795], [-0.00515968, -0.01001921, -0.00421887], [0.00758795, -0.00421887, -0.01291874]]" rattle_target=all rattle_sigma_A=0.0566 distortion_label=combined_strain_rattle_fa_rotation minimum_distance_A=0.9193506636183901 minimum_pair_indices="_JSON [2, 7]" minimum_pair_symbols="_JSON [\"N\", \"H\"]" pbc="T T T"
C        4.42494586       4.47501098       3.60781003       0.00000000       0.00000000       0.00000000
C        0.03409015       0.02762326       3.56129066       0.00000000       0.00000000       0.00000000
N        5.35342447       5.25098613       3.01137059       0.00000000       0.00000000       0.00000000
N        3.64908513       3.59831124       2.94597379       0.00000000       0.00000000       0.00000000
N        0.86552977       7.96974385       2.93354310       0.00000000       0.00000000       0.00000000
N        8.09113143       0.75160882       3.05004616       0.00000000       0.00000000       0.00000000
H        4.42784024       4.47798496       4.64177307       0.00000000       0.00000000       0.00000000
H        5.91460298       5.75355209       3.53835426       0.00000000       0.00000000       0.00000000
H        5.52169995       5.16342396       1.98414981       0.00000000       0.00000000       0.00000000
H        3.58520856       3.40767318       1.92313535       0.00000000       0.00000000       0.00000000
H        2.96310066       3.09922636       3.56259967       0.00000000       0.00000000       0.00000000
H        8.87046068       8.66515032       4.78972044       0.00000000       0.00000000       0.00000000
H        1.47594359       7.37915409       3.51514192       0.00000000       0.00000000       0.00000000
H        0.79853995       7.94160851       1.95263852       0.00000000       0.00000000       0.00000000
H        8.04969532       0.84714877       2.00980092       0.00000000       0.00000000       0.00000000
H        7.56425016       1.28294763       3.63977706       0.00000000       0.00000000       0.00000000
Pb       8.86448916       4.43587465       0.05611378       0.00000000       0.00000000       0.00000000
Pb       4.49169614      -0.02448045       6.21773537       0.00000000       0.00000000       0.00000000
I        0.07851551       4.44894108       3.10337042       0.00000000       0.00000000       0.00000000
I        4.49582682       0.00661937       3.15348089       0.00000000       0.00000000       0.00000000
I        1.95652077       1.95705739       6.11352980       0.00000000       0.00000000       0.00000000
I        2.56164716       6.35515601       6.20697074       0.00000000       0.00000000       0.00000000
I        6.43720808       2.47372187       6.21880275       0.00000000       0.00000000       0.00000000
I        6.87060799       6.82343445       0.05129351       0.00000000       0.00000000       0.00000000
24
Lattice="8.7428251108232 -0.0751431105060095 0.06668690811263966 -0.0751431105060095 8.82866510316588 0.06135515927017236 0.04714915305830338 0.04337948597736287 6.22347524200344" Properties=species:S:1:pos:R:3:momenta:R:3 config_id=t-FAPI3_al_combined_04__combined_strain_rattle_fa_rotation__sev-0.256__seed-new phase=t-FAPI3 mode=active_learning seed=1887064011 seed_origin=new seed_origin_config_id= parity_master_seed new_master_seed=20260901 source=t-FAPI3/CONTCAR formula=C2H10I6N4Pb2 natoms=24 fa_groups="_JSON [[0, 2, 3, 6, 7, 10, 8, 9], [1, 4, 5, 11, 12, 15, 13, 14]]" cell_A="_JSON [[8.7428251108, -0.0751431105, 0.0666869081], [-0.0751431105, 8.8286651032, 0.0613551593], [0.0471491531, 0.043379486, 6.223475242]]" distortion_family=combined distortion_severity=0.256 rotations="_JSON [{\"fa_group\": 0, \"kind\": \"axis_angle\", \"angle_deg\": -13.188316, \"axis\": [-0.91479385, 0.12606862, 0.3837433]}, {\"fa_group\": 1, \"kind\": \"axis_angle\", \"angle_deg\": -15.383136, \"axis\": [0.12707289, -0.29348587, -0.94748009]}]" strain="_JSON [[-0.02332088, -0.00839439, 0.00744973], [-0.00839439, -0.01373152, 0.00685411], [0.00744973, 0.00685411, -0.01666893]]" rattle_target=all rattle_sigma_A=0.05804 distortion_label=combined_strain_rattle_fa_rotation minimum_distance_A=0.8707176422904858 minimum_pair_indices="_JSON [5, 15]" minimum_pair_symbols="_JSON [\"N\", \"H\"]" pbc="T T T"
C        4.28015393       4.27556304       3.57000951       0.00000000       0.00000000       0.00000000
C        8.75849959      -0.00868899       3.64521154       0.00000000       0.00000000       0.00000000
N        5.19914021       5.16052074       3.25280900       0.00000000       0.00000000       0.00000000
N        3.56760282       3.71310875       2.83577003       0.00000000       0.00000000       0.00000000
N        0.74358805       8.22047941       3.01019172       0.00000000       0.00000000       0.00000000
N        7.65805366       0.56827129       3.05966518       0.00000000       0.00000000       0.00000000
H        4.35720225       4.03015173       4.67108777       0.00000000       0.00000000       0.00000000
H        5.75770725       5.62553696       3.91482624       0.00000000       0.00000000       0.00000000
H        5.38538511       5.31241325       2.34309574       0.00000000       0.00000000       0.00000000
H        3.47579162       3.91617755       1.79952630       0.00000000       0.00000000       0.00000000
H        2.96287959       3.08992459       3.21866416       0.00000000       0.00000000       0.00000000
H        0.16373178       0.17100896       4.58380163       0.00000000       0.00000000       0.00000000
H        1.79436530       7.91035533       3.39587114       0.00000000       0.00000000       0.00000000
H        0.93783199       8.09002561       1.92874968       0.00000000       0.00000000       0.00000000
H        7.74671628       0.48357842       2.08879756       0.00000000       0.00000000       0.00000000
H        7.08519692       0.93552908       3.60290185       0.00000000       0.00000000       0.00000000
Pb       0.00988507       4.42213220       6.17589705       0.00000000       0.00000000       0.00000000
Pb       4.31826968       8.77999713       6.30447209       0.00000000       0.00000000       0.00000000
I        8.70734436       4.23666643       3.16526560       0.00000000       0.00000000       0.00000000
I        4.47310729       0.01704620       3.10037418       0.00000000       0.00000000       0.00000000
I        1.84061495       2.03693265       6.22717665       0.00000000       0.00000000       0.00000000
I        2.41000383       6.41819265       0.13494108       0.00000000       0.00000000       0.00000000
I        6.24125117       2.36632029       0.07782942       0.00000000       0.00000000       0.00000000
I        6.85879146       6.77768789       6.25114124       0.00000000       0.00000000       0.00000000
24
Lattice="9.08459698051009 0.08810917375084515 0.04713638857553642 0.08810917375084515 9.071915589121861 -0.03232245477406973 0.03332649334723608 -0.02285270693294974 6.486877121888272" Properties=species:S:1:pos:R:3:momenta:R:3 config_id=t-FAPI3_al_combined_05__combined_strain_rattle_fa_rotation__sev-0.272__seed-new phase=t-FAPI3 mode=active_learning seed=4055266350 seed_origin=new seed_origin_config_id= parity_master_seed new_master_seed=20260901 source=t-FAPI3/CONTCAR formula=C2H10I6N4Pb2 natoms=24 fa_groups="_JSON [[0, 2, 3, 6, 7, 10, 8, 9], [1, 4, 5, 11, 12, 15, 13, 14]]" cell_A="_JSON [[9.0845969805, 0.0881091738, 0.0471363886], [0.0881091738, 9.0719155891, -0.0323224548], [0.0333264933, -0.0228527069, 6.4868771219]]" distortion_family=combined distortion_severity=0.272 rotations="_JSON [{\"fa_group\": 0, \"kind\": \"axis_angle\", \"angle_deg\": 6.684119, \"axis\": [0.58424774, 0.55814285, -0.58917836]}]" strain="_JSON [[0.01485916, 0.00984286, 0.0052657], [0.00984286, 0.01344249, -0.00361081], [0.0052657, -0.00361081, 0.0249495]]" rattle_target=all rattle_sigma_A=0.059480000000000005 distortion_label=combined_strain_rattle_fa_rotation minimum_distance_A=0.9708361071758436 minimum_pair_indices="_JSON [2, 7]" minimum_pair_symbols="_JSON [\"N\", \"H\"]" pbc="T T T"
C        4.62744808       4.58468939       3.67010567       0.00000000       0.00000000       0.00000000
C        9.15184996       9.10042699       3.67423600       0.00000000       0.00000000       0.00000000
N        5.49809465       5.33146224       3.08208644       0.00000000       0.00000000       0.00000000
N        3.70486117       3.71272128       3.06753934       0.00000000       0.00000000       0.00000000
N        0.93855467       8.23612699       3.04731968       0.00000000       0.00000000       0.00000000
N        8.38124698       0.88003585       3.14079465       0.00000000       0.00000000       0.00000000
H        4.71558078       4.35883569       4.80995544       0.00000000       0.00000000       0.00000000
H        6.11061514       5.86795544       3.61077959       0.00000000       0.00000000       0.00000000
H        5.47386914       5.58111461       2.11270066       0.00000000       0.00000000       0.00000000
H        3.47691420       3.77089151       1.95295242       0.00000000       0.00000000       0.00000000
H        3.04141310       3.25382943       3.70395320       0.00000000       0.00000000       0.00000000
H        0.11617379       0.00898624       4.79193746       0.00000000       0.00000000       0.00000000
H        1.60587973       7.64680456       3.71323058       0.00000000       0.00000000       0.00000000
H        1.02969940       8.08669577       2.02515828       0.00000000       0.00000000       0.00000000
H        8.10425955       1.00146333       2.03987423       0.00000000       0.00000000       0.00000000
H        7.59530068       1.58822050       3.69746678       0.00000000       0.00000000       0.00000000
Pb       9.14208772       4.66431058       6.43436256       0.00000000       0.00000000       0.00000000
Pb       4.65295066       0.04607914       6.50698429       0.00000000       0.00000000       0.00000000
I        0.12423117       4.67418121       3.10421065       0.00000000       0.00000000       0.00000000
I        4.69060222       9.09357032       3.10926168       0.00000000       0.00000000       0.00000000
I        2.02278590       1.96233629       6.42665250       0.00000000       0.00000000       0.00000000
I        2.65232079       6.55314203       0.05047018       0.00000000       0.00000000       0.00000000
I        6.57216434       2.64348837       6.41424913       0.00000000       0.00000000       0.00000000
I        7.21684784       7.13855389       6.41126917       0.00000000       0.00000000       0.00000000
24
Lattice="8.857504601022036 0.0007955236838516299 0.04116061380855685 0.0007955236838516299 8.939039077060118 0.06718784731662537 0.029101485364344398 0.04750332841100878 6.453481026597986" Properties=species:S:1:pos:R:3:momenta:R:3 config_id=t-FAPI3_al_combined_06__combined_strain_rattle_fa_rotation__sev-0.288__seed-new phase=t-FAPI3 mode=active_learning seed=3681915892 seed_origin=new seed_origin_config_id= parity_master_seed new_master_seed=20260901 source=t-FAPI3/CONTCAR formula=C2H10I6N4Pb2 natoms=24 fa_groups="_JSON [[0, 2, 3, 6, 7, 10, 8, 9], [1, 4, 5, 11, 12, 15, 13, 14]]" cell_A="_JSON [[8.857504601, 0.0007955237, 0.0411606138], [0.0007955237, 8.9390390771, 0.0671878473], [0.0291014854, 0.0475033284, 6.4534810266]]" distortion_family=combined distortion_severity=0.288 rotations="_JSON [{\"fa_group\": 0, \"kind\": \"axis_angle\", \"angle_deg\": -23.233633, \"axis\": [-0.8472752, -0.48832407, 0.20896015]}, {\"fa_group\": 1, \"kind\": \"axis_angle\", \"angle_deg\": -11.577389, \"axis\": [-0.47074547, 0.68858236, 0.55159137]}]" strain="_JSON [[-0.0105098, 8.887e-05, 0.00459814], [8.887e-05, -0.00140142, 0.00750569], [0.00459814, 0.00750569, 0.0196728]]" rattle_target=all rattle_sigma_A=0.06092 distortion_label=combined_strain_rattle_fa_rotation minimum_distance_A=0.8599872597153622 minimum_pair_indices="_JSON [2, 7]" minimum_pair_symbols="_JSON [\"N\", \"H\"]" pbc="T T T"
C        4.60166614       4.46543523       3.65664469       0.00000000       0.00000000       0.00000000
C        8.73749361       8.93725749       3.73745151       0.00000000       0.00000000       0.00000000
N        5.35316780       5.21244594       3.32351109       0.00000000       0.00000000       0.00000000
N        3.46975937       3.79421072       3.04266965       0.00000000       0.00000000       0.00000000
N        0.73815260       8.06288875       3.18540009       0.00000000       0.00000000       0.00000000
N        8.11051989       0.91310372       3.14364155       0.00000000       0.00000000       0.00000000
H        4.70780658       3.94962090       4.72381593       0.00000000       0.00000000       0.00000000
H        5.92197250       5.59921252       3.83969992       0.00000000       0.00000000       0.00000000
H        5.17595422       5.80112949       2.39201394       0.00000000       0.00000000       0.00000000
H        3.26947772       4.09011137       2.02784573       0.00000000       0.00000000       0.00000000
H        2.89984098       3.15252487       3.51413113       0.00000000       0.00000000       0.00000000
H        8.74228327       8.74464234       4.86781591       0.00000000       0.00000000       0.00000000
H        1.18927556       7.42552081       3.72013502       0.00000000       0.00000000       0.00000000
H        0.97695755       8.01172043       2.03662361       0.00000000       0.00000000       0.00000000
H        8.24781258       1.05353516       2.13078536       0.00000000       0.00000000       0.00000000
H        7.65654835       1.52923683       3.69107853       0.00000000       0.00000000       0.00000000
Pb       8.85458354       4.48001780       6.49691904       0.00000000       0.00000000       0.00000000
Pb       4.38176272       8.86202586       0.11298149       0.00000000       0.00000000       0.00000000
I        8.85875611       4.38672829       3.36904016       0.00000000       0.00000000       0.00000000
I        4.50658114       0.04903456       3.16278713       0.00000000       0.00000000       0.00000000
I        2.01883591       2.01990649       6.33829533       0.00000000       0.00000000       0.00000000
I        2.46894732       6.41496184       6.47618525       0.00000000       0.00000000       0.00000000
I        6.43246129       2.65153854       6.34874593       0.00000000       0.00000000       0.00000000
I        7.00651267       7.05663640       6.36879899       0.00000000       0.00000000       0.00000000
24
Lattice="9.167008826340208 -0.098353196065998 -0.03788529857196943 -0.098353196065998 8.843760490059921 -0.07123004730589598 -0.02678576337670611 -0.05036125527222233 6.32138550407292" Properties=species:S:1:pos:R:3:momenta:R:3 config_id=t-FAPI3_al_combined_07__combined_strain_rattle_fa_rotation__sev-0.304__seed-new phase=t-FAPI3 mode=active_learning seed=2262441931 seed_origin=new seed_origin_config_id= parity_master_seed new_master_seed=20260901 source=t-FAPI3/CONTCAR formula=C2H10I6N4Pb2 natoms=24 fa_groups="_JSON [[0, 2, 3, 6, 7, 10, 8, 9], [1, 4, 5, 11, 12, 15, 13, 14]]" cell_A="_JSON [[9.1670088263, -0.0983531961, -0.0378852986], [-0.0983531961, 8.8437604901, -0.0712300473], [-0.0267857634, -0.0503612553, 6.3213855041]]" distortion_family=combined distortion_severity=0.304 rotations="_JSON [{\"fa_group\": 0, \"kind\": \"axis_angle\", \"angle_deg\": 22.857652, \"axis\": [-0.67120409, 0.72728814, -0.14330748]}, {\"fa_group\": 1, \"kind\": \"axis_angle\", \"angle_deg\": -31.042933, \"axis\": [-0.71601819, 0.5512521, -0.42829789]}]" strain="_JSON [[0.02406556, -0.01098724, -0.00423225], [-0.01098724, -0.01204518, -0.00795726], [-0.00423225, -0.00795726, -0.00119876]]" rattle_target=all rattle_sigma_A=0.06236 distortion_label=combined_strain_rattle_fa_rotation minimum_distance_A=0.9157869489342568 minimum_pair_indices="_JSON [2, 8]" minimum_pair_symbols="_JSON [\"N\", \"H\"]" pbc="T T T"
C        4.62194943       4.56965480       3.60617252       0.00000000       0.00000000       0.00000000
C        8.97805839       8.48994023       3.41670550       0.00000000       0.00000000       0.00000000
N        5.37042183       5.00584671       2.43230435       0.00000000       0.00000000       0.00000000
N        3.54987299       3.51567143       3.47005736       0.00000000       0.00000000       0.00000000
N        0.99240756       8.35878361       2.91215807       0.00000000       0.00000000       0.00000000
N        8.15791019       0.57652635       3.00021221       0.00000000       0.00000000       0.00000000
H        4.98652618       4.63839391       4.50073361       0.00000000       0.00000000       0.00000000
H        6.07498856       5.59634699       2.75268658       0.00000000       0.00000000       0.00000000
H        5.10035244       4.84209967       1.57270260       0.00000000       0.00000000       0.00000000
H        3.30776784       3.20013920       2.57389627       0.00000000       0.00000000       0.00000000
H        3.27397094       3.26752399       4.31535040       0.00000000       0.00000000       0.00000000
H        8.69921149       8.05843283       4.32664647       0.00000000       0.00000000       0.00000000
H        1.59598032       7.62848573       3.52757557       0.00000000       0.00000000       0.00000000
H        1.38929330       8.59927357       2.09266419       0.00000000       0.00000000       0.00000000
H        8.30282011       1.12954188       2.00629891       0.00000000       0.00000000       0.00000000
H        7.34248850       0.70765508       3.54765200       0.00000000       0.00000000       0.00000000
Pb       9.03351038       4.25462787       6.21122344       0.00000000       0.00000000       0.00000000
Pb       4.53381052       8.70055857       6.21550078       0.00000000       0.00000000       0.00000000
I        9.02750101       4.35512773       3.01155675       0.00000000       0.00000000       0.00000000
I        4.61390834      -0.02628184       3.11892181       0.00000000       0.00000000       0.00000000
I        1.92983670       1.89417800       6.19081801       0.00000000       0.00000000       0.00000000
I        2.49816580       6.26354487       6.16477114       0.00000000       0.00000000       0.00000000
I        6.46880525       2.33887057       6.25654237       0.00000000       0.00000000       0.00000000
I        7.15063306       6.80462264       6.19834093       0.00000000       0.00000000       0.00000000
24
Lattice="8.741896787010537 0.08527266311896341 -0.0257077324669063 0.08527266311896341 8.88911771412646 0.007344607298503542 -0.018175948580743128 0.0051928035572643425 6.265861366956628" Properties=species:S:1:pos:R:3:momenta:R:3 config_id=t-FAPI3_al_combined_08__combined_strain_rattle_fa_rotation__sev-0.320__seed-parity phase=t-FAPI3 mode=active_learning seed=1877520591 seed_origin=parity seed_origin_config_id=t-FAPI3_parity_44__combined_strain_rattle_fa_rotation__sev-0.4 parity_master_seed=20260810 new_master_seed source=t-FAPI3/CONTCAR formula=C2H10I6N4Pb2 natoms=24 fa_groups="_JSON [[0, 2, 3, 6, 7, 10, 8, 9], [1, 4, 5, 11, 12, 15, 13, 14]]" cell_A="_JSON [[8.741896787, 0.0852726631, -0.0257077325], [0.0852726631, 8.8891177141, 0.0073446073], [-0.0181759486, 0.0051928036, 6.265861367]]" distortion_family=combined distortion_severity=0.32 rotations="_JSON [{\"fa_group\": 0, \"kind\": \"axis_angle\", \"angle_deg\": 4.070197, \"axis\": [-0.73000746, -0.23073423, -0.64331239]}]" strain="_JSON [[-0.02342459, 0.00952599, -0.00287186], [0.00952599, -0.00697823, 0.00082048], [-0.00287186, 0.00082048, -0.00997177]]" rattle_target=all rattle_sigma_A=0.0638 distortion_label=combined_strain_rattle_fa_rotation minimum_distance_A=0.8718652529979264 minimum_pair_indices="_JSON [4, 12]" minimum_pair_symbols="_JSON [\"N\", \"H\"]" pbc="T T T"
C        4.34721110       4.52368966       3.44849878       0.00000000       0.00000000       0.00000000
C        0.09487623       8.85964898       3.49730739       0.00000000       0.00000000       0.00000000
N        5.26366858       5.33549634       3.05847573       0.00000000       0.00000000       0.00000000
N        3.50570529       3.81147696       3.03063780       0.00000000       0.00000000       0.00000000
N        0.89293132       8.11473081       2.98339777       0.00000000       0.00000000       0.00000000
N        7.98402551       0.86354738       2.97442470       0.00000000       0.00000000       0.00000000
H        4.38548237       4.58690145       4.58443074       0.00000000       0.00000000       0.00000000
H        5.88064414       5.89859273       3.51881303       0.00000000       0.00000000       0.00000000
H        5.39326867       5.27755422       1.94023217       0.00000000       0.00000000       0.00000000
H        3.56495306       3.62690678       2.11581049       0.00000000       0.00000000       0.00000000
H        2.88191378       3.20837732       3.62215625       0.00000000       0.00000000       0.00000000
H        8.66121811       0.12072529       4.68451383       0.00000000       0.00000000       0.00000000
H        1.23841666       7.48438818       3.47681145       0.00000000       0.00000000       0.00000000
H        0.93337700       8.06982209       1.95468916       0.00000000       0.00000000       0.00000000
H        7.90364271       1.11038064       2.01888346       0.00000000       0.00000000       0.00000000
H        7.43339750       1.49904875       3.50154875       0.00000000       0.00000000       0.00000000
Pb       8.72824884       4.46415457       6.17609429       0.00000000       0.00000000       0.00000000
Pb       4.25327918       0.07887944       0.00158762       0.00000000       0.00000000       0.00000000
I        8.68405085       4.52745222       2.93583595       0.00000000       0.00000000       0.00000000
I        4.52068568       8.92854320       2.95409153       0.00000000       0.00000000       0.00000000
I        1.99286250       1.88500869       6.19317308       0.00000000       0.00000000       0.00000000
I        2.49694837       6.44039276       6.22644924       0.00000000       0.00000000       0.00000000
I        6.31182814       2.59531029       6.12501172       0.00000000       0.00000000       0.00000000
I        6.85159550       6.98712736       6.17084009       0.00000000       0.00000000       0.00000000
24
Lattice="8.782853381846888 0.05210866313275654 0.013581921575480646 0.05210866313275654 8.837046176511505 -0.053226238384688776 0.009602725891963116 -0.037632154966287544 6.203131565011969" Properties=species:S:1:pos:R:3:momenta:R:3 config_id=t-FAPI3_al_combined_09__combined_strain_rattle_fa_rotation__sev-0.336__seed-new phase=t-FAPI3 mode=active_learning seed=3139265000 seed_origin=new seed_origin_config_id= parity_master_seed new_master_seed=20260901 source=t-FAPI3/CONTCAR formula=C2H10I6N4Pb2 natoms=24 fa_groups="_JSON [[0, 2, 3, 6, 7, 10, 8, 9], [1, 4, 5, 11, 12, 15, 13, 14]]" cell_A="_JSON [[8.7828533818, 0.0521086631, 0.0135819216], [0.0521086631, 8.8370461765, -0.0532262384], [0.0096027259, -0.037632155, 6.203131565]]" distortion_family=combined distortion_severity=0.336 rotations="_JSON [{\"fa_group\": 0, \"kind\": \"axis_angle\", \"angle_deg\": 12.071145, \"axis\": [0.61291399, 0.09184226, 0.78479388]}, {\"fa_group\": 1, \"kind\": \"axis_angle\", \"angle_deg\": -6.084133, \"axis\": [-0.92140717, 0.35104808, 0.16665554]}]" strain="_JSON [[-0.01884924, 0.00582117, 0.00151726], [0.00582117, -0.01279525, -0.00594601], [0.00151726, -0.00594601, -0.0198833]]" rattle_target=all rattle_sigma_A=0.06524 distortion_label=combined_strain_rattle_fa_rotation minimum_distance_A=0.8850788868690832 minimum_pair_indices="_JSON [5, 14]" minimum_pair_symbols="_JSON [\"N\", \"H\"]" pbc="T T T"
C        4.50325238       4.41864374       3.55035350       0.00000000       0.00000000       0.00000000
C        8.81437443       8.82632793       3.52398351       0.00000000       0.00000000       0.00000000
N        5.09615081       5.37756398       3.01055328       0.00000000       0.00000000       0.00000000
N        3.78647452       3.51016754       2.86887154       0.00000000       0.00000000       0.00000000
N        0.87635632       8.06614584       2.86838732       0.00000000       0.00000000       0.00000000
N        7.91794552       0.78890915       2.94806819       0.00000000       0.00000000       0.00000000
H        4.42451535       4.12176615       4.67515615       0.00000000       0.00000000       0.00000000
H        5.62255984       5.91220382       3.69210515       0.00000000       0.00000000       0.00000000
H        5.11191026       5.54637266       2.11990061       0.00000000       0.00000000       0.00000000
H        3.58772906       3.56239165       1.73757671       0.00000000       0.00000000       0.00000000
H        3.20267046       2.72451729       3.42056469       0.00000000       0.00000000       0.00000000
H        8.78164900       8.64574069       4.54346640       0.00000000       0.00000000       0.00000000
H        1.39251519       7.24710091       3.41575905       0.00000000       0.00000000       0.00000000
H        1.01803623       7.99280000       1.94269167       0.00000000       0.00000000       0.00000000
H        7.90684149       0.99546734       2.08750149       0.00000000       0.00000000       0.00000000
H        7.33187929       1.39121756       3.66842177       0.00000000       0.00000000       0.00000000
Pb       0.11951479       4.31893466       6.15618472       0.00000000       0.00000000       0.00000000
Pb       4.33567961       0.08714150       6.19092066       0.00000000       0.00000000       0.00000000
I        8.77898808       4.42693307       3.06572228       0.00000000       0.00000000       0.00000000
I        4.42997347       0.07611649       2.92700724       0.00000000       0.00000000       0.00000000
I        1.96298246       1.93273036       6.08292934       0.00000000       0.00000000       0.00000000
I        2.54858851       6.43296816       6.06683847       0.00000000       0.00000000       0.00000000
I        6.26654585       2.64492075       6.09426586       0.00000000       0.00000000       0.00000000
I        6.84824411       6.94973896       6.08202595       0.00000000       0.00000000       0.00000000
24
Lattice="9.122296971910211 -0.06305881776996689 -0.04795805105686105 -0.06305881776996689 8.848647804980677 -0.09747405848701499 -0.03390742731449701 -0.06891636503908037 6.281284316744422" Properties=species:S:1:pos:R:3:momenta:R:3 config_id=t-FAPI3_al_combined_10__combined_strain_rattle_fa_rotation__sev-0.352__seed-new phase=t-FAPI3 mode=active_learning seed=706835477 seed_origin=new seed_origin_config_id= parity_master_seed new_master_seed=20260901 source=t-FAPI3/CONTCAR formula=C2H10I6N4Pb2 natoms=24 fa_groups="_JSON [[0, 2, 3, 6, 7, 10, 8, 9], [1, 4, 5, 11, 12, 15, 13, 14]]" cell_A="_JSON [[9.1222969719, -0.0630588178, -0.0479580511], [-0.0630588178, 8.848647805, -0.0974740585], [-0.0339074273, -0.068916365, 6.2812843167]]" distortion_family=combined distortion_severity=0.352 rotations="_JSON [{\"fa_group\": 0, \"kind\": \"axis_angle\", \"angle_deg\": -2.920326, \"axis\": [-0.70710289, 0.56516317, -0.424966]}, {\"fa_group\": 1, \"kind\": \"axis_angle\", \"angle_deg\": 32.473083, \"axis\": [-0.15891993, 0.9849553, -0.06787862]}]" strain="_JSON [[0.0190707, -0.00704443, -0.00535749], [-0.00704443, -0.01149921, -0.01088903], [-0.00535749, -0.01088903, -0.00753489]]" rattle_target=all rattle_sigma_A=0.06668 distortion_label=combined_strain_rattle_fa_rotation minimum_distance_A=0.9800197564526092 minimum_pair_indices="_JSON [3, 10]" minimum_pair_symbols="_JSON [\"N\", \"H\"]" pbc="T T T"
C        4.38448701       4.31728323       3.41314708       0.00000000       0.00000000       0.00000000
C        0.08420884       8.74145748       3.41499067       0.00000000       0.00000000       0.00000000
N        5.37346621       5.17407442       2.92880929       0.00000000       0.00000000       0.00000000
N        3.59681422       3.53799468       2.88642284       0.00000000       0.00000000       0.00000000
N        0.47123962       7.97561702       2.54662305       0.00000000       0.00000000       0.00000000
N        8.31562540       0.73305098       3.35533897       0.00000000       0.00000000       0.00000000
H        4.45393976       4.32779947       4.61419921       0.00000000       0.00000000       0.00000000
H        5.86819512       5.76271903       3.54889521       0.00000000       0.00000000       0.00000000
H        5.51008418       5.36265680       1.86957197       0.00000000       0.00000000       0.00000000
H        3.58526831       3.51536205       1.88648165       0.00000000       0.00000000       0.00000000
H        3.13212511       2.93533530       3.50392136       0.00000000       0.00000000       0.00000000
H        0.78935684       0.08526677       4.52569958       0.00000000       0.00000000       0.00000000
H        1.40722121       7.35596802       2.90637580       0.00000000       0.00000000       0.00000000
H       -0.02722709       7.81874459       1.70824137       0.00000000       0.00000000       0.00000000
H        7.73432600       0.79149554       2.40092693       0.00000000       0.00000000       0.00000000
H        7.98546700       1.43825975       3.96696580       0.00000000       0.00000000       0.00000000
Pb       9.03601049       4.32890427       6.15936896       0.00000000       0.00000000       0.00000000
Pb       4.65296042       8.80584790      -0.07086632       0.00000000       0.00000000       0.00000000
I        0.00561640       4.38238974       3.13647607       0.00000000       0.00000000       0.00000000
I        4.47905246       0.01036017       3.07432731       0.00000000       0.00000000       0.00000000
I        1.95774107       1.88922132       6.09932935       0.00000000       0.00000000       0.00000000
I        2.51710642       6.29838403       6.16073463       0.00000000       0.00000000       0.00000000
I        6.42726439       2.33790375       6.12573365       0.00000000       0.00000000       0.00000000
I        7.09052459       6.80217813      -0.11079441       0.00000000       0.00000000       0.00000000
24
Lattice="8.9795068788033 -0.0385994515299444 -0.006409758181406232 -0.0385994515299444 9.13742751415671 -0.08008172335635268 -0.004531844077271799 -0.05661959053977685 6.161231648988914" Properties=species:S:1:pos:R:3:momenta:R:3 config_id=t-FAPI3_al_combined_11__combined_strain_rattle_fa_rotation__sev-0.368__seed-new phase=t-FAPI3 mode=active_learning seed=1196564739 seed_origin=new seed_origin_config_id= parity_master_seed new_master_seed=20260901 source=t-FAPI3/CONTCAR formula=C2H10I6N4Pb2 natoms=24 fa_groups="_JSON [[0, 2, 3, 6, 7, 10, 8, 9], [1, 4, 5, 11, 12, 15, 13, 14]]" cell_A="_JSON [[8.9795068788, -0.0385994515, -0.0064097582], [-0.0385994515, 9.1374275142, -0.0800817234], [-0.0045318441, -0.0566195905, 6.161231649]]" distortion_family=combined distortion_severity=0.368 rotations="_JSON [{\"fa_group\": 0, \"kind\": \"axis_angle\", \"angle_deg\": 25.089912, \"axis\": [0.87275587, -0.48247071, -0.07429133]}, {\"fa_group\": 1, \"kind\": \"axis_angle\", \"angle_deg\": -35.47798, \"axis\": [0.94100855, -0.1543948, 0.30110656]}]" strain="_JSON [[0.00311933, -0.00431202, -0.00071605], [-0.00431202, 0.02076097, -0.0089461], [-0.00071605, -0.0089461, -0.02650364]]" rattle_target=all rattle_sigma_A=0.06812 distortion_label=combined_strain_rattle_fa_rotation minimum_distance_A=0.8498162767677674 minimum_pair_indices="_JSON [5, 14]" minimum_pair_symbols="_JSON [\"N\", \"H\"]" pbc="T T T"
C        4.50662371       4.40655839       3.43666777       0.00000000       0.00000000       0.00000000
C        0.09228331       0.13088611       3.43748128       0.00000000       0.00000000       0.00000000
N        5.24299236       5.31463690       3.42877286       0.00000000       0.00000000       0.00000000
N        3.66960651       3.88638111       2.43526180       0.00000000       0.00000000       0.00000000
N        0.76008700       8.33749639       3.48491422       0.00000000       0.00000000       0.00000000
N        8.32735478       0.59006719       2.53089205       0.00000000       0.00000000       0.00000000
H        4.12455868       3.88280409       4.41335984       0.00000000       0.00000000       0.00000000
H        5.73642199       5.65677716       4.22087914       0.00000000       0.00000000       0.00000000
H        5.62270489       5.73974654       2.47339545       0.00000000       0.00000000       0.00000000
H        3.90621248       4.16544116       1.51350675       0.00000000       0.00000000       0.00000000
H        2.99265247       3.02847590       2.61181195       0.00000000       0.00000000       0.00000000
H        0.23908600       0.74780894       4.42302274       0.00000000       0.00000000       0.00000000
H        1.21725259       7.81861869       4.16976363       0.00000000       0.00000000       0.00000000
H        0.59469282       7.61715171       2.48967524       0.00000000       0.00000000       0.00000000
H        8.02206333       0.36725154       1.76974948       0.00000000       0.00000000       0.00000000
H        7.95838699       1.49652063       2.69678058       0.00000000       0.00000000       0.00000000
Pb       8.92763161       4.54546459       5.98132364       0.00000000       0.00000000       0.00000000
Pb       4.37528923       9.04772728       5.95907922       0.00000000       0.00000000       0.00000000
I        0.04361884       4.51636748       2.98711114       0.00000000       0.00000000       0.00000000
I        4.52800215      -0.02091323       2.92591340       0.00000000       0.00000000       0.00000000
I        1.93201451       1.94851795       6.00792609       0.00000000       0.00000000       0.00000000
I        2.48567847       6.41749516       5.91858025       0.00000000       0.00000000       0.00000000
I        6.44483408       2.52851005      -0.02159580       0.00000000       0.00000000       0.00000000
I        7.01341165       6.94447084       6.06194621       0.00000000       0.00000000       0.00000000
24
Lattice="9.048852324899554 0.09991962019303058 -0.050581309085557774 0.09991962019303058 9.218679079924554 -0.03884053961214396 -0.035762130101099916 -0.02746114040775226 6.3528439789424755" Properties=species:S:1:pos:R:3:momenta:R:3 config_id=t-FAPI3_al_combined_12__combined_strain_rattle_fa_rotation__sev-0.384__seed-new phase=t-FAPI3 mode=active_learning seed=1973722922 seed_origin=new seed_origin_config_id= parity_master_seed new_master_seed=20260901 source=t-FAPI3/CONTCAR formula=C2H10I6N4Pb2 natoms=24 fa_groups="_JSON [[0, 2, 3, 6, 7, 10, 8, 9], [1, 4, 5, 11, 12, 15, 13, 14]]" cell_A="_JSON [[9.0488523249, 0.0999196202, -0.0505813091], [0.0999196202, 9.2186790799, -0.0388405396], [-0.0357621301, -0.0274611404, 6.3528439789]]" distortion_family=combined distortion_severity=0.384 rotations="_JSON [{\"fa_group\": 0, \"kind\": \"axis_angle\", \"angle_deg\": 23.477381, \"axis\": [-0.73843945, 0.66631438, -0.10359695]}, {\"fa_group\": 1, \"kind\": \"axis_angle\", \"angle_deg\": -1.474357, \"axis\": [0.98849409, -0.06542628, -0.13637754]}]" strain="_JSON [[0.01086605, 0.01116223, -0.00565054], [0.01116223, 0.02983775, -0.00433896], [-0.00565054, -0.00433896, 0.00377179]]" rattle_target=all rattle_sigma_A=0.06956000000000001 distortion_label=combined_strain_rattle_fa_rotation minimum_distance_A=0.8603459698160589 minimum_pair_indices="_JSON [2, 8]" minimum_pair_symbols="_JSON [\"N\", \"H\"]" pbc="T T T"
C        4.72915565       4.65999709       3.39222562       0.00000000       0.00000000       0.00000000
C        0.03288969       0.08736732       3.57150145       0.00000000       0.00000000       0.00000000
N        5.34594375       5.35715801       2.43306014       0.00000000       0.00000000       0.00000000
N        3.67331615       3.94922816       3.45216585       0.00000000       0.00000000       0.00000000
N        0.86746340       8.38176748       2.91441802       0.00000000       0.00000000       0.00000000
N        8.26765442       0.94771359       2.98538621       0.00000000       0.00000000       0.00000000
H        5.03389087       5.09311718       4.47962991       0.00000000       0.00000000       0.00000000
H        6.10217598       6.07051075       2.67685376       0.00000000       0.00000000       0.00000000
H        5.15184989       5.18031132       1.61376288       0.00000000       0.00000000       0.00000000
H        3.31658539       3.42162534       2.55978598       0.00000000       0.00000000       0.00000000
H        3.38154313       3.49798639       4.32403647       0.00000000       0.00000000       0.00000000
H        0.00067110      -0.01295468       4.58997051       0.00000000       0.00000000       0.00000000
H        1.60727027       7.80248001       3.68931577       0.00000000       0.00000000       0.00000000
H        1.08534285       8.38101436       1.84234641       0.00000000       0.00000000       0.00000000
H        8.17406245       1.03048247       2.04209104       0.00000000       0.00000000       0.00000000
H        7.66062170       1.45867707       3.55541384       0.00000000       0.00000000       0.00000000
Pb       0.11067488       4.63254295       6.17598545       0.00000000       0.00000000       0.00000000
Pb       4.54684905       0.07770812       6.24061685       0.00000000       0.00000000       0.00000000
I        9.02175196       4.69213824       2.98153322       0.00000000       0.00000000       0.00000000
I        4.61183563       9.19418158       3.03844625       0.00000000       0.00000000       0.00000000
I        1.83734932       2.04049764       6.25380943       0.00000000       0.00000000       0.00000000
I        2.60171972       6.56387055       6.16604274       0.00000000       0.00000000       0.00000000
I        6.56054890       2.54918836       6.22601133       0.00000000       0.00000000       0.00000000
I        7.22160914       7.22218278       6.23145528       0.00000000       0.00000000       0.00000000
24
Lattice="9.037166727588309 0.04442100570055384 0.061719954999597336 0.04442100570055384 9.198723951843846 -0.03726249453479904 0.043637404812835366 -0.02634542682932448 6.390445322211387" Properties=species:S:1:pos:R:3:momenta:R:3 config_id=t-FAPI3_al_combined_13__combined_strain_rattle_fa_rotation__sev-0.400__seed-parity phase=t-FAPI3 mode=active_learning seed=4125719901 seed_origin=parity seed_origin_config_id=t-FAPI3_parity_46__combined_strain_rattle_fa_rotation__sev-0.6 parity_master_seed=20260810 new_master_seed source=t-FAPI3/CONTCAR formula=C2H10I6N4Pb2 natoms=24 fa_groups="_JSON [[0, 2, 3, 6, 7, 10, 8, 9], [1, 4, 5, 11, 12, 15, 13, 14]]" cell_A="_JSON [[9.0371667276, 0.0444210057, 0.061719955], [0.0444210057, 9.1987239518, -0.0372624945], [0.0436374048, -0.0263454268, 6.3904453222]]" distortion_family=combined distortion_severity=0.4 rotations="_JSON [{\"fa_group\": 0, \"kind\": \"axis_angle\", \"angle_deg\": -43.050142, \"axis\": [0.46393318, 0.4669869, 0.75278765]}, {\"fa_group\": 1, \"kind\": \"axis_angle\", \"angle_deg\": 2.09864, \"axis\": [0.28397342, 0.53612664, 0.79493857]}]" strain="_JSON [[0.00956063, 0.00496236, 0.00689486], [0.00496236, 0.02760852, -0.00416267], [0.00689486, -0.00416267, 0.00971293]]" rattle_target=all rattle_sigma_A=0.07100000000000001 distortion_label=combined_strain_rattle_fa_rotation minimum_distance_A=0.9508533001820426 minimum_pair_indices="_JSON [4, 12]" minimum_pair_symbols="_JSON [\"N\", \"H\"]" pbc="T T T"
C        4.50421832       4.87936505       3.56621771       0.00000000       0.00000000       0.00000000
C        9.01865997       0.11702886       3.71790687       0.00000000       0.00000000       0.00000000
N        5.65278034       4.85773944       3.31039735       0.00000000       0.00000000       0.00000000
N        3.42458832       4.27782410       2.83050967       0.00000000       0.00000000       0.00000000
N        1.02075520       8.36516406       2.97222788       0.00000000       0.00000000       0.00000000
N        8.15491398       0.89472325       3.06449684       0.00000000       0.00000000       0.00000000
H        4.20829394       5.22059913       4.58599783       0.00000000       0.00000000       0.00000000
H        6.46589983       5.23646072       3.91818054       0.00000000       0.00000000       0.00000000
H        6.12680121       4.48582155       2.31162893       0.00000000       0.00000000       0.00000000
H        3.49125184       3.72503406       1.89246700       0.00000000       0.00000000       0.00000000
H        2.52639302       4.34154268       3.21067688       0.00000000       0.00000000       0.00000000
H        8.92954804       0.11578908       4.75885332       0.00000000       0.00000000       0.00000000
H        1.53537114       7.77986736       3.51694819       0.00000000       0.00000000       0.00000000
H        1.05261921       8.34280973       1.93126001       0.00000000       0.00000000       0.00000000
H        8.09250141       1.04989438       2.07194238       0.00000000       0.00000000       0.00000000
H        7.57672082       1.39528426       3.68014503       0.00000000       0.00000000       0.00000000
Pb       9.09406509       4.52797538       6.40351407       0.00000000       0.00000000       0.00000000
Pb       4.60942344       0.05511486       6.27612039       0.00000000       0.00000000       0.00000000
I        9.07173487       4.54576702       3.23936775       0.00000000       0.00000000       0.00000000
I        4.63515734       9.18652671       3.12072579       0.00000000       0.00000000       0.00000000
I        2.08492599       2.08871417       6.14645148       0.00000000       0.00000000       0.00000000
I        2.61703915       6.62642838       6.17536879       0.00000000       0.00000000       0.00000000
I        6.54642185       2.60157590       0.03994492       0.00000000       0.00000000       0.00000000
I        7.24260907       7.22695175       6.28304488       0.00000000       0.00000000       0.00000000
24
Lattice="9.082280535597262 0.0858464231389778 0.06203489643834293 0.0858464231389778 9.047122345683768 -0.09632335972832173 0.04386007553667125 -0.06810279497813246 6.390890585216399" Properties=species:S:1:pos:R:3:momenta:R:3 config_id=t-FAPI3_al_combined_14__combined_strain_rattle_fa_rotation__sev-0.416__seed-new phase=t-FAPI3 mode=active_learning seed=1014259289 seed_origin=new seed_origin_config_id= parity_master_seed new_master_seed=20260901 source=t-FAPI3/CONTCAR formula=C2H10I6N4Pb2 natoms=24 fa_groups="_JSON [[0, 2, 3, 6, 7, 10, 8, 9], [1, 4, 5, 11, 12, 15, 13, 14]]" cell_A="_JSON [[9.0822805356, 0.0858464231, 0.0620348964], [0.0858464231, 9.0471223457, -0.0963233597], [0.0438600755, -0.068102795, 6.3908905852]]" distortion_family=combined distortion_severity=0.416 rotations="_JSON [{\"fa_group\": 0, \"kind\": \"axis_angle\", \"angle_deg\": -9.768676, \"axis\": [-0.36377482, -0.85206482, 0.37636874]}]" strain="_JSON [[0.01460038, 0.00959008, 0.00693005], [0.00959008, 0.01067279, -0.01076048], [0.00693005, -0.01076048, 0.00978329]]" rattle_target=all rattle_sigma_A=0.07244 distortion_label=combined_strain_rattle_fa_rotation minimum_distance_A=0.953007075750806 minimum_pair_indices="_JSON [1, 11]" minimum_pair_symbols="_JSON [\"C\", \"H\"]" pbc="T T T"
C        4.69813931       4.56642036       3.64508912       0.00000000       0.00000000       0.00000000
C        0.03345418       0.00855873       3.74442194       0.00000000       0.00000000       0.00000000
N        5.51848819       5.36166787       2.93856706       0.00000000       0.00000000       0.00000000
N        3.68771166       3.87604911       3.03620602       0.00000000       0.00000000       0.00000000
N        0.91733102       8.13081149       2.86632069       0.00000000       0.00000000       0.00000000
N        8.49763515       0.91560972       3.10150811       0.00000000       0.00000000       0.00000000
H        4.82226153       4.43869857       4.60924809       0.00000000       0.00000000       0.00000000
H        6.15461455       5.80378411       3.51527756       0.00000000       0.00000000       0.00000000
H        5.42782470       5.49052179       1.90679419       0.00000000       0.00000000       0.00000000
H        3.51597184       3.68214380       2.11659011       0.00000000       0.00000000       0.00000000
H        3.15407196       3.10646648       3.79984649       0.00000000       0.00000000       0.00000000
H        0.16098108       8.93287099       4.59223994       0.00000000       0.00000000       0.00000000
H        1.67354617       7.61802491       3.41230314       0.00000000       0.00000000       0.00000000
H        0.96524847       8.13261128       1.85585941       0.00000000       0.00000000       0.00000000
H        8.20715001       1.10670715       2.15423109       0.00000000       0.00000000       0.00000000
H        7.83509735       1.57356298       3.68031290       0.00000000       0.00000000       0.00000000
Pb       0.12358157       4.39814788       6.17139998       0.00000000       0.00000000       0.00000000
Pb       4.61900289       0.00035577       6.33043721       0.00000000       0.00000000       0.00000000
I        0.20147239       4.55913523       3.10784081       0.00000000       0.00000000       0.00000000
I        4.72380415       8.92992285       3.14548420       0.00000000       0.00000000       0.00000000
I        2.02600570       1.93526789       6.23920688       0.00000000       0.00000000       0.00000000
I        2.69404214       6.60335716      -0.03587809       0.00000000       0.00000000       0.00000000
I        6.57020978       2.54497189       6.29933460       0.00000000       0.00000000       0.00000000
I        7.17943684       7.09082275       6.31539274       0.00000000       0.00000000       0.00000000
24
Lattice="9.15995315153288 0.09869125863511731 0.08883771247688443 0.09869125863511731 9.042413315067753 0.016918431785900287 0.06281027298262568 0.011961714110849377 6.213541531062895" Properties=species:S:1:pos:R:3:momenta:R:3 config_id=t-FAPI3_al_combined_15__combined_strain_rattle_fa_rotation__sev-0.432__seed-new phase=t-FAPI3 mode=active_learning seed=1252557385 seed_origin=new seed_origin_config_id= parity_master_seed new_master_seed=20260901 source=t-FAPI3/CONTCAR formula=C2H10I6N4Pb2 natoms=24 fa_groups="_JSON [[0, 2, 3, 6, 7, 10, 8, 9], [1, 4, 5, 11, 12, 15, 13, 14]]" cell_A="_JSON [[9.1599531515, 0.0986912586, 0.0888377125], [0.0986912586, 9.0424133151, 0.0169184318], [0.062810273, 0.0119617141, 6.2135415311]]" distortion_family=combined distortion_severity=0.432 rotations="_JSON [{\"fa_group\": 1, \"kind\": \"axis_angle\", \"angle_deg\": -3.659322, \"axis\": [0.92737723, 0.10142555, -0.3601171]}]" strain="_JSON [[0.02327735, 0.01102501, 0.00992425], [0.01102501, 0.01014673, 0.00188999], [0.00992425, 0.00188999, -0.01823849]]" rattle_target=all rattle_sigma_A=0.07388 distortion_label=combined_strain_rattle_fa_rotation minimum_distance_A=0.8231922078744864 minimum_pair_indices="_JSON [4, 12]" minimum_pair_symbols="_JSON [\"N\", \"H\"]" pbc="T T T"
C        4.61291407       4.64210168       3.56177071       0.00000000       0.00000000       0.00000000
C        9.16682846       0.12750145       3.63541470       0.00000000       0.00000000       0.00000000
N        5.59382764       5.37321989       2.99485834       0.00000000       0.00000000       0.00000000
N        3.84660056       3.71311493       3.04280011       0.00000000       0.00000000       0.00000000
N        1.12367929       8.07613979       3.06042894       0.00000000       0.00000000       0.00000000
N        8.42625755       0.83164123       2.91644498       0.00000000       0.00000000       0.00000000
H        4.67446487       4.54783308       4.86852306       0.00000000       0.00000000       0.00000000
H        6.10471672       6.08224422       3.59350323       0.00000000       0.00000000       0.00000000
H        5.66111727       5.54133855       2.00149219       0.00000000       0.00000000       0.00000000
H        3.68585701       3.72960298       2.01750362       0.00000000       0.00000000       0.00000000
H        3.15526468       3.12567008       3.61264549       0.00000000       0.00000000       0.00000000
H        9.16363975       0.10840001       4.67314010       0.00000000       0.00000000       0.00000000
H        1.64388560       7.68920667       3.56768980       0.00000000       0.00000000       0.00000000
H        1.03379332       8.09304099       2.12498664       0.00000000       0.00000000       0.00000000
H        8.27892810       0.91395009       1.98669388       0.00000000       0.00000000       0.00000000
H        7.75874327       1.58795187       3.37370160       0.00000000       0.00000000       0.00000000
Pb       9.24442865       4.71928683       6.25731201       0.00000000       0.00000000       0.00000000
Pb       4.77431386       9.09603533       6.17815712       0.00000000       0.00000000       0.00000000
I        0.08856312       4.50262578       2.95551319       0.00000000       0.00000000       0.00000000
I        4.64956434       9.03899161       3.16623552       0.00000000       0.00000000       0.00000000
I        1.97010922       1.80972330       6.13706266       0.00000000       0.00000000       0.00000000
I        2.70561131       6.57259822       6.18330899       0.00000000       0.00000000       0.00000000
I        6.56112917       2.62441453       6.26615683       0.00000000       0.00000000       0.00000000
I        7.21053784       7.14945843       0.18494158       0.00000000       0.00000000       0.00000000
24
Lattice="8.813416654011112 0.028228183717172887 -0.01978478357182233 0.028228183717172887 9.0787055763768 0.017030288246504627 -0.013988289684650263 0.012040799159637154 6.173591184799436" Properties=species:S:1:pos:R:3:momenta:R:3 config_id=t-FAPI3_al_combined_16__combined_strain_rattle_fa_rotation__sev-0.448__seed-new phase=t-FAPI3 mode=active_learning seed=3383612812 seed_origin=new seed_origin_config_id= parity_master_seed new_master_seed=20260901 source=t-FAPI3/CONTCAR formula=C2H10I6N4Pb2 natoms=24 fa_groups="_JSON [[0, 2, 3, 6, 7, 10, 8, 9], [1, 4, 5, 11, 12, 15, 13, 14]]" cell_A="_JSON [[8.813416654, 0.0282281837, -0.0197847836], [0.0282281837, 9.0787055764, 0.0170302882], [-0.0139882897, 0.0120407992, 6.1735911848]]" distortion_family=combined distortion_severity=0.448 rotations="_JSON [{\"fa_group\": 0, \"kind\": \"axis_angle\", \"angle_deg\": -38.222865, \"axis\": [0.01920967, 0.82901763, 0.55889244]}, {\"fa_group\": 1, \"kind\": \"axis_angle\", \"angle_deg\": -29.560543, \"axis\": [0.70033641, 0.66247302, -0.26581649]}]" strain="_JSON [[-0.01543496, 0.00315343, -0.0022102], [0.00315343, 0.01420102, 0.00190249], [-0.0022102, 0.00190249, -0.02455078]]" rattle_target=all rattle_sigma_A=0.07532 distortion_label=combined_strain_rattle_fa_rotation minimum_distance_A=0.9241043301746001 minimum_pair_indices="_JSON [5, 14]" minimum_pair_symbols="_JSON [\"N\", \"H\"]" pbc="T T T"
C        4.01857059       4.52893887       3.33651365       0.00000000       0.00000000       0.00000000
C        8.72304570       0.20686937       3.35788049       0.00000000       0.00000000       0.00000000
N        5.52453870       5.02964617       3.35607925       0.00000000       0.00000000       0.00000000
N        3.60972750       4.04466621       2.57162216       0.00000000       0.00000000       0.00000000
N        0.85957310       8.31772471       3.40375843       0.00000000       0.00000000       0.00000000
N        8.00394231       0.56544523       2.31542525       0.00000000       0.00000000       0.00000000
H        3.57569993       4.52254082       4.36722021       0.00000000       0.00000000       0.00000000
H        5.72791559       5.66421142       4.20992635       0.00000000       0.00000000       0.00000000
H        6.01646050       4.89199970       2.55893275       0.00000000       0.00000000       0.00000000
H        3.96751387       3.94436610       1.50103727       0.00000000       0.00000000       0.00000000
H        2.63796465       3.65862293       2.48885924       0.00000000       0.00000000       0.00000000
H        8.27732764       0.49790754       4.35617050       0.00000000       0.00000000       0.00000000
H        1.21438099       8.09516304       4.52775726       0.00000000       0.00000000       0.00000000
H        1.47416231       7.95933909       2.76293914       0.00000000       0.00000000       0.00000000
H        8.28887614       0.32908160       1.46871765       0.00000000       0.00000000       0.00000000
H        7.31711686       1.25345569       2.54829945       0.00000000       0.00000000       0.00000000
Pb       8.72104618       4.69911535       6.16077144       0.00000000       0.00000000       0.00000000
Pb       4.44565594       9.07353620       0.05601073       0.00000000       0.00000000       0.00000000
I        0.06394022       4.49812076       3.14349305       0.00000000       0.00000000       0.00000000
I        4.38288665       0.07800873       3.08402812       0.00000000       0.00000000       0.00000000
I        1.86873108       2.02000787       6.15298798       0.00000000       0.00000000       0.00000000
I        2.52870994       6.57017238       0.02419107       0.00000000       0.00000000       0.00000000
I        6.17411518       2.51395547       6.01832756       0.00000000       0.00000000       0.00000000
I        6.93586422       7.17869056       6.16474585       0.00000000       0.00000000       0.00000000
24
Lattice="9.221592179097954 -0.05719453745662244 0.1109472862715072 -0.05719453745662244 8.959851206772953 -0.03445837665872519 0.07844224196124053 -0.0243628520380444 6.279066626356361" Properties=species:S:1:pos:R:3:momenta:R:3 config_id=t-FAPI3_al_combined_17__combined_strain_rattle_fa_rotation__sev-0.464__seed-new phase=t-FAPI3 mode=active_learning seed=3598747751 seed_origin=new seed_origin_config_id= parity_master_seed new_master_seed=20260901 source=t-FAPI3/CONTCAR formula=C2H10I6N4Pb2 natoms=24 fa_groups="_JSON [[0, 2, 3, 6, 7, 10, 8, 9], [1, 4, 5, 11, 12, 15, 13, 14]]" cell_A="_JSON [[9.2215921791, -0.0571945375, 0.1109472863], [-0.0571945375, 8.9598512068, -0.0344583767], [0.078442242, -0.024362852, 6.2790666264]]" distortion_family=combined distortion_severity=0.464 rotations="_JSON [{\"fa_group\": 0, \"kind\": \"axis_angle\", \"angle_deg\": -15.386848, \"axis\": [-0.19467817, -0.94068268, 0.27787858]}]" strain="_JSON [[0.03016318, -0.00638932, 0.01239415], [-0.00638932, 0.00092355, -0.00384942], [0.01239415, -0.00384942, -0.00788529]]" rattle_target=all rattle_sigma_A=0.07676 distortion_label=combined_strain_rattle_fa_rotation minimum_distance_A=0.8627629932519153 minimum_pair_indices="_JSON [4, 13]" minimum_pair_symbols="_JSON [\"N\", \"H\"]" pbc="T T T"
C        4.75696046       4.44822277       3.49807684       0.00000000       0.00000000       0.00000000
C        9.14501506       8.80578035       3.58010437       0.00000000       0.00000000       0.00000000
N        5.51889771       5.28156826       2.96139610       0.00000000       0.00000000       0.00000000
N        3.64486084       3.69780030       3.16929082       0.00000000       0.00000000       0.00000000
N        0.76741539       8.08144830       2.91209043       0.00000000       0.00000000       0.00000000
N        8.43762300       0.66256403       3.00390363       0.00000000       0.00000000       0.00000000
H        4.96222887       4.27508210       4.54647351       0.00000000       0.00000000       0.00000000
H        6.27796947       5.81700997       3.37384204       0.00000000       0.00000000       0.00000000
H        5.25478980       5.31431340       1.95073503       0.00000000       0.00000000       0.00000000
H        3.35482733       3.61575654       2.18985206       0.00000000       0.00000000       0.00000000
H        3.13656480       3.21031130       3.89162955       0.00000000       0.00000000       0.00000000
H        0.02275386       8.82134387       4.68063833       0.00000000       0.00000000       0.00000000
H        1.40587190       7.40667628       3.59070219       0.00000000       0.00000000       0.00000000
H        1.00389428       8.07502333       2.08239383       0.00000000       0.00000000       0.00000000
H        8.27436285       0.74808913       2.11377124       0.00000000       0.00000000       0.00000000
H        7.79293487       1.36877934       3.61629960       0.00000000       0.00000000       0.00000000
Pb       0.11382009       4.39658590       6.13205653       0.00000000       0.00000000       0.00000000
Pb       4.65035354       8.89439186       6.15083054       0.00000000       0.00000000       0.00000000
I        9.12157239       4.31738511       3.23706417       0.00000000       0.00000000       0.00000000
I        4.60602855       8.88495812       3.15280787       0.00000000       0.00000000       0.00000000
I        2.10067681       2.03894894       6.13151617       0.00000000       0.00000000       0.00000000
I        2.46907000       6.43334485       0.00926772       0.00000000       0.00000000       0.00000000
I        6.63349574       2.50231003       6.31840790       0.00000000       0.00000000       0.00000000
I        7.10893449       6.93443329       6.33106803       0.00000000       0.00000000       0.00000000
24
Lattice="8.967633271932032 -0.023165644941994974 -0.09113601298988756 -0.023165644941994974 8.881049540620227 -0.015167998759447056 -0.06443522345234198 -0.01072411835152657 6.212575327698843" Properties=species:S:1:pos:R:3:momenta:R:3 config_id=t-FAPI3_al_combined_18__combined_strain_rattle_fa_rotation__sev-0.480__seed-parity phase=t-FAPI3 mode=active_learning seed=1565246092 seed_origin=parity seed_origin_config_id=t-FAPI3_parity_48__combined_strain_rattle_fa_rotation__sev-0.8 parity_master_seed=20260810 new_master_seed source=t-FAPI3/CONTCAR formula=C2H10I6N4Pb2 natoms=24 fa_groups="_JSON [[0, 2, 3, 6, 7, 10, 8, 9], [1, 4, 5, 11, 12, 15, 13, 14]]" cell_A="_JSON [[8.9676332719, -0.0231656449, -0.091136013], [-0.0231656449, 8.8810495406, -0.0151679988], [-0.0644352235, -0.0107241184, 6.2125753277]]" distortion_family=combined distortion_severity=0.48 rotations="_JSON [{\"fa_group\": 0, \"kind\": \"axis_angle\", \"angle_deg\": -24.270357, \"axis\": [0.25613726, 0.93834673, 0.23216184]}, {\"fa_group\": 1, \"kind\": \"axis_angle\", \"angle_deg\": -23.992109, \"axis\": [0.73868419, -0.28385398, 0.61136943]}]" strain="_JSON [[0.0017929, -0.00258788, -0.01018099], [-0.00258788, -0.00787955, -0.00169445], [-0.01018099, -0.00169445, -0.01839115]]" rattle_target=all rattle_sigma_A=0.07819999999999999 distortion_label=combined_strain_rattle_fa_rotation minimum_distance_A=0.7823092844930475 minimum_pair_indices="_JSON [2, 8]" minimum_pair_symbols="_JSON [\"N\", \"H\"]" pbc="T T T"
C        4.22279267       4.60134333       3.60934496       0.00000000       0.00000000       0.00000000
C        8.88864683       0.07337194       3.33371092       0.00000000       0.00000000       0.00000000
N        5.48376924       5.21076353       3.03799604       0.00000000       0.00000000       0.00000000
N        3.63107737       3.75522623       2.76354623       0.00000000       0.00000000       0.00000000
N        0.41653302       7.83686377       3.25797543       0.00000000       0.00000000       0.00000000
N        8.27279126       0.98494065       2.82380653       0.00000000       0.00000000       0.00000000
H        3.87669826       4.62793400       4.48573646       0.00000000       0.00000000       0.00000000
H        5.74031860       5.76563655       3.85968284       0.00000000       0.00000000       0.00000000
H        5.83304062       5.08708816       2.34899552       0.00000000       0.00000000       0.00000000
H        3.93250817       3.52656874       1.83947161       0.00000000       0.00000000       0.00000000
H        2.71026141       3.06341374       3.09581981       0.00000000       0.00000000       0.00000000
H        0.22580852       0.45912819       4.55916854       0.00000000       0.00000000       0.00000000
H        1.11355431       7.31133451       3.70946100       0.00000000       0.00000000       0.00000000
H        0.43940600       7.49982977       2.21710461       0.00000000       0.00000000       0.00000000
H        8.14940650       0.75401636       1.68513238       0.00000000       0.00000000       0.00000000
H        7.96461733       1.80281175       3.11264263       0.00000000       0.00000000       0.00000000
Pb       8.77613162       4.45065170       5.94910524       0.00000000       0.00000000       0.00000000
Pb       4.54269320       0.06142710       5.99959934       0.00000000       0.00000000       0.00000000
I        0.01530432       4.49553922       3.04392875       0.00000000       0.00000000       0.00000000
I        4.32776549       0.13860545       2.94001921       0.00000000       0.00000000       0.00000000
I        1.98714926       1.86688166       0.03589300       0.00000000       0.00000000       0.00000000
I        2.34575268       6.38306342       6.16238782       0.00000000       0.00000000       0.00000000
I        6.53947461       2.49178801      -0.04312773       0.00000000       0.00000000       0.00000000
I        6.96403002       6.80022575       6.02838557       0.00000000       0.00000000       0.00000000
24
Lattice="9.220573149022515 0.10312445120039944 -0.030323060806225387 0.10312445120039944 8.765084894840072 -0.07167171850614927 -0.021439090154458343 -0.05067352680514469 6.221266229839465" Properties=species:S:1:pos:R:3:momenta:R:3 config_id=t-FAPI3_al_combined_19__combined_strain_rattle_fa_rotation__sev-0.496__seed-new phase=t-FAPI3 mode=active_learning seed=1075243148 seed_origin=new seed_origin_config_id= parity_master_seed new_master_seed=20260901 source=t-FAPI3/CONTCAR formula=C2H10I6N4Pb2 natoms=24 fa_groups="_JSON [[0, 2, 3, 6, 7, 10, 8, 9], [1, 4, 5, 11, 12, 15, 13, 14]]" cell_A="_JSON [[9.220573149, 0.1031244512, -0.0303230608], [0.1031244512, 8.7650848948, -0.0716717185], [-0.0214390902, -0.0506735268, 6.2212662298]]" distortion_family=combined distortion_severity=0.496 rotations="_JSON [{\"fa_group\": 1, \"kind\": \"axis_angle\", \"angle_deg\": 34.07651, \"axis\": [0.89430524, 0.43975658, 0.08265765]}]" strain="_JSON [[0.03004934, 0.01152025, -0.00338745], [0.01152025, -0.0208342, -0.0080066], [-0.00338745, -0.0080066, -0.01701796]]" rattle_target=all rattle_sigma_A=0.07964 distortion_label=combined_strain_rattle_fa_rotation minimum_distance_A=0.8278068235097175 minimum_pair_indices="_JSON [2, 7]" minimum_pair_symbols="_JSON [\"N\", \"H\"]" pbc="T T T"
C        4.62379708       4.32735227       3.40199051       0.00000000       0.00000000       0.00000000
C        0.17659541       8.58567079       3.44821868       0.00000000       0.00000000       0.00000000
N        5.74304132       5.43830856       2.79266886       0.00000000       0.00000000       0.00000000
N        3.74774408       3.53897464       2.92685367       0.00000000       0.00000000       0.00000000
N        0.89282818       8.26412022       2.42586057       0.00000000       0.00000000       0.00000000
N        8.36554572       0.69891717       3.57337260       0.00000000       0.00000000       0.00000000
H        4.61703367       4.46604449       4.66936540       0.00000000       0.00000000       0.00000000
H        6.19049440       5.72270614       3.42841086       0.00000000       0.00000000       0.00000000
H        5.58403472       5.13454788       1.85025544       0.00000000       0.00000000       0.00000000
H        3.66079522       3.50324149       1.95753769       0.00000000       0.00000000       0.00000000
H        3.19637107       2.97519732       3.46444574       0.00000000       0.00000000       0.00000000
H        0.51212808       8.14123213       4.34240458       0.00000000       0.00000000       0.00000000
H        1.70501336       7.50570141       2.25524108       0.00000000       0.00000000       0.00000000
H        0.63516105       8.58499060       1.48733991       0.00000000       0.00000000       0.00000000
H        7.94338555       1.29837390       2.98520522       0.00000000       0.00000000       0.00000000
H        7.92116539       1.00072716       4.45711870       0.00000000       0.00000000       0.00000000
Pb       9.18269277       4.45719376       6.08032770       0.00000000       0.00000000       0.00000000
Pb       4.67449363       8.70646338       6.10499490       0.00000000       0.00000000       0.00000000
I        9.23732632       4.44110361       3.09677462       0.00000000       0.00000000       0.00000000
I        4.52268719       0.12571940       3.16798054       0.00000000       0.00000000       0.00000000
I        2.11411088       1.87533325       6.16026576       0.00000000       0.00000000       0.00000000
I        2.65811923       6.19878874       6.09945692       0.00000000       0.00000000       0.00000000
I        6.64863329       2.46920440       6.05089330       0.00000000       0.00000000       0.00000000
I        7.41592272       6.98075484      -0.05853205       0.00000000       0.00000000       0.00000000
24
Lattice="8.921575460645172 0.08139097170684081 0.047114121448452013 0.08139097170684081 8.847040894785417 0.10076640679033914 0.0333107499845164 0.07124412979033376 6.370608851541469" Properties=species:S:1:pos:R:3:momenta:R:3 config_id=t-FAPI3_al_combined_20__combined_strain_rattle_fa_rotation__sev-0.512__seed-new phase=t-FAPI3 mode=active_learning seed=2301741196 seed_origin=new seed_origin_config_id= parity_master_seed new_master_seed=20260901 source=t-FAPI3/CONTCAR formula=C2H10I6N4Pb2 natoms=24 fa_groups="_JSON [[0, 2, 3, 6, 7, 10, 8, 9], [1, 4, 5, 11, 12, 15, 13, 14]]" cell_A="_JSON [[8.9215754606, 0.0813909717, 0.0471141214], [0.0813909717, 8.8470408948, 0.1007664068], [0.03331075, 0.0712441298, 6.3706088515]]" distortion_family=combined distortion_severity=0.512 rotations="_JSON [{\"fa_group\": 0, \"kind\": \"axis_angle\", \"angle_deg\": -39.018043, \"axis\": [0.61185209, 0.05534266, -0.78903372]}]" strain="_JSON [[-0.00335231, 0.00909235, 0.00526322], [0.00909235, -0.01167872, 0.01125682], [0.00526322, 0.01125682, 0.0065787]]" rattle_target=all rattle_sigma_A=0.08108 distortion_label=combined_strain_rattle_fa_rotation minimum_distance_A=0.8975213854985262 minimum_pair_indices="_JSON [2, 7]" minimum_pair_symbols="_JSON [\"N\", \"H\"]" pbc="T T T"
C        4.49943919       4.63986207       3.81958574       0.00000000       0.00000000       0.00000000
C        8.91208847       0.15744271       3.67359502       0.00000000       0.00000000       0.00000000
N        4.77232420       5.58184330       2.79264257       0.00000000       0.00000000       0.00000000
N        4.24673112       3.36638221       3.47534016       0.00000000       0.00000000       0.00000000
N        0.94726716       8.22917014       3.05315228       0.00000000       0.00000000       0.00000000
N        8.18286763       0.92777444       3.27480298       0.00000000       0.00000000       0.00000000
H        4.22482630       5.18285150       4.62440123       0.00000000       0.00000000       0.00000000
H        5.00119680       6.42845924       2.98343937       0.00000000       0.00000000       0.00000000
H        5.00627355       5.10662987       1.75229406       0.00000000       0.00000000       0.00000000
H        4.28225810       2.93691955       2.52530261       0.00000000       0.00000000       0.00000000
H        3.94351362       2.82770785       4.14202916       0.00000000       0.00000000       0.00000000
H        0.17002837       8.83277775       4.74479566       0.00000000       0.00000000       0.00000000
H        1.36490861       7.45221366       3.65173205       0.00000000       0.00000000       0.00000000
H        0.98278540       7.96872626       2.13466353       0.00000000       0.00000000       0.00000000
H        8.07886638       1.05119078       2.09274898       0.00000000       0.00000000       0.00000000
H        7.45546815       1.50860422       3.71331317       0.00000000       0.00000000       0.00000000
Pb       8.83907329       4.58618746       0.22335418       0.00000000       0.00000000       0.00000000
Pb       4.50978661       0.15153649       6.35954516       0.00000000       0.00000000       0.00000000
I        0.09057801       4.49378430       3.09962618       0.00000000       0.00000000       0.00000000
I        4.41910959       0.08631328       3.15690706       0.00000000       0.00000000       0.00000000
I        2.09296361       2.17353115       6.27596964       0.00000000       0.00000000       0.00000000
I        2.50644354       6.55855813       6.45639698       0.00000000       0.00000000       0.00000000
I        6.52623598       2.61065152       6.24831010       0.00000000       0.00000000       0.00000000
I        7.06649983       7.05784052       6.36855012       0.00000000       0.00000000       0.00000000
24
Lattice="8.929081381655584 0.025332815447475482 0.12733112485877504 0.025332815447475482 9.146653489927466 0.009963200903109298 0.09002598658363087 0.007044208490486161 6.288947446564289" Properties=species:S:1:pos:R:3:momenta:R:3 config_id=t-FAPI3_al_combined_21__combined_strain_rattle_fa_rotation__sev-0.528__seed-new phase=t-FAPI3 mode=active_learning seed=3324483476 seed_origin=new seed_origin_config_id= parity_master_seed new_master_seed=20260901 source=t-FAPI3/CONTCAR formula=C2H10I6N4Pb2 natoms=24 fa_groups="_JSON [[0, 2, 3, 6, 7, 10, 8, 9], [1, 4, 5, 11, 12, 15, 13, 14]]" cell_A="_JSON [[8.9290813817, 0.0253328154, 0.1273311249], [0.0253328154, 9.1466534899, 0.0099632009], [0.0900259866, 0.0070442085, 6.2889474466]]" distortion_family=combined distortion_severity=0.528 rotations="_JSON [{\"fa_group\": 1, \"kind\": \"axis_angle\", \"angle_deg\": 14.596461, \"axis\": [-0.70663704, 0.37976639, -0.59702729]}]" strain="_JSON [[-0.00251381, 0.00282998, 0.01422442], [0.00282998, 0.02179162, 0.00111301], [0.01422442, 0.00111301, -0.00632409]]" rattle_target=all rattle_sigma_A=0.08252000000000001 distortion_label=combined_strain_rattle_fa_rotation minimum_distance_A=0.9949555165038335 minimum_pair_indices="_JSON [4, 13]" minimum_pair_symbols="_JSON [\"N\", \"H\"]" pbc="T T T"
C        4.54015889       4.47076311       3.69448377       0.00000000       0.00000000       0.00000000
C        0.20640768       0.11278592       3.55994217       0.00000000       0.00000000       0.00000000
N        5.14915040       5.46280987       3.06396933       0.00000000       0.00000000       0.00000000
N        3.78826824       3.73733316       3.07056405       0.00000000       0.00000000       0.00000000
N        0.92308026       8.23743685       3.04447246       0.00000000       0.00000000       0.00000000
N        8.32208163       0.97451916       3.03791305       0.00000000       0.00000000       0.00000000
H        4.65787578       4.57580640       4.70355120       0.00000000       0.00000000       0.00000000
H        5.85583614       5.98362200       3.67725568       0.00000000       0.00000000       0.00000000
H        5.37991621       5.50210291       2.03761733       0.00000000       0.00000000       0.00000000
H        3.51446553       3.65474403       2.10708435       0.00000000       0.00000000       0.00000000
H        2.96631536       3.02968829       3.62326367       0.00000000       0.00000000       0.00000000
H        0.08564394       0.17457942       4.73471184       0.00000000       0.00000000       0.00000000
H        1.41249936       7.59444175       3.82576530       0.00000000       0.00000000       0.00000000
H        0.72583637       7.81037636       2.16774522       0.00000000       0.00000000       0.00000000
H        8.03962808       0.75677671       1.99754235       0.00000000       0.00000000       0.00000000
H        7.67116997       1.66093320       3.46969180       0.00000000       0.00000000       0.00000000
Pb       8.97850480       4.53057913       6.30827763       0.00000000       0.00000000       0.00000000
Pb       4.69198724       9.01978962       6.32253646       0.00000000       0.00000000       0.00000000
I        8.93065218       4.57970701       3.34680464       0.00000000       0.00000000       0.00000000
I        4.36299210       9.15761866       3.07492706       0.00000000       0.00000000       0.00000000
I        2.04823598       2.07365435       6.27154761       0.00000000       0.00000000       0.00000000
I        2.66499497       6.64861797       6.20425598       0.00000000       0.00000000       0.00000000
I        6.40800572       2.47784154       0.12103145       0.00000000       0.00000000       0.00000000
I        6.92228232       7.12453238       6.28753626       0.00000000       0.00000000       0.00000000
24
Lattice="9.124161587882126 0.11520563690743432 0.05988292107128869 0.11520563690743432 8.95945968943896 0.03978343542902423 0.042338580256254914 0.02812778908657586 6.1229754226590165" Properties=species:S:1:pos:R:3:momenta:R:3 config_id=t-FAPI3_al_combined_22__combined_strain_rattle_fa_rotation__sev-0.544__seed-new phase=t-FAPI3 mode=active_learning seed=403052389 seed_origin=new seed_origin_config_id= parity_master_seed new_master_seed=20260901 source=t-FAPI3/CONTCAR formula=C2H10I6N4Pb2 natoms=24 fa_groups="_JSON [[0, 2, 3, 6, 7, 10, 8, 9], [1, 4, 5, 11, 12, 15, 13, 14]]" cell_A="_JSON [[9.1241615879, 0.1152056369, 0.0598829211], [0.1152056369, 8.9594596894, 0.0397834354], [0.0423385803, 0.0281277891, 6.1229754227]]" distortion_family=combined distortion_severity=0.544 rotations="_JSON [{\"fa_group\": 0, \"kind\": \"axis_angle\", \"angle_deg\": -19.851952, \"axis\": [-0.91140375, -0.27513169, 0.30601593]}, {\"fa_group\": 1, \"kind\": \"axis_angle\", \"angle_deg\": 43.349335, \"axis\": [0.9195493, -0.38601719, 0.07361933]}]" strain="_JSON [[0.019279, 0.01286986, 0.00668965], [0.01286986, 0.00087981, 0.00444429], [0.00668965, 0.00444429, -0.03254825]]" rattle_target=all rattle_sigma_A=0.08396 distortion_label=combined_strain_rattle_fa_rotation minimum_distance_A=0.7442260708368827 minimum_pair_indices="_JSON [5, 15]" minimum_pair_symbols="_JSON [\"N\", \"H\"]" pbc="T T T"
C        4.72848409       4.31980793       3.59419556       0.00000000       0.00000000       0.00000000
C        0.22349709       8.79658497       3.56591290       0.00000000       0.00000000       0.00000000
N        5.53453451       5.32582756       3.13526174       0.00000000       0.00000000       0.00000000
N        3.57283465       4.02298584       2.91408292       0.00000000       0.00000000       0.00000000
N        1.06982284       8.41934653       2.90759762       0.00000000       0.00000000       0.00000000
N        8.23621419       0.89405698       3.49276702       0.00000000       0.00000000       0.00000000
H        4.71833459       4.07734125       4.39461540       0.00000000       0.00000000       0.00000000
H        6.34966553       5.69383397       3.86806395       0.00000000       0.00000000       0.00000000
H        5.70678753       5.66114184       2.15661877       0.00000000       0.00000000       0.00000000
H        3.50811044       4.09505893       1.97243472       0.00000000       0.00000000       0.00000000
H        3.01933926       3.01605668       3.29908221       0.00000000       0.00000000       0.00000000
H        8.88727784       8.14826573       4.35066576       0.00000000       0.00000000       0.00000000
H        1.56440407       7.67299332       2.83560621       0.00000000       0.00000000       0.00000000
H        1.51406478       8.84648327       1.94099382       0.00000000       0.00000000       0.00000000
H        8.48476814       1.60455040       2.55543903       0.00000000       0.00000000       0.00000000
H        7.60138832       1.08957783       3.82838609       0.00000000       0.00000000       0.00000000
Pb       9.16235567       4.57110346       0.08192533       0.00000000       0.00000000       0.00000000
Pb       4.89410778       9.01085147       6.10138561       0.00000000       0.00000000       0.00000000
I        0.15767707       4.49743442       3.23243436       0.00000000       0.00000000       0.00000000
I        4.67519112       8.88054572       3.12969924       0.00000000       0.00000000       0.00000000
I        1.99026661       2.08919280       6.10234586       0.00000000       0.00000000       0.00000000
I        2.65638952       6.51016982       6.06945348       0.00000000       0.00000000       0.00000000
I        6.60292253       2.73119057       0.05544146       0.00000000       0.00000000       0.00000000
I        7.20540902       6.99101878       5.99906385       0.00000000       0.00000000       0.00000000
24
Lattice="8.924422222832263 -0.0004029817447927365 -0.1167048655147666 -0.0004029817447927365 9.087541860688638 -0.07940536643360915 -0.0825129807714313 -0.05614139089047518 6.382971095115381" Properties=species:S:1:pos:R:3:momenta:R:3 config_id=t-FAPI3_al_combined_23__combined_strain_rattle_fa_rotation__sev-0.560__seed-parity phase=t-FAPI3 mode=active_learning seed=2401096036 seed_origin=parity seed_origin_config_id=t-FAPI3_parity_50__combined_strain_rattle_fa_rotation__sev-1.0 parity_master_seed=20260810 new_master_seed source=t-FAPI3/CONTCAR formula=C2H10I6N4Pb2 natoms=24 fa_groups="_JSON [[0, 2, 3, 6, 7, 10, 8, 9], [1, 4, 5, 11, 12, 15, 13, 14]]" cell_A="_JSON [[8.9244222228, -0.0004029817, -0.1167048655], [-0.0004029817, 9.0875418607, -0.0794053664], [-0.0825129808, -0.0561413909, 6.3829710951]]" distortion_family=combined distortion_severity=0.56 rotations="_JSON [{\"fa_group\": 0, \"kind\": \"axis_angle\", \"angle_deg\": -34.330222, \"axis\": [0.00254264, -0.86243602, 0.50615971]}, {\"fa_group\": 1, \"kind\": \"axis_angle\", \"angle_deg\": 36.303873, \"axis\": [0.60605549, 0.65553068, -0.45052887]}]" strain="_JSON [[-0.00303429, -4.502e-05, -0.01303734], [-4.502e-05, 0.01518814, -0.00887054], [-0.01303734, -0.00887054, 0.00853198]]" rattle_target=all rattle_sigma_A=0.0854 distortion_label=combined_strain_rattle_fa_rotation minimum_distance_A=0.9241100454043958 minimum_pair_indices="_JSON [4, 13]" minimum_pair_symbols="_JSON [\"N\", \"H\"]" pbc="T T T"
C        4.66879855       4.50506747       3.48076867       0.00000000       0.00000000       0.00000000
C        0.13796821       8.94545445       3.51530292       0.00000000       0.00000000       0.00000000
N        5.28002787       5.06726364       2.51530789       0.00000000       0.00000000       0.00000000
N        3.50589002       4.04411043       3.41762697       0.00000000       0.00000000       0.00000000
N        0.23496466       8.34936781       2.35082676       0.00000000       0.00000000       0.00000000
N        8.27196431       0.87544957       3.57024870       0.00000000       0.00000000       0.00000000
H        5.14686311       4.37972518       4.48367031       0.00000000       0.00000000       0.00000000
H        6.20401595       5.36874743       2.60677122       0.00000000       0.00000000       0.00000000
H        4.74071551       5.20199439       1.43468577       0.00000000       0.00000000       0.00000000
H        2.76755809       4.02992757       2.58513634       0.00000000       0.00000000       0.00000000
H        2.99693012       3.53688373       4.35997115       0.00000000       0.00000000       0.00000000
H        0.30163405       8.34949582       4.31311095       0.00000000       0.00000000       0.00000000
H        0.82798682       7.33921386       2.55033913       0.00000000       0.00000000       0.00000000
H        0.13683861       8.55104868       1.45434727       0.00000000       0.00000000       0.00000000
H        7.98235565       1.52402832       2.78512943       0.00000000       0.00000000       0.00000000
H        8.15940462       1.27974874       4.60183077       0.00000000       0.00000000       0.00000000
Pb       8.80499146       4.51232858       6.11435592       0.00000000       0.00000000       0.00000000
Pb       4.36114548       9.00059154      -0.04335197       0.00000000       0.00000000       0.00000000
I       -0.03168186       4.44346064       3.12986392       0.00000000       0.00000000       0.00000000
I        4.39586001       0.14172568       3.18695111       0.00000000       0.00000000       0.00000000
I        1.86387363       1.89748756       6.33103146       0.00000000       0.00000000       0.00000000
I        2.42601346       6.68180772      -0.04449279       0.00000000       0.00000000       0.00000000
I        6.41098702       2.56759681       6.23401520       0.00000000       0.00000000       0.00000000
I        7.01144277       6.93833032      -0.09104913       0.00000000       0.00000000       0.00000000
24
Lattice="8.744402365998946 0.09165905354175309 -0.04385025828490436 0.09165905354175309 8.930044319259734 0.1243407809129128 -0.03100312487166012 0.08791174574699945 6.194323006230919" Properties=species:S:1:pos:R:3:momenta:R:3 config_id=t-FAPI3_al_combined_24__combined_strain_rattle_fa_rotation__sev-0.576__seed-new phase=t-FAPI3 mode=active_learning seed=3141299006 seed_origin=new seed_origin_config_id= parity_master_seed new_master_seed=20260901 source=t-FAPI3/CONTCAR formula=C2H10I6N4Pb2 natoms=24 fa_groups="_JSON [[0, 2, 3, 6, 7, 10, 8, 9], [1, 4, 5, 11, 12, 15, 13, 14]]" cell_A="_JSON [[8.744402366, 0.0916590535, -0.0438502583], [0.0916590535, 8.9300443193, 0.1243407809], [-0.0310031249, 0.0879117457, 6.1943230062]]" distortion_family=combined distortion_severity=0.576 rotations="_JSON [{\"fa_group\": 0, \"kind\": \"axis_angle\", \"angle_deg\": 19.38779, \"axis\": [0.06448572, -0.98813422, -0.13940001]}, {\"fa_group\": 1, \"kind\": \"axis_angle\", \"angle_deg\": -31.082639, \"axis\": [0.02032205, -0.87406626, -0.48538149]}]" strain="_JSON [[-0.02314469, 0.01023942, -0.0048986], [0.01023942, -0.00240624, 0.01389037], [-0.0048986, 0.01389037, -0.02127508]]" rattle_target=all rattle_sigma_A=0.08684 distortion_label=combined_strain_rattle_fa_rotation minimum_distance_A=0.6877540156894351 minimum_pair_indices="_JSON [4, 12]" minimum_pair_symbols="_JSON [\"N\", \"H\"]" pbc="T T T"
C        4.21897051       4.67227879       3.45417459       0.00000000       0.00000000       0.00000000
C        0.09918968       0.15962860       3.55542565       0.00000000       0.00000000       0.00000000
N        5.24764824       5.34279570       3.38932485       0.00000000       0.00000000       0.00000000
N        3.60568126       3.67336651       2.66871289       0.00000000       0.00000000       0.00000000
N        0.99858311       8.38052061       2.68942768       0.00000000       0.00000000       0.00000000
N        7.70311774       0.73947358       3.23902148       0.00000000       0.00000000       0.00000000
H        3.92877440       4.41583298       4.75136119       0.00000000       0.00000000       0.00000000
H        5.76109299       5.96600948       4.11057090       0.00000000       0.00000000       0.00000000
H        5.54143509       5.43960648       2.34007023       0.00000000       0.00000000       0.00000000
H        3.97348880       3.70514194       1.73051013       0.00000000       0.00000000       0.00000000
H        2.78791801       3.08802316       3.02906795       0.00000000       0.00000000       0.00000000
H        0.65969688       0.11073149       4.55972895       0.00000000       0.00000000       0.00000000
H        1.58663293       8.09602838       2.90452573       0.00000000       0.00000000       0.00000000
H        0.46788857       8.11392956       1.70624849       0.00000000       0.00000000       0.00000000
H        7.24042341       0.64546918       2.52307171       0.00000000       0.00000000       0.00000000
H        7.31203809       1.15290195       4.07157776       0.00000000       0.00000000       0.00000000
Pb       0.11553762       4.45314471       6.12314351       0.00000000       0.00000000       0.00000000
Pb       4.37438461       8.91396646       0.27643192       0.00000000       0.00000000       0.00000000
I        8.76292460       4.46264430       3.08291291       0.00000000       0.00000000       0.00000000
I        4.36662470       8.91041107       3.05048692       0.00000000       0.00000000       0.00000000
I        2.06200639       2.00545675       0.03061119       0.00000000       0.00000000       0.00000000
I        2.65460783       6.37858794       0.13176912       0.00000000       0.00000000       0.00000000
I        6.30365228       2.73989830       6.10636246       0.00000000       0.00000000       0.00000000
I        6.91108272       6.96001742       0.08287231       0.00000000       0.00000000       0.00000000
24
Lattice="8.843968435584769 0.025005021670051936 -0.031249938527362752 0.025005021670051936 9.149424151334262 0.06005006054504275 -0.022094413677126713 0.04245675164630952 6.499608721180619" Properties=species:S:1:pos:R:3:momenta:R:3 config_id=t-FAPI3_al_combined_25__combined_strain_rattle_fa_rotation__sev-0.592__seed-new phase=t-FAPI3 mode=active_learning seed=2964556346 seed_origin=new seed_origin_config_id= parity_master_seed new_master_seed=20260901 source=t-FAPI3/CONTCAR formula=C2H10I6N4Pb2 natoms=24 fa_groups="_JSON [[0, 2, 3, 6, 7, 10, 8, 9], [1, 4, 5, 11, 12, 15, 13, 14]]" cell_A="_JSON [[8.8439684356, 0.0250050217, -0.0312499385], [0.0250050217, 9.1494241513, 0.0600500605], [-0.0220944137, 0.0424567516, 6.4996087212]]" distortion_family=combined distortion_severity=0.592 rotations="_JSON [{\"fa_group\": 0, \"kind\": \"axis_angle\", \"angle_deg\": -23.514076, \"axis\": [-0.2321491, -0.95731999, 0.17217794]}, {\"fa_group\": 1, \"kind\": \"axis_angle\", \"angle_deg\": 40.105676, \"axis\": [-0.43053382, -0.81523833, 0.38733332]}]" strain="_JSON [[-0.01202195, 0.00279336, -0.003491], [0.00279336, 0.02210114, 0.00670832], [-0.003491, 0.00670832, 0.02696114]]" rattle_target=all rattle_sigma_A=0.08828 distortion_label=combined_strain_rattle_fa_rotation minimum_distance_A=0.9041964136412042 minimum_pair_indices="_JSON [0, 6]" minimum_pair_symbols="_JSON [\"C\", \"H\"]" pbc="T T T"
C        4.59771591       4.52751970       3.81439436       0.00000000       0.00000000       0.00000000
C        8.64081618       0.23302125       3.66756067       0.00000000       0.00000000       0.00000000
N        5.17285207       5.53126864       2.94168973       0.00000000       0.00000000       0.00000000
N        3.56230717       3.79141379       3.52576116       0.00000000       0.00000000       0.00000000
N        0.90601914       8.61380520       3.94343347       0.00000000       0.00000000       0.00000000
N        8.15338993       0.66011845       2.51331251       0.00000000       0.00000000       0.00000000
H        5.12227056       4.44009438       4.54567433       0.00000000       0.00000000       0.00000000
H        5.92833317       5.96472782       3.21952267       0.00000000       0.00000000       0.00000000
H        4.90885067       5.69650465       1.88417964       0.00000000       0.00000000       0.00000000
H        2.96427848       3.86885909       2.29321661       0.00000000       0.00000000       0.00000000
H        3.13882518       3.13484189       4.13658680       0.00000000       0.00000000       0.00000000
H        7.86029183       0.37669311       4.68096864       0.00000000       0.00000000       0.00000000
H        1.05662197       8.32917060       4.88275199       0.00000000       0.00000000       0.00000000
H        1.66596624       8.42936774       3.05199464       0.00000000       0.00000000       0.00000000
H        8.64182018       0.35960921       1.62035899       0.00000000       0.00000000       0.00000000
H        7.01885925       0.88369350       2.37789246       0.00000000       0.00000000       0.00000000
Pb      -0.00316646       4.67000407       6.44211736       0.00000000       0.00000000       0.00000000
Pb       4.28826952       9.14125601       6.46477036       0.00000000       0.00000000       0.00000000
I        0.11626339       4.57810822       3.23972981       0.00000000       0.00000000       0.00000000
I        4.40273841       9.17586346       3.25672549       0.00000000       0.00000000       0.00000000
I        1.87812179       1.98573858       6.27982902       0.00000000       0.00000000       0.00000000
I        2.63719903       6.80229538       0.07384909       0.00000000       0.00000000       0.00000000
I        6.21376729       2.67988391       6.43731622       0.00000000       0.00000000       0.00000000
I        6.81748211       7.14129394       6.35169310       0.00000000       0.00000000       0.00000000
48
Lattice="9.01938999317578 0.0 0.0 0.0 8.777767844565316 0.0 0.0 0.0 12.796186806294449" Properties=species:S:1:pos:R:3:momenta:R:3 config_id=O-FAPI3_al_global_rattle_01__global_rattle__sev-0.207__seed-new phase=O-FAPI3 mode=active_learning seed=3286072468 seed_origin=new seed_origin_config_id= parity_master_seed new_master_seed=20260901 source=O-FAPI3/CONTCAR formula=C4H20I12N8Pb4 natoms=48 fa_groups="_JSON [[0, 4, 8, 12, 16, 28, 20, 24], [1, 5, 9, 13, 17, 29, 21, 25], [2, 10, 6, 14, 30, 18, 26, 22], [3, 11, 7, 15, 31, 19, 27, 23]]" cell_A="_JSON [[9.0193899932, 0.0, 0.0], [0.0, 8.7777678446, 0.0], [0.0, 0.0, 12.7961868063]]" distortion_family=global_rattle distortion_severity=0.207 rattle_target=all rattle_sigma_A=0.068766705 distortion_label=global_rattle minimum_distance_A=0.9137270490496557 minimum_pair_indices="_JSON [3, 15]" minimum_pair_symbols="_JSON [\"C\", \"H\"]" pbc="T T T"
C        4.46474118       0.37701754       3.26910696       0.00000000       0.00000000       0.00000000
C        0.20177016       4.02034136       9.56547751       0.00000000       0.00000000       0.00000000
C        0.01228601       4.66768662       3.19508505       0.00000000       0.00000000       0.00000000
C        4.32492252       8.36712058       9.63728651       0.00000000       0.00000000       0.00000000
N        5.19780489       8.29895531       2.43930570       0.00000000       0.00000000       0.00000000
N        0.60552045       4.98472534       8.82882104       0.00000000       0.00000000       0.00000000
N        1.29684498       5.12316070       3.13938747       0.00000000       0.00000000       0.00000000
N        5.75510502       7.97954644       9.33623487       0.00000000       0.00000000       0.00000000
N        3.35834473       0.73178984       3.08507899       0.00000000       0.00000000       0.00000000
N        7.86583908       3.62297101       9.37731112       0.00000000       0.00000000       0.00000000
N        8.41525974       3.86944049       2.43498419       0.00000000       0.00000000       0.00000000
N        3.86361319       0.53846689       8.85647538       0.00000000       0.00000000       0.00000000
H        5.22229537       0.84088155       3.94207433       0.00000000       0.00000000       0.00000000
H        0.69404567       3.58203030      10.20430835       0.00000000       0.00000000       0.00000000
H        8.43716557       5.32608859       4.02360423       0.00000000       0.00000000       0.00000000
H        3.83523353       7.93905287      10.27904959       0.00000000       0.00000000       0.00000000
H        6.14775056       7.89288188       2.61562132       0.00000000       0.00000000       0.00000000
H        1.59972824       5.13964478       9.01545719       0.00000000       0.00000000       0.00000000
H        1.54075651       5.88927834       3.74178589       0.00000000       0.00000000       0.00000000
H        6.03562466       7.30994614      10.04255874       0.00000000       0.00000000       0.00000000
H        4.61150440       7.74709963       1.64414610       0.00000000       0.00000000       0.00000000
H        0.03813080       5.54810934       8.04175069       0.00000000       0.00000000       0.00000000
H        1.87650826       4.81621069       2.47245040       0.00000000       0.00000000       0.00000000
H        6.31962860       8.55952916       8.71806599       0.00000000       0.00000000       0.00000000
H        2.73485812       0.23518462       2.50787616       0.00000000       0.00000000       0.00000000
H        7.03947061       4.06998832       8.81476403       0.00000000       0.00000000       0.00000000
H        8.87946282       3.30707671       1.76038070       0.00000000       0.00000000       0.00000000
H        4.36792582       1.12390720       8.04252687       0.00000000       0.00000000       0.00000000
H        3.01996120       1.42816594       3.63188173       0.00000000       0.00000000       0.00000000
H        7.35039149       3.03776540      10.08344355       0.00000000       0.00000000       0.00000000
H        7.45159135       3.65280386       2.64848946       0.00000000       0.00000000       0.00000000
H        2.79480522       0.80347952       9.01472880       0.00000000       0.00000000       0.00000000
Pb       4.48651723       4.33494595      12.54023506       0.00000000       0.00000000       0.00000000
Pb       0.07433990       0.08994559       6.26135035       0.00000000       0.00000000       0.00000000
Pb       0.15639221       8.67179282      12.71609902       0.00000000       0.00000000       0.00000000
Pb       4.56530657       4.54315525       6.08376538       0.00000000       0.00000000       0.00000000
I        7.24282561       6.21986831       6.54173448       0.00000000       0.00000000       0.00000000
I        8.64892503       8.72611997       2.84022973       0.00000000       0.00000000       0.00000000
I        6.41229874       1.65220233      12.26992504       0.00000000       0.00000000       0.00000000
I        1.86604423       2.53223942      12.74557178       0.00000000       0.00000000       0.00000000
I        1.74872725       2.62502214       5.93034185       0.00000000       0.00000000       0.00000000
I        2.74374308       7.11096343       5.90701863       0.00000000       0.00000000       0.00000000
I        7.10285474       6.10422871      12.38248358       0.00000000       0.00000000       0.00000000
I        6.37864252       1.86056214       6.45060232       0.00000000       0.00000000       0.00000000
I        4.20826836       4.45155423       9.37696904       0.00000000       0.00000000       0.00000000
I        0.29038566       0.19779329       9.42027307       0.00000000       0.00000000       0.00000000
I        2.82506578       6.87750197      12.78218785       0.00000000       0.00000000       0.00000000
I        4.88136809       4.30859168       3.03959807       0.00000000       0.00000000       0.00000000
48
Lattice="9.01938999317578 0.0 0.0 0.0 8.777767844565316 0.0 0.0 0.0 12.796186806294449" Properties=species:S:1:pos:R:3:momenta:R:3 config_id=O-FAPI3_al_global_rattle_02__global_rattle__sev-0.220__seed-new phase=O-FAPI3 mode=active_learning seed=59990964 seed_origin=new seed_origin_config_id= parity_master_seed new_master_seed=20260901 source=O-FAPI3/CONTCAR formula=C4H20I12N8Pb4 natoms=48 fa_groups="_JSON [[0, 4, 8, 12, 16, 28, 20, 24], [1, 5, 9, 13, 17, 29, 21, 25], [2, 10, 6, 14, 30, 18, 26, 22], [3, 11, 7, 15, 31, 19, 27, 23]]" cell_A="_JSON [[9.0193899932, 0.0, 0.0], [0.0, 8.7777678446, 0.0], [0.0, 0.0, 12.7961868063]]" distortion_family=global_rattle distortion_severity=0.22 rattle_target=all rattle_sigma_A=0.0703 distortion_label=global_rattle minimum_distance_A=0.7892576767156039 minimum_pair_indices="_JSON [11, 31]" minimum_pair_symbols="_JSON [\"N\", \"H\"]" pbc="T T T"
C        4.57227415       0.46393604       3.13881360       0.00000000       0.00000000       0.00000000
C        0.03789692       4.09670102       9.45776296       0.00000000       0.00000000       0.00000000
C        8.95801639       4.81409047       3.22328596       0.00000000       0.00000000       0.00000000
C        4.32354251       8.47748925       9.59229359       0.00000000       0.00000000       0.00000000
N        5.15948126       8.25541663       2.36913418       0.00000000       0.00000000       0.00000000
N        0.60244046       4.88590925       8.72710764       0.00000000       0.00000000       0.00000000
N        1.14531655       5.13904711       3.12564676       0.00000000       0.00000000       0.00000000
N        5.70165935       7.98752917       9.48427909       0.00000000       0.00000000       0.00000000
N        3.36647324       0.61406169       3.09839663       0.00000000       0.00000000       0.00000000
N        7.80186411       3.75997838       9.39470001       0.00000000       0.00000000       0.00000000
N        8.58092526       3.85207037       2.34407327       0.00000000       0.00000000       0.00000000
N        3.74461095       0.54608128       8.83373851       0.00000000       0.00000000       0.00000000
H        5.21048180       0.87022458       3.89911816       0.00000000       0.00000000       0.00000000
H        0.75111574       3.62755737      10.23677047       0.00000000       0.00000000       0.00000000
H        8.31816704       5.24318867       3.77824591       0.00000000       0.00000000       0.00000000
H        3.77251125       7.83773798      10.35011586       0.00000000       0.00000000       0.00000000
H        6.10364871       8.06442384       2.56430352       0.00000000       0.00000000       0.00000000
H        1.57899073       5.08239396       9.06684044       0.00000000       0.00000000       0.00000000
H        1.57387882       5.77272650       3.68238836       0.00000000       0.00000000       0.00000000
H        6.15744013       7.38190911      10.19764896       0.00000000       0.00000000       0.00000000
H        4.47238142       7.78480793       1.60586418       0.00000000       0.00000000       0.00000000
H        0.10795395       5.47293617       8.11439867       0.00000000       0.00000000       0.00000000
H        1.74928113       4.72479398       2.43808815       0.00000000       0.00000000       0.00000000
H        6.48161433       8.58447248       8.70699015       0.00000000       0.00000000       0.00000000
H        2.56498584       0.30485454       2.33342618       0.00000000       0.00000000       0.00000000
H        7.16225791       4.03762203       8.76208065       0.00000000       0.00000000       0.00000000
H        8.91169302       3.30245144       1.78944498       0.00000000       0.00000000       0.00000000
H        4.39666660       1.00458067       7.94694726       0.00000000       0.00000000       0.00000000
H        2.93530350       1.54143223       3.70712636       0.00000000       0.00000000       0.00000000
H        7.46096355       2.99128397      10.20102854       0.00000000       0.00000000       0.00000000
H        7.33639335       3.73980660       2.53425664       0.00000000       0.00000000       0.00000000
H        2.98412370       0.74677195       8.89938961       0.00000000       0.00000000       0.00000000
Pb       4.54540225       4.26052219      12.63087162       0.00000000       0.00000000       0.00000000
Pb       0.01646708       0.22084686       6.05139710       0.00000000       0.00000000       0.00000000
Pb       0.13365290       8.51322293      12.47937076       0.00000000       0.00000000       0.00000000
Pb       4.66124608       4.38355299       6.30338331       0.00000000       0.00000000       0.00000000
I        7.17670523       6.21887412       6.55636942       0.00000000       0.00000000       0.00000000
I        8.61780664       8.74811638       2.87114349       0.00000000       0.00000000       0.00000000
I        6.23786827       1.62154428      12.19633605       0.00000000       0.00000000       0.00000000
I        1.77593137       2.53851432       0.16511333       0.00000000       0.00000000       0.00000000
I        1.82765697       2.71276498       5.83136406       0.00000000       0.00000000       0.00000000
I        2.66750648       7.02582654       5.80452414       0.00000000       0.00000000       0.00000000
I        7.10610133       6.17689803      12.36893096       0.00000000       0.00000000       0.00000000
I        6.33514063       1.83965275       6.40104427       0.00000000       0.00000000       0.00000000
I        4.20842600       4.49642453       9.25140377       0.00000000       0.00000000       0.00000000
I        0.48210119       0.11620343       9.21764913       0.00000000       0.00000000       0.00000000
I        2.61716752       6.87168081       0.07821517       0.00000000       0.00000000       0.00000000
I        4.91104693       4.26230531       2.89318938       0.00000000       0.00000000       0.00000000
48
Lattice="9.01938999317578 0.0 0.0 0.0 8.777767844565316 0.0 0.0 0.0 12.796186806294449" Properties=species:S:1:pos:R:3:momenta:R:3 config_id=O-FAPI3_al_global_rattle_03__global_rattle__sev-0.233__seed-parity phase=O-FAPI3 mode=active_learning seed=1508704073 seed_origin=parity seed_origin_config_id=O-FAPI3_parity_11__global_rattle__sev-0.1 parity_master_seed=20260810 new_master_seed source=O-FAPI3/CONTCAR formula=C4H20I12N8Pb4 natoms=48 fa_groups="_JSON [[0, 4, 8, 12, 16, 28, 20, 24], [1, 5, 9, 13, 17, 29, 21, 25], [2, 10, 6, 14, 30, 18, 26, 22], [3, 11, 7, 15, 31, 19, 27, 23]]" cell_A="_JSON [[9.0193899932, 0.0, 0.0], [0.0, 8.7777678446, 0.0], [0.0, 0.0, 12.7961868063]]" distortion_family=global_rattle distortion_severity=0.233 rattle_target=all rattle_sigma_A=0.071833295 distortion_label=global_rattle minimum_distance_A=0.8467073149663635 minimum_pair_indices="_JSON [6, 22]" minimum_pair_symbols="_JSON [\"N\", \"H\"]" pbc="T T T"
C        4.67194036       0.31868401       3.17722821       0.00000000       0.00000000       0.00000000
C        0.10099806       4.04876159       9.51603334       0.00000000       0.00000000       0.00000000
C        8.95632988       4.70552374       3.27699976       0.00000000       0.00000000       0.00000000
C        4.44761781       8.26740522       9.58911734       0.00000000       0.00000000       0.00000000
N        5.12787718       8.24432141       2.34628660       0.00000000       0.00000000       0.00000000
N        0.64940824       4.94996226       8.79776259       0.00000000       0.00000000       0.00000000
N        1.26312240       5.09772189       3.06038424       0.00000000       0.00000000       0.00000000
N        5.68746615       8.05650592       9.56118285       0.00000000       0.00000000       0.00000000
N        3.34218600       0.67045677       3.08066297       0.00000000       0.00000000       0.00000000
N        7.82483796       3.58702785       9.41147927       0.00000000       0.00000000       0.00000000
N        8.28481730       3.93786431       2.54222460       0.00000000       0.00000000       0.00000000
N        3.82559344       0.56631980       8.90107017       0.00000000       0.00000000       0.00000000
H        5.07141739       0.92517960       4.04372491       0.00000000       0.00000000       0.00000000
H        0.77668582       3.67185200      10.32803119       0.00000000       0.00000000       0.00000000
H        8.35179352       5.25001762       3.91182484       0.00000000       0.00000000       0.00000000
H        3.80141637       7.85366127      10.30540049       0.00000000       0.00000000       0.00000000
H        6.08994379       8.05899421       2.49184260       0.00000000       0.00000000       0.00000000
H        1.57968261       5.07451886       8.85132197       0.00000000       0.00000000       0.00000000
H        1.65440262       5.88504041       3.67348709       0.00000000       0.00000000       0.00000000
H        6.12673891       7.40339800      10.12451041       0.00000000       0.00000000       0.00000000
H        4.57388310       7.79304807       1.61957345       0.00000000       0.00000000       0.00000000
H        0.15615935       5.40444621       8.04887322       0.00000000       0.00000000       0.00000000
H        1.75067261       4.79238249       2.43911463       0.00000000       0.00000000       0.00000000
H        6.18326862       8.40167079       8.86068544       0.00000000       0.00000000       0.00000000
H        2.69746987       0.34788428       2.46639895       0.00000000       0.00000000       0.00000000
H        7.24317239       4.02851515       8.69730026       0.00000000       0.00000000       0.00000000
H        8.86341020       3.43593780       1.67030276       0.00000000       0.00000000       0.00000000
H        4.33779640       1.09951439       8.07337571       0.00000000       0.00000000       0.00000000
H        2.93257675       1.31097892       3.56375829       0.00000000       0.00000000       0.00000000
H        7.42676176       2.90306027      10.11388131       0.00000000       0.00000000       0.00000000
H        7.31012073       3.75402302       2.66654606       0.00000000       0.00000000       0.00000000
H        2.76278418       0.86675297       8.99541923       0.00000000       0.00000000       0.00000000
Pb       4.55310026       4.23929376      12.53305656       0.00000000       0.00000000       0.00000000
Pb       0.03236393       0.04979166       6.07092824       0.00000000       0.00000000       0.00000000
Pb       0.03127098       8.63306748      12.59243728       0.00000000       0.00000000       0.00000000
Pb       4.58049544       4.43481210       6.14716581       0.00000000       0.00000000       0.00000000
I        7.07503030       6.26011015       6.28866645       0.00000000       0.00000000       0.00000000
I        8.64337202       8.73218306       3.01923567       0.00000000       0.00000000       0.00000000
I        6.25792331       1.76631030      12.39799026       0.00000000       0.00000000       0.00000000
I        1.74224993       2.57143935       0.10265865       0.00000000       0.00000000       0.00000000
I        1.89092317       2.57163243       5.87459652       0.00000000       0.00000000       0.00000000
I        2.64870426       6.98442507       6.01222632       0.00000000       0.00000000       0.00000000
I        7.11268153       6.19369683      12.20031822       0.00000000       0.00000000       0.00000000
I        6.40206344       1.91635299       6.45867336       0.00000000       0.00000000       0.00000000
I        4.27628154       4.46768648       9.32233890       0.00000000       0.00000000       0.00000000
I        0.42153474       8.74112167       9.32663192       0.00000000       0.00000000       0.00000000
I        2.74832123       7.05277981       0.02675037       0.00000000       0.00000000       0.00000000
I        4.87057946       4.39973226       2.84156051       0.00000000       0.00000000       0.00000000
48
Lattice="9.01938999317578 0.0 0.0 0.0 8.777767844565316 0.0 0.0 0.0 12.796186806294449" Properties=species:S:1:pos:R:3:momenta:R:3 config_id=O-FAPI3_al_global_rattle_04__global_rattle__sev-0.247__seed-new phase=O-FAPI3 mode=active_learning seed=1347997030 seed_origin=new seed_origin_config_id= parity_master_seed new_master_seed=20260901 source=O-FAPI3/CONTCAR formula=C4H20I12N8Pb4 natoms=48 fa_groups="_JSON [[0, 4, 8, 12, 16, 28, 20, 24], [1, 5, 9, 13, 17, 29, 21, 25], [2, 10, 6, 14, 30, 18, 26, 22], [3, 11, 7, 15, 31, 19, 27, 23]]" cell_A="_JSON [[9.0193899932, 0.0, 0.0], [0.0, 8.7777678446, 0.0], [0.0, 0.0, 12.7961868063]]" distortion_family=global_rattle distortion_severity=0.247 rattle_target=all rattle_sigma_A=0.073366705 distortion_label=global_rattle minimum_distance_A=0.8251339085881598 minimum_pair_indices="_JSON [7, 19]" minimum_pair_symbols="_JSON [\"N\", \"H\"]" pbc="T T T"
C        4.40814198       0.44934492       3.14427135       0.00000000       0.00000000       0.00000000
C        9.01097681       4.18796862       9.56326337       0.00000000       0.00000000       0.00000000
C        8.97843668       4.69996555       3.15675285       0.00000000       0.00000000       0.00000000
C        4.46901931       8.48596954       9.75185813       0.00000000       0.00000000       0.00000000
N        5.10245027       8.22727081       2.52302002       0.00000000       0.00000000       0.00000000
N        0.68733279       4.78782657       8.84908965       0.00000000       0.00000000       0.00000000
N        1.19891535       5.11543955       3.15510709       0.00000000       0.00000000       0.00000000
N        5.67783780       8.02788276       9.54173549       0.00000000       0.00000000       0.00000000
N        3.23535110       0.74959916       3.00419521       0.00000000       0.00000000       0.00000000
N        7.87022203       3.61164718       9.38794360       0.00000000       0.00000000       0.00000000
N        8.30823401       3.74626705       2.31910050       0.00000000       0.00000000       0.00000000
N        3.92289457       0.45175805       8.77509675       0.00000000       0.00000000       0.00000000
H        5.33604892       0.73297773       3.84985542       0.00000000       0.00000000       0.00000000
H        0.64904660       3.61071372      10.31566453       0.00000000       0.00000000       0.00000000
H        8.26759872       5.24556666       3.91055522       0.00000000       0.00000000       0.00000000
H        3.83417546       7.91852750      10.34496344       0.00000000       0.00000000       0.00000000
H        6.10400135       8.00845659       2.38939829       0.00000000       0.00000000       0.00000000
H        1.69783706       5.23663371       8.92256922       0.00000000       0.00000000       0.00000000
H        1.63666523       5.81335448       3.68456329       0.00000000       0.00000000       0.00000000
H        6.09276675       7.57388336      10.09179410       0.00000000       0.00000000       0.00000000
H        4.49922202       7.74949739       1.57704314       0.00000000       0.00000000       0.00000000
H        0.12723309       5.39180659       8.10939919       0.00000000       0.00000000       0.00000000
H        1.79555265       4.55629099       2.46610465       0.00000000       0.00000000       0.00000000
H        6.29801347       8.38180205       8.81439416       0.00000000       0.00000000       0.00000000
H        2.49605880       0.40110669       2.50624637       0.00000000       0.00000000       0.00000000
H        7.18570903       4.10727398       8.69139603       0.00000000       0.00000000       0.00000000
H        8.93082797       3.38850793       1.57845041       0.00000000       0.00000000       0.00000000
H        4.33924983       1.17500050       8.05654092       0.00000000       0.00000000       0.00000000
H        2.93671463       1.41794295       3.62424828       0.00000000       0.00000000       0.00000000
H        7.39162378       2.92517739      10.05899723       0.00000000       0.00000000       0.00000000
H        7.45911785       3.72988485       2.47698200       0.00000000       0.00000000       0.00000000
H        2.80296801       0.79271248       9.10429485       0.00000000       0.00000000       0.00000000
Pb       4.49746500       4.33204475      12.56174141       0.00000000       0.00000000       0.00000000
Pb       0.06211349       0.06351713       6.11512239       0.00000000       0.00000000       0.00000000
Pb       8.89619447       8.75178099      12.55847594       0.00000000       0.00000000       0.00000000
Pb       4.54930156       4.52035356       6.13333056       0.00000000       0.00000000       0.00000000
I        7.01069706       6.25676416       6.43640901       0.00000000       0.00000000       0.00000000
I        8.69936222       8.77272945       2.91320510       0.00000000       0.00000000       0.00000000
I        6.35707148       1.66449266      12.32754534       0.00000000       0.00000000       0.00000000
I        1.96717341       2.48644172       0.04869695       0.00000000       0.00000000       0.00000000
I        1.94877380       2.62751532       5.96146188       0.00000000       0.00000000       0.00000000
I        2.63458476       6.92112024       5.95061231       0.00000000       0.00000000       0.00000000
I        7.12675077       6.03586310      12.30983119       0.00000000       0.00000000       0.00000000
I        6.44391386       1.86093713       6.33784777       0.00000000       0.00000000       0.00000000
I        4.11828469       4.40181861       9.31156902       0.00000000       0.00000000       0.00000000
I        0.35269001       0.14633245       9.31298897       0.00000000       0.00000000       0.00000000
I        2.68036886       6.95240753      12.78880077       0.00000000       0.00000000       0.00000000
I        4.88987406       4.46742568       2.85356972       0.00000000       0.00000000       0.00000000
48
Lattice="9.01938999317578 0.0 0.0 0.0 8.777767844565316 0.0 0.0 0.0 12.796186806294449" Properties=species:S:1:pos:R:3:momenta:R:3 config_id=O-FAPI3_al_global_rattle_05__global_rattle__sev-0.260__seed-new phase=O-FAPI3 mode=active_learning seed=4204536852 seed_origin=new seed_origin_config_id= parity_master_seed new_master_seed=20260901 source=O-FAPI3/CONTCAR formula=C4H20I12N8Pb4 natoms=48 fa_groups="_JSON [[0, 4, 8, 12, 16, 28, 20, 24], [1, 5, 9, 13, 17, 29, 21, 25], [2, 10, 6, 14, 30, 18, 26, 22], [3, 11, 7, 15, 31, 19, 27, 23]]" cell_A="_JSON [[9.0193899932, 0.0, 0.0], [0.0, 8.7777678446, 0.0], [0.0, 0.0, 12.7961868063]]" distortion_family=global_rattle distortion_severity=0.26 rattle_target=all rattle_sigma_A=0.0749 distortion_label=global_rattle minimum_distance_A=0.8392124087299455 minimum_pair_indices="_JSON [7, 23]" minimum_pair_symbols="_JSON [\"N\", \"H\"]" pbc="T T T"
C        4.62024412       0.38825892       3.17283647       0.00000000       0.00000000       0.00000000
C        0.08124661       4.02423578       9.60580530       0.00000000       0.00000000       0.00000000
C        8.94978734       4.71043146       3.34993939       0.00000000       0.00000000       0.00000000
C        4.36033325       8.40797288       9.58111669       0.00000000       0.00000000       0.00000000
N        5.29837140       8.27436034       2.48443502       0.00000000       0.00000000       0.00000000
N        0.64695204       4.91492889       8.87377750       0.00000000       0.00000000       0.00000000
N        1.17713664       5.03955814       2.99046645       0.00000000       0.00000000       0.00000000
N        5.76537542       8.12612978       9.39192949       0.00000000       0.00000000       0.00000000
N        3.35585007       0.82141408       3.12631502       0.00000000       0.00000000       0.00000000
N        7.80306897       3.61887428       9.48567231       0.00000000       0.00000000       0.00000000
N        8.39238848       3.86471418       2.44960183       0.00000000       0.00000000       0.00000000
N        3.83979583       0.53149779       8.85812145       0.00000000       0.00000000       0.00000000
H        5.21103962       0.85872122       3.94075117       0.00000000       0.00000000       0.00000000
H        0.83062842       3.38003687      10.18795664       0.00000000       0.00000000       0.00000000
H        8.16927428       5.18947711       3.96230073       0.00000000       0.00000000       0.00000000
H        3.85672981       7.92609438      10.19848604       0.00000000       0.00000000       0.00000000
H        6.25747315       8.00151164       2.57698723       0.00000000       0.00000000       0.00000000
H        1.63581726       5.06989443       8.88741953       0.00000000       0.00000000       0.00000000
H        1.57985049       5.74545753       3.82103180       0.00000000       0.00000000       0.00000000
H        6.14226879       7.22881040      10.04169261       0.00000000       0.00000000       0.00000000
H        4.57927016       7.68615660       1.86081657       0.00000000       0.00000000       0.00000000
H        0.19173928       5.45002814       8.09490094       0.00000000       0.00000000       0.00000000
H        1.93050234       4.70581972       2.41077987       0.00000000       0.00000000       0.00000000
H        6.29345501       8.38153474       8.79178141       0.00000000       0.00000000       0.00000000
H        2.54960613       0.17526608       2.33617023       0.00000000       0.00000000       0.00000000
H        7.25618586       3.92388490       8.83286406       0.00000000       0.00000000       0.00000000
H        8.97619576       3.44863203       1.67223795       0.00000000       0.00000000       0.00000000
H        4.35342204       1.11444676       7.95477411       0.00000000       0.00000000       0.00000000
H        2.97572320       1.42568401       3.73636964       0.00000000       0.00000000       0.00000000
H        7.44546472       2.93491092      10.15266105       0.00000000       0.00000000       0.00000000
H        7.40501619       3.72001134       2.48841045       0.00000000       0.00000000       0.00000000
H        2.97101239       0.69876316       8.97090027       0.00000000       0.00000000       0.00000000
Pb       4.53921277       4.23184895      12.56740758       0.00000000       0.00000000       0.00000000
Pb       0.03174151       0.16138745       6.26412179       0.00000000       0.00000000       0.00000000
Pb       0.12653324       8.50635383      12.51213330       0.00000000       0.00000000       0.00000000
Pb       4.50719855       4.47733318       6.22079452       0.00000000       0.00000000       0.00000000
I        7.21532357       6.20483895       6.43279391       0.00000000       0.00000000       0.00000000
I        8.74285525       8.67976822       2.93247079       0.00000000       0.00000000       0.00000000
I        6.41975311       1.61001828      12.29975293       0.00000000       0.00000000       0.00000000
I        1.78402761       2.54741491       0.05130041       0.00000000       0.00000000       0.00000000
I        1.80776202       2.72491333       5.93343552       0.00000000       0.00000000       0.00000000
I        2.75748837       7.14037696       5.93756175       0.00000000       0.00000000       0.00000000
I        7.13464495       6.13423085      12.32100282       0.00000000       0.00000000       0.00000000
I        6.47285103       1.81028028       6.39389556       0.00000000       0.00000000       0.00000000
I        4.17527754       4.52286260       9.30199325       0.00000000       0.00000000       0.00000000
I        0.37085667       0.13249787       9.33821080       0.00000000       0.00000000       0.00000000
I        2.73699062       6.93378959       0.09462487       0.00000000       0.00000000       0.00000000
I        4.96402424       4.30733392       2.99869295       0.00000000       0.00000000       0.00000000
48
Lattice="9.01938999317578 0.0 0.0 0.0 8.777767844565316 0.0 0.0 0.0 12.796186806294449" Properties=species:S:1:pos:R:3:momenta:R:3 config_id=O-FAPI3_al_global_rattle_06__global_rattle__sev-0.273__seed-new phase=O-FAPI3 mode=active_learning seed=4267185352 seed_origin=new seed_origin_config_id= parity_master_seed new_master_seed=20260901 source=O-FAPI3/CONTCAR formula=C4H20I12N8Pb4 natoms=48 fa_groups="_JSON [[0, 4, 8, 12, 16, 28, 20, 24], [1, 5, 9, 13, 17, 29, 21, 25], [2, 10, 6, 14, 30, 18, 26, 22], [3, 11, 7, 15, 31, 19, 27, 23]]" cell_A="_JSON [[9.0193899932, 0.0, 0.0], [0.0, 8.7777678446, 0.0], [0.0, 0.0, 12.7961868063]]" distortion_family=global_rattle distortion_severity=0.273 rattle_target=all rattle_sigma_A=0.076433295 distortion_label=global_rattle minimum_distance_A=0.8682896684002573 minimum_pair_indices="_JSON [7, 19]" minimum_pair_symbols="_JSON [\"N\", \"H\"]" pbc="T T T"
C        4.47160593       0.41962148       3.27888260       0.00000000       0.00000000       0.00000000
C        0.04123236       3.96899604       9.59557924       0.00000000       0.00000000       0.00000000
C        8.83708609       4.75732207       3.10887680       0.00000000       0.00000000       0.00000000
C        4.34578438       8.41303071       9.52600581       0.00000000       0.00000000       0.00000000
N        5.05306914       8.16478671       2.49087145       0.00000000       0.00000000       0.00000000
N        0.62260278       4.96032083       8.71672126       0.00000000       0.00000000       0.00000000
N        1.06630733       5.10510962       2.98636153       0.00000000       0.00000000       0.00000000
N        5.75861498       7.93593489       9.49783193       0.00000000       0.00000000       0.00000000
N        3.43258518       0.75289545       3.05749003       0.00000000       0.00000000       0.00000000
N        7.88008466       3.59914384       9.44809437       0.00000000       0.00000000       0.00000000
N        8.37390384       3.80432688       2.46804977       0.00000000       0.00000000       0.00000000
N        3.86005860       0.50558326       8.78541727       0.00000000       0.00000000       0.00000000
H        5.14380402       0.90032203       4.07191434       0.00000000       0.00000000       0.00000000
H        0.67637425       3.58925112      10.35032772       0.00000000       0.00000000       0.00000000
H        8.39379889       5.17720574       3.99648346       0.00000000       0.00000000       0.00000000
H        3.70681677       8.03902920      10.25241580       0.00000000       0.00000000       0.00000000
H        6.08280301       8.09769694       2.53966440       0.00000000       0.00000000       0.00000000
H        1.67609765       5.15178542       8.98600043       0.00000000       0.00000000       0.00000000
H        1.65017321       5.77598298       3.67643842       0.00000000       0.00000000       0.00000000
H        6.19568789       7.46578431      10.08251360       0.00000000       0.00000000       0.00000000
H        4.62563761       7.66624070       1.71844895       0.00000000       0.00000000       0.00000000
H        0.05983053       5.40396549       8.09529577       0.00000000       0.00000000       0.00000000
H        1.76758412       4.66043726       2.42714176       0.00000000       0.00000000       0.00000000
H        6.28458111       8.37711787       8.74609902       0.00000000       0.00000000       0.00000000
H        2.58954410       0.30535470       2.35879927       0.00000000       0.00000000       0.00000000
H        7.18039741       4.04367938       8.80905034       0.00000000       0.00000000       0.00000000
H        8.99992651       3.29202893       1.60507882       0.00000000       0.00000000       0.00000000
H        4.44002359       1.04124309       8.06412879       0.00000000       0.00000000       0.00000000
H        2.87565138       1.38977626       3.66885204       0.00000000       0.00000000       0.00000000
H        7.41655119       3.03669655      10.08476500       0.00000000       0.00000000       0.00000000
H        7.32766517       3.65293242       2.41673305       0.00000000       0.00000000       0.00000000
H        2.89100445       0.81121191       8.84878083       0.00000000       0.00000000       0.00000000
Pb       4.44538684       4.24666979      12.65310418       0.00000000       0.00000000       0.00000000
Pb       0.05980575       0.08616407       6.02806822       0.00000000       0.00000000       0.00000000
Pb       8.93141872       8.64755397      12.48731816       0.00000000       0.00000000       0.00000000
Pb       4.39523280       4.38213439       6.12085614       0.00000000       0.00000000       0.00000000
I        7.19939420       6.18980274       6.54276389       0.00000000       0.00000000       0.00000000
I        8.57756098       8.70164963       2.89764052       0.00000000       0.00000000       0.00000000
I        6.40379720       1.62747182      12.40736476       0.00000000       0.00000000       0.00000000
I        2.01302002       2.60398869       0.04727404       0.00000000       0.00000000       0.00000000
I        1.76952510       2.66445470       5.91463056       0.00000000       0.00000000       0.00000000
I        2.63600446       6.92910259       5.90411737       0.00000000       0.00000000       0.00000000
I        7.13613729       6.14194515      12.38541049       0.00000000       0.00000000       0.00000000
I        6.27365141       1.68889676       6.60956380       0.00000000       0.00000000       0.00000000
I        4.17151085       4.36599576       9.34851338       0.00000000       0.00000000       0.00000000
I        0.39521934       0.16246416       9.20366625       0.00000000       0.00000000       0.00000000
I        2.70198785       6.96667074      12.76298764       0.00000000       0.00000000       0.00000000
I        4.79983252       4.38599181       2.88855499       0.00000000       0.00000000       0.00000000
48
Lattice="9.01938999317578 0.0 0.0 0.0 8.777767844565316 0.0 0.0 0.0 12.796186806294449" Properties=species:S:1:pos:R:3:momenta:R:3 config_id=O-FAPI3_al_global_rattle_07__global_rattle__sev-0.287__seed-new phase=O-FAPI3 mode=active_learning seed=1093906172 seed_origin=new seed_origin_config_id= parity_master_seed new_master_seed=20260901 source=O-FAPI3/CONTCAR formula=C4H20I12N8Pb4 natoms=48 fa_groups="_JSON [[0, 4, 8, 12, 16, 28, 20, 24], [1, 5, 9, 13, 17, 29, 21, 25], [2, 10, 6, 14, 30, 18, 26, 22], [3, 11, 7, 15, 31, 19, 27, 23]]" cell_A="_JSON [[9.0193899932, 0.0, 0.0], [0.0, 8.7777678446, 0.0], [0.0, 0.0, 12.7961868063]]" distortion_family=global_rattle distortion_severity=0.287 rattle_target=all rattle_sigma_A=0.077966705 distortion_label=global_rattle minimum_distance_A=0.8415039789137224 minimum_pair_indices="_JSON [5, 21]" minimum_pair_symbols="_JSON [\"N\", \"H\"]" pbc="T T T"
C        4.66328838       0.43708724       3.06432731       0.00000000       0.00000000       0.00000000
C        0.07703852       4.08233112       9.65663133       0.00000000       0.00000000       0.00000000
C        8.92271281       4.73500362       3.05384181       0.00000000       0.00000000       0.00000000
C        4.28495262       8.47344482       9.63315994       0.00000000       0.00000000       0.00000000
N        5.08067176       8.38268191       2.51102446       0.00000000       0.00000000       0.00000000
N        0.64455254       5.05372757       8.80910042       0.00000000       0.00000000       0.00000000
N        1.10455709       5.21990874       3.09211420       0.00000000       0.00000000       0.00000000
N        5.48122378       7.89767192       9.44230183       0.00000000       0.00000000       0.00000000
N        3.34131963       0.67926228       2.99088472       0.00000000       0.00000000       0.00000000
N        7.96640854       3.73330434       9.53510255       0.00000000       0.00000000       0.00000000
N        8.39712367       3.79812104       2.37565004       0.00000000       0.00000000       0.00000000
N        3.84941702       0.45610339       8.76529101       0.00000000       0.00000000       0.00000000
H        5.13148325       0.79042677       3.81225108       0.00000000       0.00000000       0.00000000
H        0.70758001       3.51370066      10.37360764       0.00000000       0.00000000       0.00000000
H        8.37075110       5.23763705       3.99920398       0.00000000       0.00000000       0.00000000
H        3.91832103       7.80975184      10.51293589       0.00000000       0.00000000       0.00000000
H        6.16477037       7.95459042       2.49389625       0.00000000       0.00000000       0.00000000
H        1.56716362       5.14196406       8.95896315       0.00000000       0.00000000       0.00000000
H        1.57072018       5.78062690       3.65099307       0.00000000       0.00000000       0.00000000
H        6.02906133       7.33624882      10.07384109       0.00000000       0.00000000       0.00000000
H        4.69623879       7.60549338       1.70775100       0.00000000       0.00000000       0.00000000
H        0.14389899       5.45299838       8.26315373       0.00000000       0.00000000       0.00000000
H        1.72658150       4.67465056       2.43167804       0.00000000       0.00000000       0.00000000
H        6.35715120       8.55385418       8.80279942       0.00000000       0.00000000       0.00000000
H        2.60108773       0.28102626       2.42181138       0.00000000       0.00000000       0.00000000
H        7.30944015       3.92672242       8.71297741       0.00000000       0.00000000       0.00000000
H        8.65370229       3.25750339       1.60989176       0.00000000       0.00000000       0.00000000
H        4.46629458       1.06382296       7.98796379       0.00000000       0.00000000       0.00000000
H        2.99727278       1.47340381       3.61712940       0.00000000       0.00000000       0.00000000
H        7.52367306       2.86146890      10.14435540       0.00000000       0.00000000       0.00000000
H        7.50375409       3.66357139       2.47199904       0.00000000       0.00000000       0.00000000
H        2.85132565       0.79971866       9.07065294       0.00000000       0.00000000       0.00000000
Pb       4.51551981       4.21900632      12.47511226       0.00000000       0.00000000       0.00000000
Pb       8.85470563       0.16726128       6.19405891       0.00000000       0.00000000       0.00000000
Pb       8.97296716       8.59410296      12.46271003       0.00000000       0.00000000       0.00000000
Pb       4.52141253       4.43928429       6.22388188       0.00000000       0.00000000       0.00000000
I        7.26618969       6.35204191       6.40127391       0.00000000       0.00000000       0.00000000
I        8.69756887       8.73764190       2.89237705       0.00000000       0.00000000       0.00000000
I        6.38995326       1.74645105      12.19064853       0.00000000       0.00000000       0.00000000
I        1.67591803       2.64607795       0.07418722       0.00000000       0.00000000       0.00000000
I        1.87640739       2.55171048       5.92367057       0.00000000       0.00000000       0.00000000
I        2.71671809       7.07726441       5.88205229       0.00000000       0.00000000       0.00000000
I        7.02098688       6.06463686      12.15701899       0.00000000       0.00000000       0.00000000
I        6.32867191       1.96332885       6.45480957       0.00000000       0.00000000       0.00000000
I        4.13990889       4.46690817       9.29159429       0.00000000       0.00000000       0.00000000
I        0.27240309       8.73772001       9.39884682       0.00000000       0.00000000       0.00000000
I        2.62555669       6.80770050       0.04162607       0.00000000       0.00000000       0.00000000
I        4.92049272       4.30461030       3.02251849       0.00000000       0.00000000       0.00000000
48
Lattice="9.01938999317578 0.0 0.0 0.0 8.777767844565316 0.0 0.0 0.0 12.796186806294449" Properties=species:S:1:pos:R:3:momenta:R:3 config_id=O-FAPI3_al_global_rattle_08__global_rattle__sev-0.300__seed-parity phase=O-FAPI3 mode=active_learning seed=629855035 seed_origin=parity seed_origin_config_id=O-FAPI3_parity_12__global_rattle__sev-0.2 parity_master_seed=20260810 new_master_seed source=O-FAPI3/CONTCAR formula=C4H20I12N8Pb4 natoms=48 fa_groups="_JSON [[0, 4, 8, 12, 16, 28, 20, 24], [1, 5, 9, 13, 17, 29, 21, 25], [2, 10, 6, 14, 30, 18, 26, 22], [3, 11, 7, 15, 31, 19, 27, 23]]" cell_A="_JSON [[9.0193899932, 0.0, 0.0], [0.0, 8.7777678446, 0.0], [0.0, 0.0, 12.7961868063]]" distortion_family=global_rattle distortion_severity=0.3 rattle_target=all rattle_sigma_A=0.0795 distortion_label=global_rattle minimum_distance_A=0.8468077902454675 minimum_pair_indices="_JSON [7, 19]" minimum_pair_symbols="_JSON [\"N\", \"H\"]" pbc="T T T"
C        4.65572312       0.36558190       3.22967846       0.00000000       0.00000000       0.00000000
C        0.10582344       3.96525639       9.68437655       0.00000000       0.00000000       0.00000000
C        8.94266501       4.68841436       3.19958750       0.00000000       0.00000000       0.00000000
C        4.43081072       8.61453132       9.45681661       0.00000000       0.00000000       0.00000000
N        5.19760303       8.20348060       2.42431823       0.00000000       0.00000000       0.00000000
N        0.62905865       5.01606112       8.80727946       0.00000000       0.00000000       0.00000000
N        1.19758287       5.15071567       3.09724892       0.00000000       0.00000000       0.00000000
N        5.68295222       7.99077548       9.48237526       0.00000000       0.00000000       0.00000000
N        3.22847873       0.70994893       3.04421695       0.00000000       0.00000000       0.00000000
N        7.81278616       3.77927041       9.38205110       0.00000000       0.00000000       0.00000000
N        8.30154663       3.79947712       2.45203859       0.00000000       0.00000000       0.00000000
N        3.91184386       0.50253276       8.74419806       0.00000000       0.00000000       0.00000000
H        5.31013495       0.96056079       3.74725850       0.00000000       0.00000000       0.00000000
H        0.52074270       3.56340891      10.40320090       0.00000000       0.00000000       0.00000000
H        8.36867103       5.15946047       3.86071328       0.00000000       0.00000000       0.00000000
H        3.85327341       7.93751306      10.31307131       0.00000000       0.00000000       0.00000000
H        6.21218653       8.05860503       2.44247470       0.00000000       0.00000000       0.00000000
H        1.73568732       4.99529375       8.90390718       0.00000000       0.00000000       0.00000000
H        1.44923804       5.77783972       3.69544066       0.00000000       0.00000000       0.00000000
H        6.14808885       7.65114345      10.10316623       0.00000000       0.00000000       0.00000000
H        4.78307449       7.74382613       1.67656964       0.00000000       0.00000000       0.00000000
H        0.12389478       5.46422783       8.07569025       0.00000000       0.00000000       0.00000000
H        1.83155644       4.75252810       2.42066360       0.00000000       0.00000000       0.00000000
H        6.43398131       8.48697848       8.96007358       0.00000000       0.00000000       0.00000000
H        2.72322368       0.40175332       2.30605960       0.00000000       0.00000000       0.00000000
H        7.19300956       4.07704190       8.76416758       0.00000000       0.00000000       0.00000000
H        8.88997535       3.22375477       1.66069545       0.00000000       0.00000000       0.00000000
H        4.42200325       1.06470610       7.95275998       0.00000000       0.00000000       0.00000000
H        3.12441944       1.42974488       3.83684658       0.00000000       0.00000000       0.00000000
H        7.30943340       2.86573996      10.09874990       0.00000000       0.00000000       0.00000000
H        7.35480417       3.79141658       2.58870845       0.00000000       0.00000000       0.00000000
H        2.78601450       0.80793635       8.90623372       0.00000000       0.00000000       0.00000000
Pb       4.37933815       4.24899210      12.58921949       0.00000000       0.00000000       0.00000000
Pb       8.96867806       0.06370667       6.19935464       0.00000000       0.00000000       0.00000000
Pb       8.94368778       8.72087215      12.56691213       0.00000000       0.00000000       0.00000000
Pb       4.43899640       4.38601409       6.19858991       0.00000000       0.00000000       0.00000000
I        7.25729333       6.35325718       6.46632073       0.00000000       0.00000000       0.00000000
I        8.67098306       8.67416058       2.91383805       0.00000000       0.00000000       0.00000000
I        6.38840827       1.73880374      12.31898794       0.00000000       0.00000000       0.00000000
I        1.94127701       2.52609606      12.65422187       0.00000000       0.00000000       0.00000000
I        1.81396844       2.69055576       5.80780111       0.00000000       0.00000000       0.00000000
I        2.72350359       7.12319419       5.85744171       0.00000000       0.00000000       0.00000000
I        7.36200981       6.07793254      12.23105296       0.00000000       0.00000000       0.00000000
I        6.45615363       1.80656045       6.23415687       0.00000000       0.00000000       0.00000000
I        4.28187966       4.47184137       9.44324677       0.00000000       0.00000000       0.00000000
I        0.34666810       8.75823276       9.38194702       0.00000000       0.00000000       0.00000000
I        2.81257090       6.87136207      12.69037599       0.00000000       0.00000000       0.00000000
I        4.88732179       4.26937674       2.86927025       0.00000000       0.00000000       0.00000000
48
Lattice="9.01938999317578 0.0 0.0 0.0 8.777767844565316 0.0 0.0 0.0 12.796186806294449" Properties=species:S:1:pos:R:3:momenta:R:3 config_id=O-FAPI3_al_global_rattle_09__global_rattle__sev-0.313__seed-new phase=O-FAPI3 mode=active_learning seed=936175226 seed_origin=new seed_origin_config_id= parity_master_seed new_master_seed=20260901 source=O-FAPI3/CONTCAR formula=C4H20I12N8Pb4 natoms=48 fa_groups="_JSON [[0, 4, 8, 12, 16, 28, 20, 24], [1, 5, 9, 13, 17, 29, 21, 25], [2, 10, 6, 14, 30, 18, 26, 22], [3, 11, 7, 15, 31, 19, 27, 23]]" cell_A="_JSON [[9.0193899932, 0.0, 0.0], [0.0, 8.7777678446, 0.0], [0.0, 0.0, 12.7961868063]]" distortion_family=global_rattle distortion_severity=0.313 rattle_target=all rattle_sigma_A=0.081033295 distortion_label=global_rattle minimum_distance_A=0.8701892151983551 minimum_pair_indices="_JSON [10, 26]" minimum_pair_symbols="_JSON [\"N\", \"H\"]" pbc="T T T"
C        4.79435731       0.33656850       3.15643166       0.00000000       0.00000000       0.00000000
C        0.10869948       4.00328923       9.42397481       0.00000000       0.00000000       0.00000000
C        0.03383511       4.78125694       3.16842180       0.00000000       0.00000000       0.00000000
C        4.46385990       8.39731780       9.61393942       0.00000000       0.00000000       0.00000000
N        5.15193987       8.42751170       2.37494939       0.00000000       0.00000000       0.00000000
N        0.62914727       5.02175376       8.73275943       0.00000000       0.00000000       0.00000000
N        1.02190229       5.18681932       3.12486796       0.00000000       0.00000000       0.00000000
N        5.78540799       8.02246329       9.49747115       0.00000000       0.00000000       0.00000000
N        3.43382297       0.91845530       3.18761214       0.00000000       0.00000000       0.00000000
N        7.82932223       3.45959813       9.51525184       0.00000000       0.00000000       0.00000000
N        8.38574359       3.78489346       2.25823523       0.00000000       0.00000000       0.00000000
N        3.84178070       0.55627656       8.90527495       0.00000000       0.00000000       0.00000000
H        5.26126572       0.69277128       3.97212730       0.00000000       0.00000000       0.00000000
H        0.80776908       3.47688033      10.32994673       0.00000000       0.00000000       0.00000000
H        8.31330702       5.18756506       3.89982681       0.00000000       0.00000000       0.00000000
H        3.83051484       7.89982592      10.28961424       0.00000000       0.00000000       0.00000000
H        6.10978628       7.93025458       2.50595752       0.00000000       0.00000000       0.00000000
H        1.62989347       5.13729477       8.91367406       0.00000000       0.00000000       0.00000000
H        1.64503252       5.86217559       3.79111082       0.00000000       0.00000000       0.00000000
H        6.13300774       7.32082796      10.00639545       0.00000000       0.00000000       0.00000000
H        4.47781179       7.76524175       1.68670531       0.00000000       0.00000000       0.00000000
H        0.11384603       5.53170318       8.04930889       0.00000000       0.00000000       0.00000000
H        1.81692524       4.67952328       2.39830447       0.00000000       0.00000000       0.00000000
H        6.36982917       8.54355226       8.68957542       0.00000000       0.00000000       0.00000000
H        2.63236419       0.26082464       2.37854880       0.00000000       0.00000000       0.00000000
H        7.14225622       4.06424524       8.76978578       0.00000000       0.00000000       0.00000000
H        8.88820274       3.30099123       1.73804036       0.00000000       0.00000000       0.00000000
H        4.50167357       0.94576169       8.14959738       0.00000000       0.00000000       0.00000000
H        2.90408773       1.45183770       3.74625343       0.00000000       0.00000000       0.00000000
H        7.32647029       2.99179652      10.20434466       0.00000000       0.00000000       0.00000000
H        7.44171031       3.80651539       2.52368102       0.00000000       0.00000000       0.00000000
H        2.75215166       0.68803886       8.92490628       0.00000000       0.00000000       0.00000000
Pb       4.50876313       4.30889977      12.57703845       0.00000000       0.00000000       0.00000000
Pb       0.05694863       0.02450953       6.12625223       0.00000000       0.00000000       0.00000000
Pb       8.89297640       8.61096105      12.51392992       0.00000000       0.00000000       0.00000000
Pb       4.44236776       4.52559402       6.04589896       0.00000000       0.00000000       0.00000000
I        7.18462508       6.21800302       6.34583827       0.00000000       0.00000000       0.00000000
I        8.57808194       8.70689113       2.87892436       0.00000000       0.00000000       0.00000000
I        6.53312419       1.69135801      12.22802792       0.00000000       0.00000000       0.00000000
I        1.92487105       2.53368067      12.73841751       0.00000000       0.00000000       0.00000000
I        1.81664932       2.62392250       5.84012130       0.00000000       0.00000000       0.00000000
I        2.68803031       6.97646559       5.94508823       0.00000000       0.00000000       0.00000000
I        7.09944920       6.13436522      12.14806219       0.00000000       0.00000000       0.00000000
I        6.30309724       1.85149920       6.37088686       0.00000000       0.00000000       0.00000000
I        4.14478980       4.46760404       9.39190877       0.00000000       0.00000000       0.00000000
I        0.30938364       0.16301941       9.42873534       0.00000000       0.00000000       0.00000000
I        2.54928589       6.92732861       0.00024150       0.00000000       0.00000000       0.00000000
I        4.90710044       4.38754698       2.91730729       0.00000000       0.00000000       0.00000000
48
Lattice="9.01938999317578 0.0 0.0 0.0 8.777767844565316 0.0 0.0 0.0 12.796186806294449" Properties=species:S:1:pos:R:3:momenta:R:3 config_id=O-FAPI3_al_global_rattle_10__global_rattle__sev-0.327__seed-new phase=O-FAPI3 mode=active_learning seed=2091820721 seed_origin=new seed_origin_config_id= parity_master_seed new_master_seed=20260901 source=O-FAPI3/CONTCAR formula=C4H20I12N8Pb4 natoms=48 fa_groups="_JSON [[0, 4, 8, 12, 16, 28, 20, 24], [1, 5, 9, 13, 17, 29, 21, 25], [2, 10, 6, 14, 30, 18, 26, 22], [3, 11, 7, 15, 31, 19, 27, 23]]" cell_A="_JSON [[9.0193899932, 0.0, 0.0], [0.0, 8.7777678446, 0.0], [0.0, 0.0, 12.7961868063]]" distortion_family=global_rattle distortion_severity=0.327 rattle_target=all rattle_sigma_A=0.08256670499999999 distortion_label=global_rattle minimum_distance_A=0.8419944478682776 minimum_pair_indices="_JSON [9, 25]" minimum_pair_symbols="_JSON [\"N\", \"H\"]" pbc="T T T"
C        4.61286614       0.24796647       3.24814505       0.00000000       0.00000000       0.00000000
C        0.09859389       4.09754563       9.69106832       0.00000000       0.00000000       0.00000000
C        0.01035578       4.65130552       3.18608439       0.00000000       0.00000000       0.00000000
C        4.42169690       8.60100725       9.65177796       0.00000000       0.00000000       0.00000000
N        5.10982827       8.14252513       2.41551162       0.00000000       0.00000000       0.00000000
N        0.58935138       5.07137600       8.95989194       0.00000000       0.00000000       0.00000000
N        1.19099473       5.10291357       3.17980196       0.00000000       0.00000000       0.00000000
N        5.71057259       8.18245728       9.54436939       0.00000000       0.00000000       0.00000000
N        3.22348051       0.61867822       3.15622914       0.00000000       0.00000000       0.00000000
N        7.74218446       3.62431972       9.39116278       0.00000000       0.00000000       0.00000000
N        8.42913892       3.84449951       2.47111226       0.00000000       0.00000000       0.00000000
N        3.76641024       0.50559680       8.74031380       0.00000000       0.00000000       0.00000000
H        5.22021226       0.80399359       3.86284070       0.00000000       0.00000000       0.00000000
H        0.76484086       3.65040038      10.47736556       0.00000000       0.00000000       0.00000000
H        8.37852279       5.27429341       3.76319766       0.00000000       0.00000000       0.00000000
H        3.74369921       7.78431985      10.34176811       0.00000000       0.00000000       0.00000000
H        6.07547967       8.00525099       2.67290359       0.00000000       0.00000000       0.00000000
H        1.64565378       5.07141922       9.05155465       0.00000000       0.00000000       0.00000000
H        1.63890464       5.70854113       3.73334686       0.00000000       0.00000000       0.00000000
H        5.95014131       7.37612583      10.09002750       0.00000000       0.00000000       0.00000000
H        4.48679991       7.86185965       1.65487666       0.00000000       0.00000000       0.00000000
H        0.01989672       5.38824053       8.08058888       0.00000000       0.00000000       0.00000000
H        1.84363647       4.77059438       2.49126775       0.00000000       0.00000000       0.00000000
H        6.22940889       8.48119265       8.84331909       0.00000000       0.00000000       0.00000000
H        2.80999737       0.45791869       2.27615318       0.00000000       0.00000000       0.00000000
H        7.17738353       3.93041902       8.84686712       0.00000000       0.00000000       0.00000000
H        8.85956591       3.28298087       1.60982188       0.00000000       0.00000000       0.00000000
H        4.26273922       1.20323381       8.12011709       0.00000000       0.00000000       0.00000000
H        2.91531439       1.53796526       3.74665370       0.00000000       0.00000000       0.00000000
H        7.46714335       2.93946476      10.16945162       0.00000000       0.00000000       0.00000000
H        7.46187687       3.74898758       2.54513457       0.00000000       0.00000000       0.00000000
H        2.90761615       0.82275344       8.89058819       0.00000000       0.00000000       0.00000000
Pb       4.50772935       4.17123427      12.50365193       0.00000000       0.00000000       0.00000000
Pb       8.99418351       0.07971973       6.29155041       0.00000000       0.00000000       0.00000000
Pb       8.88202828       8.70001354      12.54926088       0.00000000       0.00000000       0.00000000
Pb       4.53847678       4.34483086       6.37447836       0.00000000       0.00000000       0.00000000
I        7.19357206       6.16152570       6.58734756       0.00000000       0.00000000       0.00000000
I        8.71090174       8.70341108       3.06261109       0.00000000       0.00000000       0.00000000
I        6.39195743       1.74522453      12.43109383       0.00000000       0.00000000       0.00000000
I        1.95669448       2.51754421       0.07987173       0.00000000       0.00000000       0.00000000
I        1.71677798       2.79049617       5.88001687       0.00000000       0.00000000       0.00000000
I        2.70313334       7.06929885       5.84700805       0.00000000       0.00000000       0.00000000
I        7.08014081       6.03366578      12.34481556       0.00000000       0.00000000       0.00000000
I        6.47884814       1.77151469       6.39825375       0.00000000       0.00000000       0.00000000
I        4.15881197       4.47840660       9.43044545       0.00000000       0.00000000       0.00000000
I        0.37655209       0.07875764       9.45384290       0.00000000       0.00000000       0.00000000
I        2.67493219       6.93367923       0.11038014       0.00000000       0.00000000       0.00000000
I        4.92410327       4.44310039       2.97919872       0.00000000       0.00000000       0.00000000
48
Lattice="9.01938999317578 0.0 0.0 0.0 8.777767844565316 0.0 0.0 0.0 12.796186806294449" Properties=species:S:1:pos:R:3:momenta:R:3 config_id=O-FAPI3_al_global_rattle_11__global_rattle__sev-0.340__seed-new phase=O-FAPI3 mode=active_learning seed=3791404926 seed_origin=new seed_origin_config_id= parity_master_seed new_master_seed=20260901 source=O-FAPI3/CONTCAR formula=C4H20I12N8Pb4 natoms=48 fa_groups="_JSON [[0, 4, 8, 12, 16, 28, 20, 24], [1, 5, 9, 13, 17, 29, 21, 25], [2, 10, 6, 14, 30, 18, 26, 22], [3, 11, 7, 15, 31, 19, 27, 23]]" cell_A="_JSON [[9.0193899932, 0.0, 0.0], [0.0, 8.7777678446, 0.0], [0.0, 0.0, 12.7961868063]]" distortion_family=global_rattle distortion_severity=0.34 rattle_target=all rattle_sigma_A=0.08410000000000001 distortion_label=global_rattle minimum_distance_A=0.8512987843426529 minimum_pair_indices="_JSON [4, 20]" minimum_pair_symbols="_JSON [\"N\", \"H\"]" pbc="T T T"
C        4.52111433       0.14272672       3.24816925       0.00000000       0.00000000       0.00000000
C        0.19192153       4.14731645       9.48814875       0.00000000       0.00000000       0.00000000
C        8.77693355       4.73854588       3.05591056       0.00000000       0.00000000       0.00000000
C        4.32212816       8.35038942       9.53739444       0.00000000       0.00000000       0.00000000
N        4.95989431       8.06031994       2.48661094       0.00000000       0.00000000       0.00000000
N        0.53403861       4.95065308       8.89430100       0.00000000       0.00000000       0.00000000
N        1.18744514       5.21723273       3.00842073       0.00000000       0.00000000       0.00000000
N        5.73188242       7.94370740       9.54386088       0.00000000       0.00000000       0.00000000
N        3.24686737       0.74833193       3.11804120       0.00000000       0.00000000       0.00000000
N        7.89056561       3.63174473       9.49862753       0.00000000       0.00000000       0.00000000
N        8.35280536       3.71500741       2.33192026       0.00000000       0.00000000       0.00000000
N        4.01246879       0.57925918       8.91337243       0.00000000       0.00000000       0.00000000
H        5.22836518       0.81812953       3.92126622       0.00000000       0.00000000       0.00000000
H        0.63771872       3.65309302      10.31254563       0.00000000       0.00000000       0.00000000
H        8.33636285       5.20960255       3.88836327       0.00000000       0.00000000       0.00000000
H        3.80641067       7.87353652      10.18029231       0.00000000       0.00000000       0.00000000
H        6.11303478       8.03621224       2.56334143       0.00000000       0.00000000       0.00000000
H        1.74327808       5.16337037       9.01009010       0.00000000       0.00000000       0.00000000
H        1.56078423       5.72153923       3.67373745       0.00000000       0.00000000       0.00000000
H        6.26370107       7.43738040      10.12814376       0.00000000       0.00000000       0.00000000
H        4.66661118       7.70795295       1.76930199       0.00000000       0.00000000       0.00000000
H        8.99578197       5.52815329       8.04564413       0.00000000       0.00000000       0.00000000
H        1.88588905       4.68863812       2.43710855       0.00000000       0.00000000       0.00000000
H        6.36223847       8.45557985       8.97051431       0.00000000       0.00000000       0.00000000
H        2.61796151       0.45869701       2.42046216       0.00000000       0.00000000       0.00000000
H        7.18652419       4.19576695       8.74364832       0.00000000       0.00000000       0.00000000
H        8.98128286       3.35711293       1.55803573       0.00000000       0.00000000       0.00000000
H        4.41903112       0.97023525       8.05841355       0.00000000       0.00000000       0.00000000
H        2.83980181       1.42934886       3.62356835       0.00000000       0.00000000       0.00000000
H        7.44211419       3.04092847      10.18425398       0.00000000       0.00000000       0.00000000
H        7.39893764       3.75131038       2.50816476       0.00000000       0.00000000       0.00000000
H        2.90000273       0.64215583       8.90093728       0.00000000       0.00000000       0.00000000
Pb       4.48511815       4.48654118      12.48293948       0.00000000       0.00000000       0.00000000
Pb       0.10316443       0.12353203       6.23852447       0.00000000       0.00000000       0.00000000
Pb       0.16478221       8.70027829      12.65446265       0.00000000       0.00000000       0.00000000
Pb       4.45098436       4.64313079       6.27821128       0.00000000       0.00000000       0.00000000
I        7.28296632       6.29684545       6.48819018       0.00000000       0.00000000       0.00000000
I        8.62920372       8.76786228       2.89516605       0.00000000       0.00000000       0.00000000
I        6.41507701       1.77010289      12.29317199       0.00000000       0.00000000       0.00000000
I        1.86340483       2.43786974       0.11975796       0.00000000       0.00000000       0.00000000
I        1.76146398       2.58585936       5.94031004       0.00000000       0.00000000       0.00000000
I        2.71384950       6.96280123       5.82776527       0.00000000       0.00000000       0.00000000
I        7.26650878       6.12921518      12.41175621       0.00000000       0.00000000       0.00000000
I        6.37598789       1.94515592       6.34201655       0.00000000       0.00000000       0.00000000
I        4.21853088       4.43929831       9.37928750       0.00000000       0.00000000       0.00000000
I        0.44566115       0.02909250       9.37749924       0.00000000       0.00000000       0.00000000
I        2.60227497       6.95045202       0.24485465       0.00000000       0.00000000       0.00000000
I        4.79741577       4.42663555       3.01284552       0.00000000       0.00000000       0.00000000
48
Lattice="9.01938999317578 0.0 0.0 0.0 8.777767844565316 0.0 0.0 0.0 12.796186806294449" Properties=species:S:1:pos:R:3:momenta:R:3 config_id=O-FAPI3_al_global_rattle_12__global_rattle__sev-0.353__seed-new phase=O-FAPI3 mode=active_learning seed=493801276 seed_origin=new seed_origin_config_id= parity_master_seed new_master_seed=20260901 source=O-FAPI3/CONTCAR formula=C4H20I12N8Pb4 natoms=48 fa_groups="_JSON [[0, 4, 8, 12, 16, 28, 20, 24], [1, 5, 9, 13, 17, 29, 21, 25], [2, 10, 6, 14, 30, 18, 26, 22], [3, 11, 7, 15, 31, 19, 27, 23]]" cell_A="_JSON [[9.0193899932, 0.0, 0.0], [0.0, 8.7777678446, 0.0], [0.0, 0.0, 12.7961868063]]" distortion_family=global_rattle distortion_severity=0.353 rattle_target=all rattle_sigma_A=0.085633295 distortion_label=global_rattle minimum_distance_A=0.8320990394426241 minimum_pair_indices="_JSON [10, 30]" minimum_pair_symbols="_JSON [\"N\", \"H\"]" pbc="T T T"
C        4.59766891       0.34965014       3.17863275       0.00000000       0.00000000       0.00000000
C        0.16640936       4.14321629       9.51421951       0.00000000       0.00000000       0.00000000
C        8.97421953       4.95067442       3.15074629       0.00000000       0.00000000       0.00000000
C        4.39419924       8.36992963       9.56702893       0.00000000       0.00000000       0.00000000
N        5.30322400       8.09878288       2.42463163       0.00000000       0.00000000       0.00000000
N        0.60274244       4.90358664       8.82137906       0.00000000       0.00000000       0.00000000
N        1.25784346       5.03806231       3.02123265       0.00000000       0.00000000       0.00000000
N        5.73423322       8.04826545       9.42853833       0.00000000       0.00000000       0.00000000
N        3.36433543       0.86115273       3.10266376       0.00000000       0.00000000       0.00000000
N        7.84007265       3.62567264       9.49463371       0.00000000       0.00000000       0.00000000
N        8.22756076       3.90565249       2.41315648       0.00000000       0.00000000       0.00000000
N        3.70974729       0.50503288       8.86071765       0.00000000       0.00000000       0.00000000
H        5.12655447       0.82855254       3.87764021       0.00000000       0.00000000       0.00000000
H        0.50310976       3.57433319      10.33824555       0.00000000       0.00000000       0.00000000
H        8.55618020       5.23082677       4.03487756       0.00000000       0.00000000       0.00000000
H        3.81329447       7.83647875      10.41071759       0.00000000       0.00000000       0.00000000
H        6.23015219       7.96566829       2.57174983       0.00000000       0.00000000       0.00000000
H        1.59310676       5.28623701       9.02771757       0.00000000       0.00000000       0.00000000
H        1.51022661       5.94214191       3.73636683       0.00000000       0.00000000       0.00000000
H        6.10001321       7.24206472      10.06040740       0.00000000       0.00000000       0.00000000
H        4.76546099       7.83651213       1.71605035       0.00000000       0.00000000       0.00000000
H        0.14419742       5.39749381       8.20056950       0.00000000       0.00000000       0.00000000
H        1.69531074       4.67751462       2.25285122       0.00000000       0.00000000       0.00000000
H        6.43366697       8.48771684       8.90397429       0.00000000       0.00000000       0.00000000
H        2.62284714       0.32010948       2.45558377       0.00000000       0.00000000       0.00000000
H        7.23323784       4.01712307       8.89405340       0.00000000       0.00000000       0.00000000
H        8.67688025       3.20941473       1.84369818       0.00000000       0.00000000       0.00000000
H        4.49252614       1.10115831       8.00315426       0.00000000       0.00000000       0.00000000
H        2.75681591       1.39747926       3.75389929       0.00000000       0.00000000       0.00000000
H        7.41311267       2.97936040      10.06282331       0.00000000       0.00000000       0.00000000
H        7.42186924       3.70056720       2.44765299       0.00000000       0.00000000       0.00000000
H        2.85259274       0.76872058       8.96595841       0.00000000       0.00000000       0.00000000
Pb       4.62106014       4.23305640      12.59340256       0.00000000       0.00000000       0.00000000
Pb       8.98504848       0.31922597       6.21978490       0.00000000       0.00000000       0.00000000
Pb       8.90339258       8.68198169      12.52956670       0.00000000       0.00000000       0.00000000
Pb       4.50071396       4.48313381       6.18033774       0.00000000       0.00000000       0.00000000
I        7.18066354       6.30028518       6.40109335       0.00000000       0.00000000       0.00000000
I        8.69620241       8.56560543       3.08612892       0.00000000       0.00000000       0.00000000
I        6.49273766       1.73717587      12.36108829       0.00000000       0.00000000       0.00000000
I        1.74415530       2.58354200       0.12900346       0.00000000       0.00000000       0.00000000
I        2.03051623       2.63312042       5.87732671       0.00000000       0.00000000       0.00000000
I        2.69220209       7.10321087       6.03336458       0.00000000       0.00000000       0.00000000
I        7.10762685       5.99093369      12.36288544       0.00000000       0.00000000       0.00000000
I        6.32612084       1.71213139       6.44481039       0.00000000       0.00000000       0.00000000
I        4.09609254       4.43992956       9.36146162       0.00000000       0.00000000       0.00000000
I        0.36263986       0.10773593       9.37552377       0.00000000       0.00000000       0.00000000
I        2.77376426       6.96703800       0.02482210       0.00000000       0.00000000       0.00000000
I        4.80769938       4.38266853       2.93849156       0.00000000       0.00000000       0.00000000
48
Lattice="9.01938999317578 0.0 0.0 0.0 8.777767844565316 0.0 0.0 0.0 12.796186806294449" Properties=species:S:1:pos:R:3:momenta:R:3 config_id=O-FAPI3_al_global_rattle_13__global_rattle__sev-0.367__seed-parity phase=O-FAPI3 mode=active_learning seed=2252567379 seed_origin=parity seed_origin_config_id=O-FAPI3_parity_15__global_rattle__sev-0.5 parity_master_seed=20260810 new_master_seed source=O-FAPI3/CONTCAR formula=C4H20I12N8Pb4 natoms=48 fa_groups="_JSON [[0, 4, 8, 12, 16, 28, 20, 24], [1, 5, 9, 13, 17, 29, 21, 25], [2, 10, 6, 14, 30, 18, 26, 22], [3, 11, 7, 15, 31, 19, 27, 23]]" cell_A="_JSON [[9.0193899932, 0.0, 0.0], [0.0, 8.7777678446, 0.0], [0.0, 0.0, 12.7961868063]]" distortion_family=global_rattle distortion_severity=0.367 rattle_target=all rattle_sigma_A=0.08716670500000001 distortion_label=global_rattle minimum_distance_A=0.7886113918720956 minimum_pair_indices="_JSON [7, 19]" minimum_pair_symbols="_JSON [\"N\", \"H\"]" pbc="T T T"
C        4.46137013       0.42380886       3.15898191       0.00000000       0.00000000       0.00000000
C        8.98316140       4.04042445       9.44938662       0.00000000       0.00000000       0.00000000
C        8.84270962       4.77636350       3.21250057       0.00000000       0.00000000       0.00000000
C        4.53310980       8.24981803       9.62133120       0.00000000       0.00000000       0.00000000
N        5.08250114       8.23002180       2.52018484       0.00000000       0.00000000       0.00000000
N        0.62431766       4.86051205       8.85092980       0.00000000       0.00000000       0.00000000
N        1.05189167       5.22038475       3.13371673       0.00000000       0.00000000       0.00000000
N        5.75584833       7.91534986       9.50740193       0.00000000       0.00000000       0.00000000
N        3.17974367       0.80412982       3.10287943       0.00000000       0.00000000       0.00000000
N        7.67786753       3.59149036       9.45248471       0.00000000       0.00000000       0.00000000
N        8.38939087       3.84565484       2.46376065       0.00000000       0.00000000       0.00000000
N        3.89515695       0.54331574       8.79453116       0.00000000       0.00000000       0.00000000
H        5.41075973       0.80832397       3.99708444       0.00000000       0.00000000       0.00000000
H        0.75612947       3.49068417      10.46794989       0.00000000       0.00000000       0.00000000
H        8.17393128       5.19968165       3.91325419       0.00000000       0.00000000       0.00000000
H        3.81544953       8.01320318      10.28191142       0.00000000       0.00000000       0.00000000
H        6.21092895       8.05531366       2.57771351       0.00000000       0.00000000       0.00000000
H        1.58913164       5.12590620       8.90779383       0.00000000       0.00000000       0.00000000
H        1.57953197       5.78794552       3.74935478       0.00000000       0.00000000       0.00000000
H        5.97604961       7.54290377      10.16672221       0.00000000       0.00000000       0.00000000
H        4.52558877       7.73256990       1.49546962       0.00000000       0.00000000       0.00000000
H        0.10578278       5.52502493       8.03892827       0.00000000       0.00000000       0.00000000
H        1.69179116       4.70289664       2.37359720       0.00000000       0.00000000       0.00000000
H        6.49912246       8.29647871       8.86014708       0.00000000       0.00000000       0.00000000
H        2.61777577       0.33092846       2.41694732       0.00000000       0.00000000       0.00000000
H        7.15161283       4.08019647       8.91290709       0.00000000       0.00000000       0.00000000
H        8.90587273       3.55778756       1.75485134       0.00000000       0.00000000       0.00000000
H        4.30602114       1.07322902       8.10008674       0.00000000       0.00000000       0.00000000
H        2.86429917       1.62063203       3.76993804       0.00000000       0.00000000       0.00000000
H        7.43661044       2.91565340       9.98295101       0.00000000       0.00000000       0.00000000
H        7.34191371       3.71027519       2.56998682       0.00000000       0.00000000       0.00000000
H        2.76701311       0.76767407       8.94093162       0.00000000       0.00000000       0.00000000
Pb       4.56579642       4.41558234      12.58148586       0.00000000       0.00000000       0.00000000
Pb       0.09332344       0.10923158       6.15193324       0.00000000       0.00000000       0.00000000
Pb       0.03209071       8.64289409      12.40924546       0.00000000       0.00000000       0.00000000
Pb       4.56360970       4.53464037       6.14499395       0.00000000       0.00000000       0.00000000
I        7.16337194       6.33590001       6.56354045       0.00000000       0.00000000       0.00000000
I        8.67625625       8.65117795       3.01925375       0.00000000       0.00000000       0.00000000
I        6.51427136       1.58604502      12.27085227       0.00000000       0.00000000       0.00000000
I        1.77656260       2.58224430      12.78364904       0.00000000       0.00000000       0.00000000
I        1.83861049       2.72904034       5.93250199       0.00000000       0.00000000       0.00000000
I        2.56432794       7.13022677       5.85391218       0.00000000       0.00000000       0.00000000
I        7.19082452       5.97856479      12.24364468       0.00000000       0.00000000       0.00000000
I        6.28660369       1.92502669       6.58108920       0.00000000       0.00000000       0.00000000
I        4.29651555       4.40733258       9.33519099       0.00000000       0.00000000       0.00000000
I        0.36298694       8.67599978       9.57804184       0.00000000       0.00000000       0.00000000
I        2.67286017       6.80016719      12.71562107       0.00000000       0.00000000       0.00000000
I        4.98070989       4.52387554       3.17068363       0.00000000       0.00000000       0.00000000
48
Lattice="9.01938999317578 0.0 0.0 0.0 8.777767844565316 0.0 0.0 0.0 12.796186806294449" Properties=species:S:1:pos:R:3:momenta:R:3 config_id=O-FAPI3_al_global_rattle_14__global_rattle__sev-0.380__seed-new phase=O-FAPI3 mode=active_learning seed=294968988 seed_origin=new seed_origin_config_id= parity_master_seed new_master_seed=20260901 source=O-FAPI3/CONTCAR formula=C4H20I12N8Pb4 natoms=48 fa_groups="_JSON [[0, 4, 8, 12, 16, 28, 20, 24], [1, 5, 9, 13, 17, 29, 21, 25], [2, 10, 6, 14, 30, 18, 26, 22], [3, 11, 7, 15, 31, 19, 27, 23]]" cell_A="_JSON [[9.0193899932, 0.0, 0.0], [0.0, 8.7777678446, 0.0], [0.0, 0.0, 12.7961868063]]" distortion_family=global_rattle distortion_severity=0.38 rattle_target=all rattle_sigma_A=0.0887 distortion_label=global_rattle minimum_distance_A=0.8721173024364688 minimum_pair_indices="_JSON [10, 26]" minimum_pair_symbols="_JSON [\"N\", \"H\"]" pbc="T T T"
C        4.57585844       0.40788976       3.15667758       0.00000000       0.00000000       0.00000000
C        0.07093301       4.12966993       9.63238872       0.00000000       0.00000000       0.00000000
C        0.10856728       4.64048170       3.10720246       0.00000000       0.00000000       0.00000000
C        4.45072152       8.44518334       9.62827996       0.00000000       0.00000000       0.00000000
N        5.24745738       8.18324307       2.43336527       0.00000000       0.00000000       0.00000000
N        0.59834862       4.85697979       8.77011945       0.00000000       0.00000000       0.00000000
N        1.16149587       5.06817366       3.00816096       0.00000000       0.00000000       0.00000000
N        5.58033488       7.98151424       9.40729715       0.00000000       0.00000000       0.00000000
N        3.42046513       0.75060384       3.01756176       0.00000000       0.00000000       0.00000000
N        7.79193050       3.74989316       9.38167924       0.00000000       0.00000000       0.00000000
N        8.42248554       3.83211293       2.34388574       0.00000000       0.00000000       0.00000000
N        3.95438901       0.48402773       8.79322219       0.00000000       0.00000000       0.00000000
H        5.17891886       0.88826102       3.86628805       0.00000000       0.00000000       0.00000000
H        0.70388787       3.51928868      10.26726352       0.00000000       0.00000000       0.00000000
H        8.33169334       5.12730902       3.97514226       0.00000000       0.00000000       0.00000000
H        3.92303613       7.84111996      10.28328709       0.00000000       0.00000000       0.00000000
H        6.17956146       8.12143505       2.60625980       0.00000000       0.00000000       0.00000000
H        1.68142481       5.17058772       8.86169838       0.00000000       0.00000000       0.00000000
H        1.47523917       5.78478538       3.63123456       0.00000000       0.00000000       0.00000000
H        6.03114794       7.40487823      10.25985739       0.00000000       0.00000000       0.00000000
H        4.58699322       7.62007281       1.59246241       0.00000000       0.00000000       0.00000000
H        0.06773305       5.45355712       8.15577256       0.00000000       0.00000000       0.00000000
H        1.66379664       4.66294996       2.40468925       0.00000000       0.00000000       0.00000000
H        6.36963007       8.53537751       8.76579574       0.00000000       0.00000000       0.00000000
H        2.73549580       0.36908626       2.35443963       0.00000000       0.00000000       0.00000000
H        7.09751499       4.00617381       8.73127707       0.00000000       0.00000000       0.00000000
H        8.86857968       3.33477783       1.78330889       0.00000000       0.00000000       0.00000000
H        4.27255536       1.12335383       8.19521246       0.00000000       0.00000000       0.00000000
H        2.86637053       1.31838087       3.74780573       0.00000000       0.00000000       0.00000000
H        7.40915844       2.97129978      10.02250124       0.00000000       0.00000000       0.00000000
H        7.53643332       3.71514648       2.50610818       0.00000000       0.00000000       0.00000000
H        2.83429434       0.59429803       8.87345221       0.00000000       0.00000000       0.00000000
Pb       4.49961903       4.19828765      12.58465785       0.00000000       0.00000000       0.00000000
Pb       0.03100417       8.75033525       6.25891505       0.00000000       0.00000000       0.00000000
Pb       0.12207138       8.64652990      12.57188125       0.00000000       0.00000000       0.00000000
Pb       4.58633869       4.62318770       6.09094728       0.00000000       0.00000000       0.00000000
I        7.32963550       6.30697652       6.45489654       0.00000000       0.00000000       0.00000000
I        8.70807075       8.74960620       2.91172712       0.00000000       0.00000000       0.00000000
I        6.26660616       1.66416958      12.22255606       0.00000000       0.00000000       0.00000000
I        1.92280136       2.72939487       0.06578521       0.00000000       0.00000000       0.00000000
I        1.81591322       2.66922182       5.93071965       0.00000000       0.00000000       0.00000000
I        2.47441433       7.06494478       5.84026187       0.00000000       0.00000000       0.00000000
I        7.22484008       6.09426215      12.35190963       0.00000000       0.00000000       0.00000000
I        6.23093226       1.95086048       6.47063347       0.00000000       0.00000000       0.00000000
I        4.08784876       4.59129290       9.12234730       0.00000000       0.00000000       0.00000000
I        0.33094632       0.04795601       9.43494971       0.00000000       0.00000000       0.00000000
I        2.56624284       6.97977506      12.78413337       0.00000000       0.00000000       0.00000000
I        4.75541300       4.29146221       3.08339693       0.00000000       0.00000000       0.00000000
48
Lattice="9.01938999317578 0.0 0.0 0.0 8.777767844565316 0.0 0.0 0.0 12.796186806294449" Properties=species:S:1:pos:R:3:momenta:R:3 config_id=O-FAPI3_al_global_rattle_15__global_rattle__sev-0.393__seed-new phase=O-FAPI3 mode=active_learning seed=757039206 seed_origin=new seed_origin_config_id= parity_master_seed new_master_seed=20260901 source=O-FAPI3/CONTCAR formula=C4H20I12N8Pb4 natoms=48 fa_groups="_JSON [[0, 4, 8, 12, 16, 28, 20, 24], [1, 5, 9, 13, 17, 29, 21, 25], [2, 10, 6, 14, 30, 18, 26, 22], [3, 11, 7, 15, 31, 19, 27, 23]]" cell_A="_JSON [[9.0193899932, 0.0, 0.0], [0.0, 8.7777678446, 0.0], [0.0, 0.0, 12.7961868063]]" distortion_family=global_rattle distortion_severity=0.393 rattle_target=all rattle_sigma_A=0.09023329499999999 distortion_label=global_rattle minimum_distance_A=0.860507581777918 minimum_pair_indices="_JSON [1, 13]" minimum_pair_symbols="_JSON [\"C\", \"H\"]" pbc="T T T"
C        4.62179404       0.42402579       3.24971365       0.00000000       0.00000000       0.00000000
C        0.08035423       3.94812158       9.62928511       0.00000000       0.00000000       0.00000000
C        8.81090313       4.97026788       3.22451617       0.00000000       0.00000000       0.00000000
C        4.50742509       8.27031550       9.44835335       0.00000000       0.00000000       0.00000000
N        5.06016569       8.16686424       2.40047997       0.00000000       0.00000000       0.00000000
N        0.62737629       5.09490560       8.79217302       0.00000000       0.00000000       0.00000000
N        1.10076122       5.17416568       3.13567743       0.00000000       0.00000000       0.00000000
N        5.68556908       8.14744697       9.36352536       0.00000000       0.00000000       0.00000000
N        3.35421913       0.71630867       3.11274232       0.00000000       0.00000000       0.00000000
N        7.92135862       3.65428674       9.52210170       0.00000000       0.00000000       0.00000000
N        8.37132844       3.98471967       2.41978290       0.00000000       0.00000000       0.00000000
N        3.78445392       0.60744788       8.95044719       0.00000000       0.00000000       0.00000000
H        5.15904037       0.78808988       3.96077089       0.00000000       0.00000000       0.00000000
H        0.54545046       3.64559476      10.28703608       0.00000000       0.00000000       0.00000000
H        8.39896050       5.27999474       3.97952262       0.00000000       0.00000000       0.00000000
H        3.78097802       7.99041165      10.14667636       0.00000000       0.00000000       0.00000000
H        6.16051640       8.02059304       2.56033877       0.00000000       0.00000000       0.00000000
H        1.60274535       5.10594526       9.00531962       0.00000000       0.00000000       0.00000000
H        1.51931333       5.79643433       3.73962367       0.00000000       0.00000000       0.00000000
H        6.09700262       7.36566981      10.28377261       0.00000000       0.00000000       0.00000000
H        4.56919250       7.76510400       1.68099294       0.00000000       0.00000000       0.00000000
H        0.04139565       5.57414046       8.02052960       0.00000000       0.00000000       0.00000000
H        1.89193738       4.79150552       2.39492927       0.00000000       0.00000000       0.00000000
H        6.37607508       8.53945252       8.75384071       0.00000000       0.00000000       0.00000000
H        2.87100029       0.23999002       2.51234564       0.00000000       0.00000000       0.00000000
H        7.11787402       4.04759558       8.87500377       0.00000000       0.00000000       0.00000000
H        8.90003344       3.37892006       1.72680170       0.00000000       0.00000000       0.00000000
H        4.31025185       1.11980266       8.04313903       0.00000000       0.00000000       0.00000000
H        3.00770657       1.27982112       3.83284419       0.00000000       0.00000000       0.00000000
H        7.33268700       3.04595217      10.28925187       0.00000000       0.00000000       0.00000000
H        7.45085467       3.77072658       2.50665614       0.00000000       0.00000000       0.00000000
H        2.81758519       0.73793497       8.93708046       0.00000000       0.00000000       0.00000000
Pb       4.50759752       4.45461460      12.52786214       0.00000000       0.00000000       0.00000000
Pb       0.04955048       0.26575692       6.16987925       0.00000000       0.00000000       0.00000000
Pb       8.96047245       8.68549919      12.62926882       0.00000000       0.00000000       0.00000000
Pb       4.53769071       4.37632160       6.20882962       0.00000000       0.00000000       0.00000000
I        7.12483653       6.14858966       6.46521933       0.00000000       0.00000000       0.00000000
I        8.67878196       8.72321390       3.05952368       0.00000000       0.00000000       0.00000000
I        6.42193344       1.75515729      12.32023416       0.00000000       0.00000000       0.00000000
I        1.78396256       2.65822311       0.01170164       0.00000000       0.00000000       0.00000000
I        1.68227531       2.62301411       6.04878579       0.00000000       0.00000000       0.00000000
I        2.67932707       6.87332199       5.77430492       0.00000000       0.00000000       0.00000000
I        7.13180214       6.20755003      12.30868697       0.00000000       0.00000000       0.00000000
I        6.44598945       1.92148176       6.52154910       0.00000000       0.00000000       0.00000000
I        4.24641588       4.50544133       9.22039303       0.00000000       0.00000000       0.00000000
I        0.40021140       0.11390642       9.33765864       0.00000000       0.00000000       0.00000000
I        2.72930024       7.03764400       0.02448069       0.00000000       0.00000000       0.00000000
I        4.82068438       4.34426960       3.11568293       0.00000000       0.00000000       0.00000000
48
Lattice="9.01938999317578 0.0 0.0 0.0 8.777767844565316 0.0 0.0 0.0 12.796186806294449" Properties=species:S:1:pos:R:3:momenta:R:3 config_id=O-FAPI3_al_global_rattle_16__global_rattle__sev-0.407__seed-new phase=O-FAPI3 mode=active_learning seed=3440528164 seed_origin=new seed_origin_config_id= parity_master_seed new_master_seed=20260901 source=O-FAPI3/CONTCAR formula=C4H20I12N8Pb4 natoms=48 fa_groups="_JSON [[0, 4, 8, 12, 16, 28, 20, 24], [1, 5, 9, 13, 17, 29, 21, 25], [2, 10, 6, 14, 30, 18, 26, 22], [3, 11, 7, 15, 31, 19, 27, 23]]" cell_A="_JSON [[9.0193899932, 0.0, 0.0], [0.0, 8.7777678446, 0.0], [0.0, 0.0, 12.7961868063]]" distortion_family=global_rattle distortion_severity=0.407 rattle_target=all rattle_sigma_A=0.091766705 distortion_label=global_rattle minimum_distance_A=0.8546310966937912 minimum_pair_indices="_JSON [7, 19]" minimum_pair_symbols="_JSON [\"N\", \"H\"]" pbc="T T T"
C        4.37166498       0.29552618       3.05227498       0.00000000       0.00000000       0.00000000
C        0.06491898       4.02505424       9.65685614       0.00000000       0.00000000       0.00000000
C        9.00615643       4.68561933       3.23055776       0.00000000       0.00000000       0.00000000
C        4.54788686       8.46730566       9.54400468       0.00000000       0.00000000       0.00000000
N        5.25694994       8.26544013       2.39394754       0.00000000       0.00000000       0.00000000
N        0.61589913       4.95157077       8.76750554       0.00000000       0.00000000       0.00000000
N        1.29357776       5.00374110       3.18422490       0.00000000       0.00000000       0.00000000
N        5.79708626       7.97571103       9.40088034       0.00000000       0.00000000       0.00000000
N        3.40257151       0.82509696       3.27148892       0.00000000       0.00000000       0.00000000
N        7.69945320       3.63952048       9.54666006       0.00000000       0.00000000       0.00000000
N        8.45665280       3.76559042       2.38516798       0.00000000       0.00000000       0.00000000
N        3.87607171       0.54325376       8.96791788       0.00000000       0.00000000       0.00000000
H        5.32251612       0.87872641       4.07742311       0.00000000       0.00000000       0.00000000
H        0.58868028       3.50392979      10.45656485       0.00000000       0.00000000       0.00000000
H        8.35767796       5.32091346       4.07129851       0.00000000       0.00000000       0.00000000
H        3.75711593       7.89992230      10.30150858       0.00000000       0.00000000       0.00000000
H        6.14548344       7.97093871       2.51155449       0.00000000       0.00000000       0.00000000
H        1.72715971       5.09966263       9.10662678       0.00000000       0.00000000       0.00000000
H        1.51390428       5.78695008       3.88602966       0.00000000       0.00000000       0.00000000
H        6.01217898       7.39861553       9.99340901       0.00000000       0.00000000       0.00000000
H        4.63322332       7.79131561       1.62618661       0.00000000       0.00000000       0.00000000
H        9.01253785       5.34807066       8.08387121       0.00000000       0.00000000       0.00000000
H        2.01991001       4.56954500       2.46519439       0.00000000       0.00000000       0.00000000
H        6.42460544       8.41632443       8.64263116       0.00000000       0.00000000       0.00000000
H        2.67174222       0.18301794       2.49784523       0.00000000       0.00000000       0.00000000
H        7.28418240       3.94312334       8.74746429       0.00000000       0.00000000       0.00000000
H        9.01782347       3.37727228       1.60633617       0.00000000       0.00000000       0.00000000
H        4.36935678       1.03390597       7.98995263       0.00000000       0.00000000       0.00000000
H        3.05147196       1.49811027       3.77895817       0.00000000       0.00000000       0.00000000
H        7.50191879       2.97390718      10.21424193       0.00000000       0.00000000       0.00000000
H        7.36047007       3.63476542       2.53238264       0.00000000       0.00000000       0.00000000
H        2.79716866       0.68347367       8.97472566       0.00000000       0.00000000       0.00000000
Pb       4.61040273       4.18890511      12.55496380       0.00000000       0.00000000       0.00000000
Pb       0.00299272       0.10901637       6.11844460       0.00000000       0.00000000       0.00000000
Pb       0.16209123       0.02331968      12.58566748       0.00000000       0.00000000       0.00000000
Pb       4.64326790       4.35280291       6.23915584       0.00000000       0.00000000       0.00000000
I        7.20399391       6.14095231       6.39601723       0.00000000       0.00000000       0.00000000
I        8.62238309       0.06552638       2.89875268       0.00000000       0.00000000       0.00000000
I        6.46956625       1.68631744      12.37815353       0.00000000       0.00000000       0.00000000
I        1.80005013       2.47532661       0.16930564       0.00000000       0.00000000       0.00000000
I        1.89465740       2.64614356       6.03227134       0.00000000       0.00000000       0.00000000
I        2.64114989       7.06237953       6.03949772       0.00000000       0.00000000       0.00000000
I        7.10470016       6.03014296      12.40001161       0.00000000       0.00000000       0.00000000
I        6.39686685       1.98719506       6.53420391       0.00000000       0.00000000       0.00000000
I        4.28711223       4.30523200       9.37713166       0.00000000       0.00000000       0.00000000
I        0.29833764       8.76789646       9.43352582       0.00000000       0.00000000       0.00000000
I        2.62760251       6.81809986       0.03878216       0.00000000       0.00000000       0.00000000
I        4.80998403       4.40639858       2.93785830       0.00000000       0.00000000       0.00000000
48
Lattice="9.01938999317578 0.0 0.0 0.0 8.777767844565316 0.0 0.0 0.0 12.796186806294449" Properties=species:S:1:pos:R:3:momenta:R:3 config_id=O-FAPI3_al_global_rattle_17__global_rattle__sev-0.420__seed-new phase=O-FAPI3 mode=active_learning seed=2917967121 seed_origin=new seed_origin_config_id= parity_master_seed new_master_seed=20260901 source=O-FAPI3/CONTCAR formula=C4H20I12N8Pb4 natoms=48 fa_groups="_JSON [[0, 4, 8, 12, 16, 28, 20, 24], [1, 5, 9, 13, 17, 29, 21, 25], [2, 10, 6, 14, 30, 18, 26, 22], [3, 11, 7, 15, 31, 19, 27, 23]]" cell_A="_JSON [[9.0193899932, 0.0, 0.0], [0.0, 8.7777678446, 0.0], [0.0, 0.0, 12.7961868063]]" distortion_family=global_rattle distortion_severity=0.42 rattle_target=all rattle_sigma_A=0.0933 distortion_label=global_rattle minimum_distance_A=0.8688413370826185 minimum_pair_indices="_JSON [4, 16]" minimum_pair_symbols="_JSON [\"N\", \"H\"]" pbc="T T T"
C        4.68815538       0.15572604       3.25412914       0.00000000       0.00000000       0.00000000
C        8.99253384       3.89553737       9.75270700       0.00000000       0.00000000       0.00000000
C        8.99642866       4.68230949       3.23191888       0.00000000       0.00000000       0.00000000
C        4.45124806       8.48534745       9.50107339       0.00000000       0.00000000       0.00000000
N        5.17948943       8.08757783       2.57925014       0.00000000       0.00000000       0.00000000
N        0.74570422       4.98540658       8.81040809       0.00000000       0.00000000       0.00000000
N        1.26835623       5.22580199       3.18603406       0.00000000       0.00000000       0.00000000
N        5.74962501       8.19160068       9.64467830       0.00000000       0.00000000       0.00000000
N        3.41781934       0.84180006       2.98317799       0.00000000       0.00000000       0.00000000
N        7.96730119       3.63817379       9.52402296       0.00000000       0.00000000       0.00000000
N        8.48009890       3.73760007       2.40396534       0.00000000       0.00000000       0.00000000
N        3.85524442       0.58318112       8.75528141       0.00000000       0.00000000       0.00000000
H        5.42910949       1.01969946       4.01605096       0.00000000       0.00000000       0.00000000
H        0.76872010       3.56114168      10.29669863       0.00000000       0.00000000       0.00000000
H        8.29098140       5.34660285       3.84725248       0.00000000       0.00000000       0.00000000
H        3.83519934       7.98327309      10.41108189       0.00000000       0.00000000       0.00000000
H        6.04487938       8.16410194       2.59063259       0.00000000       0.00000000       0.00000000
H        1.64828835       5.09197500       8.79707271       0.00000000       0.00000000       0.00000000
H        1.69048746       5.69723477       3.79152547       0.00000000       0.00000000       0.00000000
H        6.13687744       7.48464821      10.15623893       0.00000000       0.00000000       0.00000000
H        4.66629218       7.75753620       1.60821441       0.00000000       0.00000000       0.00000000
H        0.19823470       5.51961383       8.16323585       0.00000000       0.00000000       0.00000000
H        1.75945938       4.64830030       2.27397349       0.00000000       0.00000000       0.00000000
H        6.31749471       8.46372884       8.76733328       0.00000000       0.00000000       0.00000000
H        2.69724926       0.42507535       2.43472558       0.00000000       0.00000000       0.00000000
H        7.22265949       3.94340965       8.79159454       0.00000000       0.00000000       0.00000000
H        0.01695369       3.43910986       1.57183702       0.00000000       0.00000000       0.00000000
H        4.41083241       1.08480944       8.03706496       0.00000000       0.00000000       0.00000000
H        2.93255468       1.37454935       3.63545963       0.00000000       0.00000000       0.00000000
H        7.45236499       2.96395043      10.08757901       0.00000000       0.00000000       0.00000000
H        7.40954042       3.68212309       2.50763607       0.00000000       0.00000000       0.00000000
H        2.88918124       0.71621695       8.98257704       0.00000000       0.00000000       0.00000000
Pb       4.47634594       4.35415407      12.63089152       0.00000000       0.00000000       0.00000000
Pb       8.98350231       0.01079179       6.14246960       0.00000000       0.00000000       0.00000000
Pb       8.96017076       8.75991620      12.58756874       0.00000000       0.00000000       0.00000000
Pb       4.52751611       4.52045779       6.01349044       0.00000000       0.00000000       0.00000000
I        7.16618830       5.97712914       6.54629529       0.00000000       0.00000000       0.00000000
I        8.63398410       8.71769876       2.95479401       0.00000000       0.00000000       0.00000000
I        6.34929786       1.58281459      12.38543715       0.00000000       0.00000000       0.00000000
I        1.84206881       2.57104406      12.74616355       0.00000000       0.00000000       0.00000000
I        2.03432435       2.71814716       5.92676773       0.00000000       0.00000000       0.00000000
I        2.69658137       7.16187775       5.93292660       0.00000000       0.00000000       0.00000000
I        7.15971324       6.09781185      12.25918909       0.00000000       0.00000000       0.00000000
I        6.55491459       1.85913931       6.45099235       0.00000000       0.00000000       0.00000000
I        4.12174809       4.24623139       9.31576677       0.00000000       0.00000000       0.00000000
I        0.38821297       0.09214216       9.61447839       0.00000000       0.00000000       0.00000000
I        2.77030738       7.03450663      12.77698345       0.00000000       0.00000000       0.00000000
I        4.97194105       4.54670077       2.96407061       0.00000000       0.00000000       0.00000000
48
Lattice="9.01938999317578 0.0 0.0 0.0 8.777767844565316 0.0 0.0 0.0 12.796186806294449" Properties=species:S:1:pos:R:3:momenta:R:3 config_id=O-FAPI3_al_global_rattle_18__global_rattle__sev-0.433__seed-parity phase=O-FAPI3 mode=active_learning seed=3081827767 seed_origin=parity seed_origin_config_id=O-FAPI3_parity_16__global_rattle__sev-0.6 parity_master_seed=20260810 new_master_seed source=O-FAPI3/CONTCAR formula=C4H20I12N8Pb4 natoms=48 fa_groups="_JSON [[0, 4, 8, 12, 16, 28, 20, 24], [1, 5, 9, 13, 17, 29, 21, 25], [2, 10, 6, 14, 30, 18, 26, 22], [3, 11, 7, 15, 31, 19, 27, 23]]" cell_A="_JSON [[9.0193899932, 0.0, 0.0], [0.0, 8.7777678446, 0.0], [0.0, 0.0, 12.7961868063]]" distortion_family=global_rattle distortion_severity=0.433 rattle_target=all rattle_sigma_A=0.09483329500000001 distortion_label=global_rattle minimum_distance_A=0.7270411210310779 minimum_pair_indices="_JSON [4, 16]" minimum_pair_symbols="_JSON [\"N\", \"H\"]" pbc="T T T"
C        4.55723764       0.39403016       3.04659893       0.00000000       0.00000000       0.00000000
C        0.03896334       3.95471005       9.57835961       0.00000000       0.00000000       0.00000000
C        8.81352114       4.65443920       3.01343484       0.00000000       0.00000000       0.00000000
C        4.64128660       8.37178085       9.49340047       0.00000000       0.00000000       0.00000000
N        5.33161357       8.12930000       2.46884660       0.00000000       0.00000000       0.00000000
N        0.53812473       5.18361571       8.85860055       0.00000000       0.00000000       0.00000000
N        1.09299911       5.11472253       3.24464496       0.00000000       0.00000000       0.00000000
N        5.87684119       8.05921875       9.43961761       0.00000000       0.00000000       0.00000000
N        3.25870744       0.70053316       3.02682248       0.00000000       0.00000000       0.00000000
N        7.74526871       3.73953857       9.41524928       0.00000000       0.00000000       0.00000000
N        8.28645425       3.77997907       2.33505376       0.00000000       0.00000000       0.00000000
N        3.81276093       0.70798544       8.94764099       0.00000000       0.00000000       0.00000000
H        5.17346291       0.84833850       3.98050561       0.00000000       0.00000000       0.00000000
H        0.78164134       3.45209283      10.26259025       0.00000000       0.00000000       0.00000000
H        8.34964851       5.22707890       3.93959610       0.00000000       0.00000000       0.00000000
H        3.65611306       7.97649401      10.09925995       0.00000000       0.00000000       0.00000000
H        6.03256132       7.94547973       2.52776311       0.00000000       0.00000000       0.00000000
H        1.76587240       5.07454083       8.97999858       0.00000000       0.00000000       0.00000000
H        1.38008778       5.71371493       3.59080347       0.00000000       0.00000000       0.00000000
H        6.12982943       7.42365384       9.99211059       0.00000000       0.00000000       0.00000000
H        4.48729313       7.72255794       1.70950214       0.00000000       0.00000000       0.00000000
H        0.11229004       5.36437336       8.21050080       0.00000000       0.00000000       0.00000000
H        1.88759073       4.54475420       2.43737251       0.00000000       0.00000000       0.00000000
H        6.21592833       8.37137133       8.73885572       0.00000000       0.00000000       0.00000000
H        2.56723526       0.47679822       2.37421014       0.00000000       0.00000000       0.00000000
H        7.27999285       4.04840604       8.73548115       0.00000000       0.00000000       0.00000000
H        8.86621965       3.30136699       1.68917561       0.00000000       0.00000000       0.00000000
H        4.26984578       1.07371834       8.02883500       0.00000000       0.00000000       0.00000000
H        2.96837634       1.37323317       3.74823035       0.00000000       0.00000000       0.00000000
H        7.53337630       2.90171178      10.24446589       0.00000000       0.00000000       0.00000000
H        7.27823593       3.61027327       2.52793222       0.00000000       0.00000000       0.00000000
H        2.98004571       0.74284488       8.87537428       0.00000000       0.00000000       0.00000000
Pb       4.77925792       4.32223604      12.38872014       0.00000000       0.00000000       0.00000000
Pb       8.94727774       0.26101717       5.97300102       0.00000000       0.00000000       0.00000000
Pb       8.94234381       8.75571398      12.56622063       0.00000000       0.00000000       0.00000000
Pb       4.42072807       4.39956988       6.24110641       0.00000000       0.00000000       0.00000000
I        7.15703641       6.18927932       6.21440899       0.00000000       0.00000000       0.00000000
I        8.74372074       8.59937132       3.04749640       0.00000000       0.00000000       0.00000000
I        6.52894496       1.72199775      12.28216640       0.00000000       0.00000000       0.00000000
I        1.76879021       2.68604281       0.00727913       0.00000000       0.00000000       0.00000000
I        1.96032876       2.65966245       6.09144385       0.00000000       0.00000000       0.00000000
I        2.65708755       7.12114934       5.93314397       0.00000000       0.00000000       0.00000000
I        7.12902575       5.92821782      12.25726680       0.00000000       0.00000000       0.00000000
I        6.41395595       1.88017265       6.51892871       0.00000000       0.00000000       0.00000000
I        4.02396124       4.39697008       9.22830663       0.00000000       0.00000000       0.00000000
I        0.30286822       0.09561287       9.43013419       0.00000000       0.00000000       0.00000000
I        2.78845507       6.99882569       0.20051982       0.00000000       0.00000000       0.00000000
I        4.87582725       4.54181494       3.07296303       0.00000000       0.00000000       0.00000000
48
Lattice="9.01938999317578 0.0 0.0 0.0 8.777767844565316 0.0 0.0 0.0 12.796186806294449" Properties=species:S:1:pos:R:3:momenta:R:3 config_id=O-FAPI3_al_global_rattle_19__global_rattle__sev-0.447__seed-new phase=O-FAPI3 mode=active_learning seed=1576694811 seed_origin=new seed_origin_config_id= parity_master_seed new_master_seed=20260901 source=O-FAPI3/CONTCAR formula=C4H20I12N8Pb4 natoms=48 fa_groups="_JSON [[0, 4, 8, 12, 16, 28, 20, 24], [1, 5, 9, 13, 17, 29, 21, 25], [2, 10, 6, 14, 30, 18, 26, 22], [3, 11, 7, 15, 31, 19, 27, 23]]" cell_A="_JSON [[9.0193899932, 0.0, 0.0], [0.0, 8.7777678446, 0.0], [0.0, 0.0, 12.7961868063]]" distortion_family=global_rattle distortion_severity=0.447 rattle_target=all rattle_sigma_A=0.096366705 distortion_label=global_rattle minimum_distance_A=0.8350017440159041 minimum_pair_indices="_JSON [6, 18]" minimum_pair_symbols="_JSON [\"N\", \"H\"]" pbc="T T T"
C        4.65369384       0.30826766       3.14052161       0.00000000       0.00000000       0.00000000
C        0.21391666       4.02666182       9.54145797       0.00000000       0.00000000       0.00000000
C        8.92895176       4.75923809       3.14167251       0.00000000       0.00000000       0.00000000
C        4.40033478       8.55586437       9.50560243       0.00000000       0.00000000       0.00000000
N        5.23218641       8.01285352       2.46426220       0.00000000       0.00000000       0.00000000
N        0.70337936       4.94506135       9.01628658       0.00000000       0.00000000       0.00000000
N        1.49149187       5.19719811       3.01722765       0.00000000       0.00000000       0.00000000
N        5.79063034       7.96491101       9.60878374       0.00000000       0.00000000       0.00000000
N        3.42817394       0.67495317       2.94547611       0.00000000       0.00000000       0.00000000
N        7.73623155       3.67299563       9.33093916       0.00000000       0.00000000       0.00000000
N        8.50076048       3.97839405       2.25153872       0.00000000       0.00000000       0.00000000
N        3.86943236       0.49113299       8.70128494       0.00000000       0.00000000       0.00000000
H        5.13703891       0.98102363       3.86979297       0.00000000       0.00000000       0.00000000
H        0.80986504       3.48259261      10.24025474       0.00000000       0.00000000       0.00000000
H        8.30702199       5.22558116       3.76141051       0.00000000       0.00000000       0.00000000
H        3.79176029       8.01102368      10.35672384       0.00000000       0.00000000       0.00000000
H        6.26151880       8.12270494       2.55731960       0.00000000       0.00000000       0.00000000
H        1.81335559       5.19457262       9.00012472       0.00000000       0.00000000       0.00000000
H        1.50325832       5.60760210       3.74431638       0.00000000       0.00000000       0.00000000
H        5.90728398       7.22203197      10.18744819       0.00000000       0.00000000       0.00000000
H        4.64802977       7.75040470       1.54890683       0.00000000       0.00000000       0.00000000
H        0.07000835       5.37460930       8.05113127       0.00000000       0.00000000       0.00000000
H        1.76039325       4.71054053       2.28653019       0.00000000       0.00000000       0.00000000
H        6.35685438       8.41869651       9.02355573       0.00000000       0.00000000       0.00000000
H        2.65153356       0.13500087       2.42423195       0.00000000       0.00000000       0.00000000
H        7.01663762       3.95541366       8.60182431       0.00000000       0.00000000       0.00000000
H        8.96185797       3.35826581       1.40284121       0.00000000       0.00000000       0.00000000
H        4.30861073       1.07958906       7.95899366       0.00000000       0.00000000       0.00000000
H        2.98773488       1.36559393       3.81551474       0.00000000       0.00000000       0.00000000
H        7.47185540       2.99189977      10.10249292       0.00000000       0.00000000       0.00000000
H        7.30950252       3.64080682       2.65824413       0.00000000       0.00000000       0.00000000
H        2.98977195       0.59767132       8.99782279       0.00000000       0.00000000       0.00000000
Pb       4.61977611       4.39754773      12.61649013       0.00000000       0.00000000       0.00000000
Pb       0.02156726       0.11883893       6.22750394       0.00000000       0.00000000       0.00000000
Pb       8.94257474       8.49538371      12.40101120       0.00000000       0.00000000       0.00000000
Pb       4.56529221       4.41315825       6.07466700       0.00000000       0.00000000       0.00000000
I        6.99156076       6.09159210       6.40943238       0.00000000       0.00000000       0.00000000
I        8.55312132       8.73432602       2.97019861       0.00000000       0.00000000       0.00000000
I        6.29032799       1.81867531      12.29409073       0.00000000       0.00000000       0.00000000
I        1.79465991       2.36744173      12.59953573       0.00000000       0.00000000       0.00000000
I        1.94255267       2.58979373       6.02167876       0.00000000       0.00000000       0.00000000
I        2.66478987       7.21830137       5.90041662       0.00000000       0.00000000       0.00000000
I        7.05186246       6.08222286      12.25161679       0.00000000       0.00000000       0.00000000
I        6.35550799       1.85213415       6.41158036       0.00000000       0.00000000       0.00000000
I        4.17413432       4.56388169       9.42260316       0.00000000       0.00000000       0.00000000
I        0.27835326       0.00517672       9.17871193       0.00000000       0.00000000       0.00000000
I        2.49421460       6.83250912       0.01610239       0.00000000       0.00000000       0.00000000
I        4.95870516       4.41549559       2.90723447       0.00000000       0.00000000       0.00000000
48
Lattice="9.01938999317578 0.0 0.0 0.0 8.777767844565316 0.0 0.0 0.0 12.796186806294449" Properties=species:S:1:pos:R:3:momenta:R:3 config_id=O-FAPI3_al_global_rattle_20__global_rattle__sev-0.460__seed-new phase=O-FAPI3 mode=active_learning seed=4111103319 seed_origin=new seed_origin_config_id= parity_master_seed new_master_seed=20260901 source=O-FAPI3/CONTCAR formula=C4H20I12N8Pb4 natoms=48 fa_groups="_JSON [[0, 4, 8, 12, 16, 28, 20, 24], [1, 5, 9, 13, 17, 29, 21, 25], [2, 10, 6, 14, 30, 18, 26, 22], [3, 11, 7, 15, 31, 19, 27, 23]]" cell_A="_JSON [[9.0193899932, 0.0, 0.0], [0.0, 8.7777678446, 0.0], [0.0, 0.0, 12.7961868063]]" distortion_family=global_rattle distortion_severity=0.46 rattle_target=all rattle_sigma_A=0.0979 distortion_label=global_rattle minimum_distance_A=0.8141767213348495 minimum_pair_indices="_JSON [11, 27]" minimum_pair_symbols="_JSON [\"N\", \"H\"]" pbc="T T T"
C        4.67932668       0.53830474       3.07354677       0.00000000       0.00000000       0.00000000
C        0.01724620       4.07617727       9.50112445       0.00000000       0.00000000       0.00000000
C        0.05663439       4.78118223       3.42257066       0.00000000       0.00000000       0.00000000
C        4.58376247       8.29255889       9.49683314       0.00000000       0.00000000       0.00000000
N        5.14754776       8.16173706       2.45483624       0.00000000       0.00000000       0.00000000
N        0.63210343       4.88382885       8.90589294       0.00000000       0.00000000       0.00000000
N        1.04523812       5.01229478       3.06000896       0.00000000       0.00000000       0.00000000
N        5.63451344       8.01118176       9.53189576       0.00000000       0.00000000       0.00000000
N        3.20598737       0.76310024       3.18994308       0.00000000       0.00000000       0.00000000
N        7.84821126       3.91062495       9.47401112       0.00000000       0.00000000       0.00000000
N        8.50087218       3.78108909       2.42924495       0.00000000       0.00000000       0.00000000
N        3.83002887       0.73995127       8.88646126       0.00000000       0.00000000       0.00000000
H        5.21699967       0.75025808       3.85110033       0.00000000       0.00000000       0.00000000
H        0.81884969       3.68449174      10.34959913       0.00000000       0.00000000       0.00000000
H        8.37478097       5.20794326       3.92315279       0.00000000       0.00000000       0.00000000
H        3.81005756       7.82114438      10.44294870       0.00000000       0.00000000       0.00000000
H        6.26760643       8.21957638       2.50519084       0.00000000       0.00000000       0.00000000
H        1.82193562       5.23364516       8.85502425       0.00000000       0.00000000       0.00000000
H        1.67223599       5.79764893       3.65160244       0.00000000       0.00000000       0.00000000
H        6.05542068       7.31494894      10.02303804       0.00000000       0.00000000       0.00000000
H        4.77598691       7.67481458       1.73028733       0.00000000       0.00000000       0.00000000
H        0.10938950       5.46196068       8.08658006       0.00000000       0.00000000       0.00000000
H        1.71393673       4.58106456       2.34307686       0.00000000       0.00000000       0.00000000
H        6.37464375       8.47664751       8.81159796       0.00000000       0.00000000       0.00000000
H        2.62915518       0.32880895       2.41474188       0.00000000       0.00000000       0.00000000
H        7.14637209       3.96848012       8.85588247       0.00000000       0.00000000       0.00000000
H        8.97558516       3.49265685       1.59726360       0.00000000       0.00000000       0.00000000
H        4.18744298       0.99591361       8.20117142       0.00000000       0.00000000       0.00000000
H        2.79945058       1.32065973       3.66084214       0.00000000       0.00000000       0.00000000
H        7.46090964       2.92394552      10.34249997       0.00000000       0.00000000       0.00000000
H        7.37325173       3.69389789       2.54622035       0.00000000       0.00000000       0.00000000
H        2.72919939       0.74930062       9.04855519       0.00000000       0.00000000       0.00000000
Pb       4.62058427       4.35410569      12.54370810       0.00000000       0.00000000       0.00000000
Pb       9.00333324       0.02868737       6.08717799       0.00000000       0.00000000       0.00000000
Pb       8.96165932       8.55732834      12.56091048       0.00000000       0.00000000       0.00000000
Pb       4.61569967       4.47087829       6.27358625       0.00000000       0.00000000       0.00000000
I        7.25314868       6.05914531       6.36409951       0.00000000       0.00000000       0.00000000
I        8.87751101       8.66317846       2.87153218       0.00000000       0.00000000       0.00000000
I        6.34821777       1.64743455      12.41426003       0.00000000       0.00000000       0.00000000
I        1.81484302       2.46287831       0.02728411       0.00000000       0.00000000       0.00000000
I        1.82948181       2.79282123       5.86976056       0.00000000       0.00000000       0.00000000
I        2.63527126       6.87716773       5.89942598       0.00000000       0.00000000       0.00000000
I        7.28339483       6.16322805      12.32993650       0.00000000       0.00000000       0.00000000
I        6.24451267       1.76341239       6.39184724       0.00000000       0.00000000       0.00000000
I        4.17599811       4.32260813       9.32288118       0.00000000       0.00000000       0.00000000
I        0.56814214       0.04561493       9.47877789       0.00000000       0.00000000       0.00000000
I        2.79634754       6.85341820       0.22242549       0.00000000       0.00000000       0.00000000
I        4.89432310       4.29955554       2.88409869       0.00000000       0.00000000       0.00000000
48
Lattice="9.01938999317578 0.0 0.0 0.0 8.777767844565316 0.0 0.0 0.0 12.796186806294449" Properties=species:S:1:pos:R:3:momenta:R:3 config_id=O-FAPI3_al_global_rattle_21__global_rattle__sev-0.473__seed-new phase=O-FAPI3 mode=active_learning seed=2951562092 seed_origin=new seed_origin_config_id= parity_master_seed new_master_seed=20260901 source=O-FAPI3/CONTCAR formula=C4H20I12N8Pb4 natoms=48 fa_groups="_JSON [[0, 4, 8, 12, 16, 28, 20, 24], [1, 5, 9, 13, 17, 29, 21, 25], [2, 10, 6, 14, 30, 18, 26, 22], [3, 11, 7, 15, 31, 19, 27, 23]]" cell_A="_JSON [[9.0193899932, 0.0, 0.0], [0.0, 8.7777678446, 0.0], [0.0, 0.0, 12.7961868063]]" distortion_family=global_rattle distortion_severity=0.473 rattle_target=all rattle_sigma_A=0.099433295 distortion_label=global_rattle minimum_distance_A=0.7991556441244001 minimum_pair_indices="_JSON [10, 30]" minimum_pair_symbols="_JSON [\"N\", \"H\"]" pbc="T T T"
C        4.69305319       0.16091755       3.16000106       0.00000000       0.00000000       0.00000000
C        0.09823710       4.04509057       9.57336329       0.00000000       0.00000000       0.00000000
C        8.99308743       4.77328680       3.28390674       0.00000000       0.00000000       0.00000000
C        4.39176318       8.33101952       9.49795842       0.00000000       0.00000000       0.00000000
N        5.22290608       8.22236276       2.52272340       0.00000000       0.00000000       0.00000000
N        0.72142395       4.95034192       8.89775359       0.00000000       0.00000000       0.00000000
N        1.23816726       5.09590857       3.16202367       0.00000000       0.00000000       0.00000000
N        5.69943804       8.11794468       9.40183186       0.00000000       0.00000000       0.00000000
N        3.28212987       0.76821173       2.94896665       0.00000000       0.00000000       0.00000000
N        7.87489395       3.72559911       9.41285790       0.00000000       0.00000000       0.00000000
N        8.11475500       3.90746774       2.45024459       0.00000000       0.00000000       0.00000000
N        3.80545949       0.57676210       8.76296502       0.00000000       0.00000000       0.00000000
H        5.32433194       0.92820047       3.91451001       0.00000000       0.00000000       0.00000000
H        0.70655893       3.45542486      10.25980557       0.00000000       0.00000000       0.00000000
H        8.28987213       5.32937316       3.96198319       0.00000000       0.00000000       0.00000000
H        3.81855462       7.85780805      10.21223886       0.00000000       0.00000000       0.00000000
H        6.12354175       7.88760330       2.40621234       0.00000000       0.00000000       0.00000000
H        1.53781367       5.00854817       8.76908706       0.00000000       0.00000000       0.00000000
H        1.53687396       5.76203472       3.66221039       0.00000000       0.00000000       0.00000000
H        6.00749953       7.40025110      10.13710657       0.00000000       0.00000000       0.00000000
H        4.67247816       7.67025656       1.75105364       0.00000000       0.00000000       0.00000000
H        0.23838832       5.27098736       7.88250728       0.00000000       0.00000000       0.00000000
H        1.64465584       4.66441024       2.13653255       0.00000000       0.00000000       0.00000000
H        6.57850389       8.35457438       8.88696225       0.00000000       0.00000000       0.00000000
H        2.49589502       0.21487006       2.28601707       0.00000000       0.00000000       0.00000000
H        7.16767463       4.12491380       8.93742111       0.00000000       0.00000000       0.00000000
H        8.87396998       3.45054708       1.45389721       0.00000000       0.00000000       0.00000000
H        4.23768602       1.02580278       7.85600043       0.00000000       0.00000000       0.00000000
H        2.91933180       1.35911227       3.68026565       0.00000000       0.00000000       0.00000000
H        7.57008211       3.01974035      10.04573997       0.00000000       0.00000000       0.00000000
H        7.40075055       3.55624830       2.52435456       0.00000000       0.00000000       0.00000000
H        2.86052456       0.64263209       8.96286734       0.00000000       0.00000000       0.00000000
Pb       4.50511594       4.30724852      12.46601061       0.00000000       0.00000000       0.00000000
Pb       0.05703965       0.02695706       6.12518648       0.00000000       0.00000000       0.00000000
Pb       0.00154149       8.64222823      12.59246775       0.00000000       0.00000000       0.00000000
Pb       4.45788198       4.67789985       6.17801726       0.00000000       0.00000000       0.00000000
I        7.14457284       6.32990888       6.50184116       0.00000000       0.00000000       0.00000000
I        8.77106320       0.09546488       2.95545110       0.00000000       0.00000000       0.00000000
I        6.36295174       1.59350897      12.24371514       0.00000000       0.00000000       0.00000000
I        1.84028849       2.69976944      12.78276173       0.00000000       0.00000000       0.00000000
I        1.76808062       2.57965307       5.79828383       0.00000000       0.00000000       0.00000000
I        2.69315789       7.16995780       5.87610292       0.00000000       0.00000000       0.00000000
I        7.11886602       6.08979122      12.18119373       0.00000000       0.00000000       0.00000000
I        6.35720601       1.80792595       6.46424904       0.00000000       0.00000000       0.00000000
I        4.11189324       4.40905433       9.25157584       0.00000000       0.00000000       0.00000000
I        0.41491623       0.09582750       9.41011468       0.00000000       0.00000000       0.00000000
I        2.52758647       6.85783435       0.07247638       0.00000000       0.00000000       0.00000000
I        4.97208961       4.39892279       2.84356174       0.00000000       0.00000000       0.00000000
48
Lattice="9.01938999317578 0.0 0.0 0.0 8.777767844565316 0.0 0.0 0.0 12.796186806294449" Properties=species:S:1:pos:R:3:momenta:R:3 config_id=O-FAPI3_al_global_rattle_22__global_rattle__sev-0.487__seed-new phase=O-FAPI3 mode=active_learning seed=2136075623 seed_origin=new seed_origin_config_id= parity_master_seed new_master_seed=20260901 source=O-FAPI3/CONTCAR formula=C4H20I12N8Pb4 natoms=48 fa_groups="_JSON [[0, 4, 8, 12, 16, 28, 20, 24], [1, 5, 9, 13, 17, 29, 21, 25], [2, 10, 6, 14, 30, 18, 26, 22], [3, 11, 7, 15, 31, 19, 27, 23]]" cell_A="_JSON [[9.0193899932, 0.0, 0.0], [0.0, 8.7777678446, 0.0], [0.0, 0.0, 12.7961868063]]" distortion_family=global_rattle distortion_severity=0.487 rattle_target=all rattle_sigma_A=0.100966705 distortion_label=global_rattle minimum_distance_A=0.8855390155408078 minimum_pair_indices="_JSON [4, 16]" minimum_pair_symbols="_JSON [\"N\", \"H\"]" pbc="T T T"
C        4.62968632       0.27940233       3.10519227       0.00000000       0.00000000       0.00000000
C        0.09257061       4.01616581       9.38772142       0.00000000       0.00000000       0.00000000
C        8.84454187       4.87517161       3.14931922       0.00000000       0.00000000       0.00000000
C        4.33164740       8.43924603       9.65037668       0.00000000       0.00000000       0.00000000
N        5.26730563       8.23023830       2.45271310       0.00000000       0.00000000       0.00000000
N        0.66967400       5.10544181       8.80549286       0.00000000       0.00000000       0.00000000
N        1.30867910       5.04019879       3.08288993       0.00000000       0.00000000       0.00000000
N        5.78099962       8.18236558       9.43717331       0.00000000       0.00000000       0.00000000
N        3.33695099       0.57196112       3.16990909       0.00000000       0.00000000       0.00000000
N        7.84266137       3.70088346       9.55043246       0.00000000       0.00000000       0.00000000
N        8.28004281       3.87098269       2.34816786       0.00000000       0.00000000       0.00000000
N        3.95081761       0.73729800       8.79974015       0.00000000       0.00000000       0.00000000
H        5.03445603       0.58467341       4.13753759       0.00000000       0.00000000       0.00000000
H        0.62621683       3.58889859      10.28589896       0.00000000       0.00000000       0.00000000
H        8.40811319       5.05328435       3.96181297       0.00000000       0.00000000       0.00000000
H        3.87394696       7.91959297      10.38140730       0.00000000       0.00000000       0.00000000
H        6.13750900       8.19374623       2.61269360       0.00000000       0.00000000       0.00000000
H        1.56415107       5.18136553       8.97448096       0.00000000       0.00000000       0.00000000
H        1.51688607       5.73431674       3.73992820       0.00000000       0.00000000       0.00000000
H        6.07090884       7.46176321       9.97380376       0.00000000       0.00000000       0.00000000
H        4.53972226       7.70099257       1.74526039       0.00000000       0.00000000       0.00000000
H        0.04094057       5.43171523       8.12686827       0.00000000       0.00000000       0.00000000
H        1.89294865       4.79887034       2.35968776       0.00000000       0.00000000       0.00000000
H        6.42280631       8.36835166       8.58520954       0.00000000       0.00000000       0.00000000
H        2.39214777       0.62969350       2.38700149       0.00000000       0.00000000       0.00000000
H        7.36402360       4.04120260       8.81966958       0.00000000       0.00000000       0.00000000
H        8.78701715       3.32698254       1.69669826       0.00000000       0.00000000       0.00000000
H        4.53989788       0.93584042       8.10342457       0.00000000       0.00000000       0.00000000
H        2.85608131       1.46133339       3.51712352       0.00000000       0.00000000       0.00000000
H        7.48949815       2.94511437      10.14226036       0.00000000       0.00000000       0.00000000
H        7.34578314       3.77964150       2.45300710       0.00000000       0.00000000       0.00000000
H        2.81021282       0.56651512       9.02770273       0.00000000       0.00000000       0.00000000
Pb       4.66977470       4.32604183      12.51607602       0.00000000       0.00000000       0.00000000
Pb       0.00272629       8.74582522       6.23613668       0.00000000       0.00000000       0.00000000
Pb       8.84030308       0.00887313      12.46551211       0.00000000       0.00000000       0.00000000
Pb       4.46938100       4.45491888       6.13762211       0.00000000       0.00000000       0.00000000
I        7.13409059       6.32320796       6.35260140       0.00000000       0.00000000       0.00000000
I        8.76942711       8.75333192       2.78032985       0.00000000       0.00000000       0.00000000
I        6.32887841       1.54584917      12.26686124       0.00000000       0.00000000       0.00000000
I        1.97468461       2.42102314      12.70770478       0.00000000       0.00000000       0.00000000
I        1.96059443       2.47664042       6.07988030       0.00000000       0.00000000       0.00000000
I        2.58546503       7.12335602       5.72466909       0.00000000       0.00000000       0.00000000
I        7.15083393       5.99466935      12.53736368       0.00000000       0.00000000       0.00000000
I        6.33902629       1.87880878       6.53237370       0.00000000       0.00000000       0.00000000
I        4.28343217       4.27599938       9.32616819       0.00000000       0.00000000       0.00000000
I        0.44123911       0.05032295       9.23624482       0.00000000       0.00000000       0.00000000
I        2.60396617       6.94248169       0.02091357       0.00000000       0.00000000       0.00000000
I        4.88938899       4.27997082       2.99848472       0.00000000       0.00000000       0.00000000
48
Lattice="9.01938999317578 0.0 0.0 0.0 8.777767844565316 0.0 0.0 0.0 12.796186806294449" Properties=species:S:1:pos:R:3:momenta:R:3 config_id=O-FAPI3_al_global_rattle_23__global_rattle__sev-0.500__seed-parity phase=O-FAPI3 mode=active_learning seed=3391614287 seed_origin=parity seed_origin_config_id=O-FAPI3_parity_18__global_rattle__sev-0.8 parity_master_seed=20260810 new_master_seed source=O-FAPI3/CONTCAR formula=C4H20I12N8Pb4 natoms=48 fa_groups="_JSON [[0, 4, 8, 12, 16, 28, 20, 24], [1, 5, 9, 13, 17, 29, 21, 25], [2, 10, 6, 14, 30, 18, 26, 22], [3, 11, 7, 15, 31, 19, 27, 23]]" cell_A="_JSON [[9.0193899932, 0.0, 0.0], [0.0, 8.7777678446, 0.0], [0.0, 0.0, 12.7961868063]]" distortion_family=global_rattle distortion_severity=0.5 rattle_target=all rattle_sigma_A=0.10250000000000001 distortion_label=global_rattle minimum_distance_A=0.8131527012257331 minimum_pair_indices="_JSON [7, 23]" minimum_pair_symbols="_JSON [\"N\", \"H\"]" pbc="T T T"
C        4.41959969       0.42604914       3.27814241       0.00000000       0.00000000       0.00000000
C        0.19735622       4.04956860       9.69596049       0.00000000       0.00000000       0.00000000
C        8.98510631       4.58897836       3.19450849       0.00000000       0.00000000       0.00000000
C        4.53692603       8.42343854       9.49820396       0.00000000       0.00000000       0.00000000
N        5.04204387       8.12612031       2.34400905       0.00000000       0.00000000       0.00000000
N        0.55998416       5.18536169       8.83079662       0.00000000       0.00000000       0.00000000
N        1.25218343       5.18081255       3.07752654       0.00000000       0.00000000       0.00000000
N        5.83788937       8.04443047       9.33451465       0.00000000       0.00000000       0.00000000
N        3.46542973       0.61048836       3.08817182       0.00000000       0.00000000       0.00000000
N        7.73272607       3.73626039       9.38173620       0.00000000       0.00000000       0.00000000
N        8.36764463       3.86646646       2.49234646       0.00000000       0.00000000       0.00000000
N        4.12672585       0.60527800       9.04304808       0.00000000       0.00000000       0.00000000
H        5.18889305       0.80566914       4.04024285       0.00000000       0.00000000       0.00000000
H        0.85505367       3.40052895      10.40662821       0.00000000       0.00000000       0.00000000
H        8.24533983       5.41463103       3.89750273       0.00000000       0.00000000       0.00000000
H        3.89202414       7.73130501      10.33920655       0.00000000       0.00000000       0.00000000
H        6.25469058       7.95705739       2.55841200       0.00000000       0.00000000       0.00000000
H        1.51290622       5.16571644       8.94876083       0.00000000       0.00000000       0.00000000
H        1.54179189       5.84959266       3.52411822       0.00000000       0.00000000       0.00000000
H        6.04725440       7.40264990      10.06877233       0.00000000       0.00000000       0.00000000
H        4.80821969       7.81923271       1.58274244       0.00000000       0.00000000       0.00000000
H        0.25823491       5.41154103       8.10094672       0.00000000       0.00000000       0.00000000
H        1.74384029       4.59207161       2.54666961       0.00000000       0.00000000       0.00000000
H        6.20876375       8.51104360       8.78139468       0.00000000       0.00000000       0.00000000
H        2.74184042       0.34450770       2.48414604       0.00000000       0.00000000       0.00000000
H        7.12045263       4.19949300       8.89719627       0.00000000       0.00000000       0.00000000
H        8.85841544       3.41435731       1.64514750       0.00000000       0.00000000       0.00000000
H        4.48250887       1.05894958       7.94665131       0.00000000       0.00000000       0.00000000
H        2.93162563       1.48964989       3.72118329       0.00000000       0.00000000       0.00000000
H        7.45258428       3.09814629       9.92838113       0.00000000       0.00000000       0.00000000
H        7.29982688       3.69887427       2.46572197       0.00000000       0.00000000       0.00000000
H        3.00118714       0.72716443       8.87149888       0.00000000       0.00000000       0.00000000
Pb       4.37830028       4.26506791      12.54426564       0.00000000       0.00000000       0.00000000
Pb       8.72961290       0.15616323       6.26556277       0.00000000       0.00000000       0.00000000
Pb       8.92239196       8.57191696      12.60506740       0.00000000       0.00000000       0.00000000
Pb       4.27963939       4.40697846       6.27561800       0.00000000       0.00000000       0.00000000
I        7.21538282       6.21320785       6.47399368       0.00000000       0.00000000       0.00000000
I        8.75198083       8.71912478       2.88115478       0.00000000       0.00000000       0.00000000
I        6.41029556       1.81868069      12.40455171       0.00000000       0.00000000       0.00000000
I        1.77679710       2.54659262      12.74871088       0.00000000       0.00000000       0.00000000
I        1.94560132       2.56988742       5.68809325       0.00000000       0.00000000       0.00000000
I        2.71081313       7.12978465       6.04205888       0.00000000       0.00000000       0.00000000
I        7.12033164       6.06821903      12.24371896       0.00000000       0.00000000       0.00000000
I        6.20920513       1.89852024       6.52520243       0.00000000       0.00000000       0.00000000
I        4.33620114       4.38836312       9.25449853       0.00000000       0.00000000       0.00000000
I        0.42753586       0.06938258       9.43275626       0.00000000       0.00000000       0.00000000
I        2.84849865       6.91101410       0.12181020       0.00000000       0.00000000       0.00000000
I        4.62999525       4.39832946       2.94977910       0.00000000       0.00000000       0.00000000
48
Lattice="9.01938999317578 0.0 0.0 0.0 8.777767844565316 0.0 0.0 0.0 12.796186806294449" Properties=species:S:1:pos:R:3:momenta:R:3 config_id=O-FAPI3_al_global_rattle_24__global_rattle__sev-0.513__seed-new phase=O-FAPI3 mode=active_learning seed=3366644633 seed_origin=new seed_origin_config_id= parity_master_seed new_master_seed=20260901 source=O-FAPI3/CONTCAR formula=C4H20I12N8Pb4 natoms=48 fa_groups="_JSON [[0, 4, 8, 12, 16, 28, 20, 24], [1, 5, 9, 13, 17, 29, 21, 25], [2, 10, 6, 14, 30, 18, 26, 22], [3, 11, 7, 15, 31, 19, 27, 23]]" cell_A="_JSON [[9.0193899932, 0.0, 0.0], [0.0, 8.7777678446, 0.0], [0.0, 0.0, 12.7961868063]]" distortion_family=global_rattle distortion_severity=0.513 rattle_target=all rattle_sigma_A=0.104033295 distortion_label=global_rattle minimum_distance_A=0.7182915532971349 minimum_pair_indices="_JSON [8, 24]" minimum_pair_symbols="_JSON [\"N\", \"H\"]" pbc="T T T"
C        4.45018666       0.33266815       3.04015456       0.00000000       0.00000000       0.00000000
C        0.14934950       4.12119450       9.67963740       0.00000000       0.00000000       0.00000000
C        8.92034379       4.77832575       3.21448713       0.00000000       0.00000000       0.00000000
C        4.35027185       8.40796927       9.56750089       0.00000000       0.00000000       0.00000000
N        5.10665065       8.31371586       2.51341770       0.00000000       0.00000000       0.00000000
N        0.60032866       4.99502461       8.79135579       0.00000000       0.00000000       0.00000000
N        1.19670859       5.03281171       3.00453477       0.00000000       0.00000000       0.00000000
N        5.88377568       8.05991615       9.51878744       0.00000000       0.00000000       0.00000000
N        3.19208973       0.50587901       2.93638753       0.00000000       0.00000000       0.00000000
N        7.83710893       3.80659416       9.54864795       0.00000000       0.00000000       0.00000000
N        8.22409337       3.85587394       2.25822459       0.00000000       0.00000000       0.00000000
N        4.02329554       0.60845115       8.62467474       0.00000000       0.00000000       0.00000000
H        5.11890957       0.89210837       3.89347883       0.00000000       0.00000000       0.00000000
H        0.71543227       3.62569237      10.35664632       0.00000000       0.00000000       0.00000000
H        8.30481200       5.25897759       4.05136152       0.00000000       0.00000000       0.00000000
H        3.76867566       7.99662338      10.45227051       0.00000000       0.00000000       0.00000000
H        6.13169117       7.93929462       2.27637086       0.00000000       0.00000000       0.00000000
H        1.62865732       5.04558443       9.01726524       0.00000000       0.00000000       0.00000000
H        1.41068386       5.85409825       3.90507427       0.00000000       0.00000000       0.00000000
H        5.94260366       7.15797081      10.04968661       0.00000000       0.00000000       0.00000000
H        4.79300199       7.67043744       1.71463408       0.00000000       0.00000000       0.00000000
H        0.13895631       5.39476170       8.13636291       0.00000000       0.00000000       0.00000000
H        2.01049092       4.53812224       2.23147647       0.00000000       0.00000000       0.00000000
H        6.37027715       8.54123272       8.68733941       0.00000000       0.00000000       0.00000000
H        2.65621676       0.33325701       2.49031067       0.00000000       0.00000000       0.00000000
H        7.22205043       4.15482659       8.88641772       0.00000000       0.00000000       0.00000000
H        8.86926525       3.44749735       1.53196712       0.00000000       0.00000000       0.00000000
H        4.58479509       0.95865983       7.98370399       0.00000000       0.00000000       0.00000000
H        3.02202281       1.35304318       3.53116377       0.00000000       0.00000000       0.00000000
H        7.41832792       2.99707096      10.20226003       0.00000000       0.00000000       0.00000000
H        7.36908441       3.60411540       2.37187507       0.00000000       0.00000000       0.00000000
H        2.80341172       0.68069915       9.09878918       0.00000000       0.00000000       0.00000000
Pb       4.59704112       4.42760258      12.57647600       0.00000000       0.00000000       0.00000000
Pb       0.04441492       0.27337918       6.27218819       0.00000000       0.00000000       0.00000000
Pb       0.13724147       8.50494269      12.56087352       0.00000000       0.00000000       0.00000000
Pb       4.60153331       4.58266674       6.31158459       0.00000000       0.00000000       0.00000000
I        7.23997600       6.23040300       6.60874976       0.00000000       0.00000000       0.00000000
I        8.62855943       8.71779492       2.90100653       0.00000000       0.00000000       0.00000000
I        6.35223832       1.98090466      12.36263224       0.00000000       0.00000000       0.00000000
I        2.04612867       2.55893042       0.09191087       0.00000000       0.00000000       0.00000000
I        1.88400359       2.50599880       5.92826864       0.00000000       0.00000000       0.00000000
I        2.72043048       6.98417678       5.76871738       0.00000000       0.00000000       0.00000000
I        7.14313197       6.03650054      12.38095281       0.00000000       0.00000000       0.00000000
I        6.34643902       1.79656023       6.45661283       0.00000000       0.00000000       0.00000000
I        4.14487967       4.39506957       9.50248799       0.00000000       0.00000000       0.00000000
I        0.36897321       8.72123856       9.29146651       0.00000000       0.00000000       0.00000000
I        2.67267692       6.86676783       0.10006291       0.00000000       0.00000000       0.00000000
I        4.84451544       4.22472303       2.94891501       0.00000000       0.00000000       0.00000000
48
Lattice="9.01938999317578 0.0 0.0 0.0 8.777767844565316 0.0 0.0 0.0 12.796186806294449" Properties=species:S:1:pos:R:3:momenta:R:3 config_id=O-FAPI3_al_global_rattle_25__global_rattle__sev-0.527__seed-new phase=O-FAPI3 mode=active_learning seed=2321733110 seed_origin=new seed_origin_config_id= parity_master_seed new_master_seed=20260901 source=O-FAPI3/CONTCAR formula=C4H20I12N8Pb4 natoms=48 fa_groups="_JSON [[0, 4, 8, 12, 16, 28, 20, 24], [1, 5, 9, 13, 17, 29, 21, 25], [2, 10, 6, 14, 30, 18, 26, 22], [3, 11, 7, 15, 31, 19, 27, 23]]" cell_A="_JSON [[9.0193899932, 0.0, 0.0], [0.0, 8.7777678446, 0.0], [0.0, 0.0, 12.7961868063]]" distortion_family=global_rattle distortion_severity=0.527 rattle_target=all rattle_sigma_A=0.10556670500000001 distortion_label=global_rattle minimum_distance_A=0.699202869319772 minimum_pair_indices="_JSON [7, 19]" minimum_pair_symbols="_JSON [\"N\", \"H\"]" pbc="T T T"
C        4.45610500       0.30489537       3.17619031       0.00000000       0.00000000       0.00000000
C        0.02471895       4.12255762       9.53158926       0.00000000       0.00000000       0.00000000
C        8.96460230       4.74361986       3.13917251       0.00000000       0.00000000       0.00000000
C        4.30136647       8.44898043       9.53316036       0.00000000       0.00000000       0.00000000
N        5.18044937       8.25223723       2.43632478       0.00000000       0.00000000       0.00000000
N        0.65498109       4.59603288       8.88306416       0.00000000       0.00000000       0.00000000
N        1.20794960       5.22682725       3.02318622       0.00000000       0.00000000       0.00000000
N        5.77395271       7.86316441       9.57240904       0.00000000       0.00000000       0.00000000
N        3.31638939       0.88995015       3.03544578       0.00000000       0.00000000       0.00000000
N        7.80370263       3.83224327       9.23241445       0.00000000       0.00000000       0.00000000
N        8.40991327       3.91113411       2.28229299       0.00000000       0.00000000       0.00000000
N        3.88181854       0.64382066       8.99200656       0.00000000       0.00000000       0.00000000
H        5.19782380       0.67167983       3.86107006       0.00000000       0.00000000       0.00000000
H        0.56630612       3.60020280      10.03672048       0.00000000       0.00000000       0.00000000
H        8.40592471       5.32750144       3.97145022       0.00000000       0.00000000       0.00000000
H        3.65563008       7.88197495      10.12914650       0.00000000       0.00000000       0.00000000
H        6.17885923       8.01932388       2.51952041       0.00000000       0.00000000       0.00000000
H        1.58521112       5.18794714       8.86454567       0.00000000       0.00000000       0.00000000
H        1.37669291       5.88831697       3.54841382       0.00000000       0.00000000       0.00000000
H        5.94455760       7.45247212      10.11195558       0.00000000       0.00000000       0.00000000
H        4.67213445       7.77056131       1.55973748       0.00000000       0.00000000       0.00000000
H        0.27244535       5.32529815       8.13713320       0.00000000       0.00000000       0.00000000
H        1.95077759       4.82502764       2.09351835       0.00000000       0.00000000       0.00000000
H        6.31890226       8.41371993       8.75652005       0.00000000       0.00000000       0.00000000
H        2.95852369       0.29339136       2.39368691       0.00000000       0.00000000       0.00000000
H        7.11914963       4.27337881       8.91511164       0.00000000       0.00000000       0.00000000
H        8.72376712       3.33364784       1.75742942       0.00000000       0.00000000       0.00000000
H        4.43593999       1.01814299       8.41832394       0.00000000       0.00000000       0.00000000
H        2.97343660       1.36501757       3.73114619       0.00000000       0.00000000       0.00000000
H        7.34358503       2.97574237      10.28384087       0.00000000       0.00000000       0.00000000
H        7.36057610       3.71007239       2.46568146       0.00000000       0.00000000       0.00000000
H        2.82160211       0.61903541       9.04434705       0.00000000       0.00000000       0.00000000
Pb       4.75147155       4.25717362      12.74302511       0.00000000       0.00000000       0.00000000
Pb       0.00360265       0.05222151       6.32538845       0.00000000       0.00000000       0.00000000
Pb       0.11339681       8.40316477      12.55518141       0.00000000       0.00000000       0.00000000
Pb       4.44110056       4.46409669       6.11412448       0.00000000       0.00000000       0.00000000
I        7.30358965       6.31438193       6.62397361       0.00000000       0.00000000       0.00000000
I        8.75307897       8.71221437       3.00546178       0.00000000       0.00000000       0.00000000
I        6.50515752       1.99033512      12.29381023       0.00000000       0.00000000       0.00000000
I        2.04780214       2.70254828       0.37161334       0.00000000       0.00000000       0.00000000
I        1.96431862       2.69401354       5.72538768       0.00000000       0.00000000       0.00000000
I        2.62975974       7.20009271       5.92508692       0.00000000       0.00000000       0.00000000
I        7.12603035       6.03092707      12.31927132       0.00000000       0.00000000       0.00000000
I        6.37329546       1.96409634       6.59543967       0.00000000       0.00000000       0.00000000
I        3.99813320       4.26954482       9.34574558       0.00000000       0.00000000       0.00000000
I        0.33123538       0.03205473       9.34216497       0.00000000       0.00000000       0.00000000
I        2.69122917       6.97338138       0.01340202       0.00000000       0.00000000       0.00000000
I        4.97613963       4.43457915       3.17758514       0.00000000       0.00000000       0.00000000
48
Lattice="9.01938999317578 0.0 0.0 0.0 8.777767844565316 0.0 0.0 0.0 12.796186806294449" Properties=species:S:1:pos:R:3:momenta:R:3 config_id=O-FAPI3_al_global_rattle_26__global_rattle__sev-0.540__seed-new phase=O-FAPI3 mode=active_learning seed=2895524826 seed_origin=new seed_origin_config_id= parity_master_seed new_master_seed=20260901 source=O-FAPI3/CONTCAR formula=C4H20I12N8Pb4 natoms=48 fa_groups="_JSON [[0, 4, 8, 12, 16, 28, 20, 24], [1, 5, 9, 13, 17, 29, 21, 25], [2, 10, 6, 14, 30, 18, 26, 22], [3, 11, 7, 15, 31, 19, 27, 23]]" cell_A="_JSON [[9.0193899932, 0.0, 0.0], [0.0, 8.7777678446, 0.0], [0.0, 0.0, 12.7961868063]]" distortion_family=global_rattle distortion_severity=0.54 rattle_target=all rattle_sigma_A=0.1071 distortion_label=global_rattle minimum_distance_A=0.7025341838272504 minimum_pair_indices="_JSON [9, 29]" minimum_pair_symbols="_JSON [\"N\", \"H\"]" pbc="T T T"
C        4.67563174       0.42076701       3.21396931       0.00000000       0.00000000       0.00000000
C        8.96372193       4.10307105       9.51998566       0.00000000       0.00000000       0.00000000
C        0.06329064       4.93023460       3.19171993       0.00000000       0.00000000       0.00000000
C        4.48747357       8.43816812       9.51081703       0.00000000       0.00000000       0.00000000
N        5.03855264       8.15411828       2.45292410       0.00000000       0.00000000       0.00000000
N        0.71861119       4.88573444       8.74968700       0.00000000       0.00000000       0.00000000
N        1.19634683       4.89590328       3.07957802       0.00000000       0.00000000       0.00000000
N        5.53507943       8.14044600       9.32322716       0.00000000       0.00000000       0.00000000
N        3.40519413       0.74114734       3.17733970       0.00000000       0.00000000       0.00000000
N        7.79161587       3.55378983       9.67669468       0.00000000       0.00000000       0.00000000
N        8.39636207       3.56777997       2.48210392       0.00000000       0.00000000       0.00000000
N        3.96668602       0.52188353       8.91705604       0.00000000       0.00000000       0.00000000
H        5.34803580       0.67299787       4.07325887       0.00000000       0.00000000       0.00000000
H        0.58617883       3.49745342      10.29906973       0.00000000       0.00000000       0.00000000
H        8.37509597       4.80827558       3.89681355       0.00000000       0.00000000       0.00000000
H        3.74546263       7.91864046      10.13478414       0.00000000       0.00000000       0.00000000
H        6.11781383       8.24979001       2.43326195       0.00000000       0.00000000       0.00000000
H        1.54715205       5.21417436       9.15488028       0.00000000       0.00000000       0.00000000
H        1.49551751       5.69275711       3.78900125       0.00000000       0.00000000       0.00000000
H        5.91448259       7.30597573      10.23634767       0.00000000       0.00000000       0.00000000
H        4.62902284       7.69639922       1.86344356       0.00000000       0.00000000       0.00000000
H        0.12155829       5.39113748       8.26079850       0.00000000       0.00000000       0.00000000
H        1.69525761       4.74670987       2.46982775       0.00000000       0.00000000       0.00000000
H        6.41833848       8.69779452       8.77079449       0.00000000       0.00000000       0.00000000
H        2.80050775       0.11417525       2.52883856       0.00000000       0.00000000       0.00000000
H        7.30884614       3.89758444       8.70158750       0.00000000       0.00000000       0.00000000
H        8.73414640       3.24147199       1.56847225       0.00000000       0.00000000       0.00000000
H        4.49666742       0.94206366       8.07627782       0.00000000       0.00000000       0.00000000
H        2.92660841       1.40102561       3.85231999       0.00000000       0.00000000       0.00000000
H        7.38382439       3.26489006      10.17045304       0.00000000       0.00000000       0.00000000
H        7.38897483       3.65048300       2.81928276       0.00000000       0.00000000       0.00000000
H        2.74097669       0.61211267       9.02597204       0.00000000       0.00000000       0.00000000
Pb       4.55152950       4.22622085      12.51862210       0.00000000       0.00000000       0.00000000
Pb       8.82222429       0.05923403       6.13132418       0.00000000       0.00000000       0.00000000
Pb       8.98277687       8.69759443      12.47924538       0.00000000       0.00000000       0.00000000
Pb       4.30713069       4.43203947       6.12927188       0.00000000       0.00000000       0.00000000
I        7.11054834       6.20263121       6.49073225       0.00000000       0.00000000       0.00000000
I        8.84669015       0.09989977       3.03417145       0.00000000       0.00000000       0.00000000
I        6.45989844       1.73257237      12.25337706       0.00000000       0.00000000       0.00000000
I        2.03577917       2.58091170       0.30140991       0.00000000       0.00000000       0.00000000
I        1.94220029       2.71935323       5.90167496       0.00000000       0.00000000       0.00000000
I        2.65202710       7.14950170       6.21893944       0.00000000       0.00000000       0.00000000
I        7.21554584       5.89693715      12.12257257       0.00000000       0.00000000       0.00000000
I        6.22621877       2.01572859       6.44674442       0.00000000       0.00000000       0.00000000
I        4.15074556       4.55444124       9.46066750       0.00000000       0.00000000       0.00000000
I        0.27938542       0.01472979       9.29774820       0.00000000       0.00000000       0.00000000
I        2.72732825       6.96717693       0.24587512       0.00000000       0.00000000       0.00000000
I        4.91594324       4.12792916       3.03753589       0.00000000       0.00000000       0.00000000
48
Lattice="9.01938999317578 0.0 0.0 0.0 8.777767844565316 0.0 0.0 0.0 12.796186806294449" Properties=species:S:1:pos:R:3:momenta:R:3 config_id=O-FAPI3_al_global_rattle_27__global_rattle__sev-0.553__seed-new phase=O-FAPI3 mode=active_learning seed=1745376292 seed_origin=new seed_origin_config_id= parity_master_seed new_master_seed=20260901 source=O-FAPI3/CONTCAR formula=C4H20I12N8Pb4 natoms=48 fa_groups="_JSON [[0, 4, 8, 12, 16, 28, 20, 24], [1, 5, 9, 13, 17, 29, 21, 25], [2, 10, 6, 14, 30, 18, 26, 22], [3, 11, 7, 15, 31, 19, 27, 23]]" cell_A="_JSON [[9.0193899932, 0.0, 0.0], [0.0, 8.7777678446, 0.0], [0.0, 0.0, 12.7961868063]]" distortion_family=global_rattle distortion_severity=0.553 rattle_target=all rattle_sigma_A=0.10863329499999999 distortion_label=global_rattle minimum_distance_A=0.8139007753105372 minimum_pair_indices="_JSON [11, 27]" minimum_pair_symbols="_JSON [\"N\", \"H\"]" pbc="T T T"
C        4.56243434       0.26278056       2.95963186       0.00000000       0.00000000       0.00000000
C        9.00780960       4.06537294       9.71241312       0.00000000       0.00000000       0.00000000
C        0.02527183       4.82790868       3.20892750       0.00000000       0.00000000       0.00000000
C        4.39274835       8.43025598       9.54112158       0.00000000       0.00000000       0.00000000
N        5.26226625       8.22367387       2.40812699       0.00000000       0.00000000       0.00000000
N        0.43164770       4.97335352       8.95934686       0.00000000       0.00000000       0.00000000
N        1.05407940       5.26969874       2.98213783       0.00000000       0.00000000       0.00000000
N        5.67770191       8.10441243       9.71442328       0.00000000       0.00000000       0.00000000
N        3.41542598       0.82944911       3.14741701       0.00000000       0.00000000       0.00000000
N        7.74052875       3.61649645       9.47028419       0.00000000       0.00000000       0.00000000
N        8.23441591       3.82611551       2.41687325       0.00000000       0.00000000       0.00000000
N        4.00281311       0.61247512       8.85030541       0.00000000       0.00000000       0.00000000
H        5.08494546       0.75888212       3.99906702       0.00000000       0.00000000       0.00000000
H        0.64358012       3.42466609      10.26939215       0.00000000       0.00000000       0.00000000
H        8.33087262       5.24742709       3.92808468       0.00000000       0.00000000       0.00000000
H        3.72818553       8.00829664      10.40786956       0.00000000       0.00000000       0.00000000
H        6.06841977       7.92950102       2.58718249       0.00000000       0.00000000       0.00000000
H        1.67344191       5.20839076       8.88399714       0.00000000       0.00000000       0.00000000
H        1.60415534       5.71422225       3.75138117       0.00000000       0.00000000       0.00000000
H        6.05936094       7.46230042      10.03904694       0.00000000       0.00000000       0.00000000
H        4.67481407       7.48830965       1.72191568       0.00000000       0.00000000       0.00000000
H        0.15243447       5.33102811       8.06799482       0.00000000       0.00000000       0.00000000
H        1.96233694       4.57261640       2.49594885       0.00000000       0.00000000       0.00000000
H        6.33391153       8.48669873       8.89496802       0.00000000       0.00000000       0.00000000
H        2.82161221       0.37311902       2.26471108       0.00000000       0.00000000       0.00000000
H        7.22963059       4.24888451       8.70519306       0.00000000       0.00000000       0.00000000
H        8.91754997       3.34719660       1.76669569       0.00000000       0.00000000       0.00000000
H        4.27396560       0.94570113       8.15902311       0.00000000       0.00000000       0.00000000
H        3.00624016       1.49142521       3.75373884       0.00000000       0.00000000       0.00000000
H        7.38909706       2.94547468      10.31943222       0.00000000       0.00000000       0.00000000
H        7.36392680       3.68740964       2.44317681       0.00000000       0.00000000       0.00000000
H        2.81599295       0.90239940       8.75485400       0.00000000       0.00000000       0.00000000
Pb       4.58814828       4.32414368      12.54309091       0.00000000       0.00000000       0.00000000
Pb       8.97639044       8.76715289       6.35491179       0.00000000       0.00000000       0.00000000
Pb       8.86398104       8.65044902      12.57306062       0.00000000       0.00000000       0.00000000
Pb       4.45481913       4.55284371       6.08214371       0.00000000       0.00000000       0.00000000
I        7.30134994       6.12360212       6.38347020       0.00000000       0.00000000       0.00000000
I        8.52255912       8.77066969       3.06263107       0.00000000       0.00000000       0.00000000
I        6.45089672       1.75008162      12.25186937       0.00000000       0.00000000       0.00000000
I        1.94801073       2.49392906       0.00371201       0.00000000       0.00000000       0.00000000
I        1.77359377       2.66507542       6.00212836       0.00000000       0.00000000       0.00000000
I        2.66011331       7.06817883       5.95827991       0.00000000       0.00000000       0.00000000
I        7.21060565       6.09878675      12.39450531       0.00000000       0.00000000       0.00000000
I        6.19279300       2.03875292       6.31674055       0.00000000       0.00000000       0.00000000
I        4.00900143       4.42745542       9.41113808       0.00000000       0.00000000       0.00000000
I        0.31230776       8.73248318       9.44774593       0.00000000       0.00000000       0.00000000
I        2.71771548       6.82705089      12.73496280       0.00000000       0.00000000       0.00000000
I        4.90083345       4.23566345       3.09614319       0.00000000       0.00000000       0.00000000
48
Lattice="9.01938999317578 0.0 0.0 0.0 8.777767844565316 0.0 0.0 0.0 12.796186806294449" Properties=species:S:1:pos:R:3:momenta:R:3 config_id=O-FAPI3_al_global_rattle_28__global_rattle__sev-0.567__seed-parity phase=O-FAPI3 mode=active_learning seed=3256580899 seed_origin=parity seed_origin_config_id=O-FAPI3_parity_20__global_rattle__sev-1.0 parity_master_seed=20260810 new_master_seed source=O-FAPI3/CONTCAR formula=C4H20I12N8Pb4 natoms=48 fa_groups="_JSON [[0, 4, 8, 12, 16, 28, 20, 24], [1, 5, 9, 13, 17, 29, 21, 25], [2, 10, 6, 14, 30, 18, 26, 22], [3, 11, 7, 15, 31, 19, 27, 23]]" cell_A="_JSON [[9.0193899932, 0.0, 0.0], [0.0, 8.7777678446, 0.0], [0.0, 0.0, 12.7961868063]]" distortion_family=global_rattle distortion_severity=0.567 rattle_target=all rattle_sigma_A=0.110166705 distortion_label=global_rattle minimum_distance_A=0.7604765787157066 minimum_pair_indices="_JSON [10, 26]" minimum_pair_symbols="_JSON [\"N\", \"H\"]" pbc="T T T"
C        4.53428516       0.50193172       3.32456404       0.00000000       0.00000000       0.00000000
C        8.92167891       4.20431122       9.40530913       0.00000000       0.00000000       0.00000000
C        8.95027393       4.54612250       3.06165555       0.00000000       0.00000000       0.00000000
C        4.26789605       8.14250981       9.76993238       0.00000000       0.00000000       0.00000000
N        5.18622160       8.14541638       2.50558774       0.00000000       0.00000000       0.00000000
N        0.60853022       5.08888664       8.83398549       0.00000000       0.00000000       0.00000000
N        0.99730532       5.18200032       3.18087621       0.00000000       0.00000000       0.00000000
N        5.54411190       8.15295860       9.53628215       0.00000000       0.00000000       0.00000000
N        3.25555045       0.83627383       3.13354580       0.00000000       0.00000000       0.00000000
N        7.96481272       3.87972185       9.65329094       0.00000000       0.00000000       0.00000000
N        8.48775860       3.71299784       2.16481069       0.00000000       0.00000000       0.00000000
N        3.88551289       0.27500556       8.57479989       0.00000000       0.00000000       0.00000000
H        5.16976264       0.87663210       3.94209147       0.00000000       0.00000000       0.00000000
H        0.72005108       3.67742073      10.18536708       0.00000000       0.00000000       0.00000000
H        8.43728852       4.96494776       3.84899521       0.00000000       0.00000000       0.00000000
H        3.70436462       7.85788879      10.22595393       0.00000000       0.00000000       0.00000000
H        6.16218819       7.96434131       2.71381353       0.00000000       0.00000000       0.00000000
H        1.72670824       5.05466733       8.81912492       0.00000000       0.00000000       0.00000000
H        1.38686836       5.76506283       3.75986442       0.00000000       0.00000000       0.00000000
H        6.15037299       7.47052195      10.25927260       0.00000000       0.00000000       0.00000000
H        4.70159829       7.73069590       1.64458990       0.00000000       0.00000000       0.00000000
H        0.28355853       5.29955173       8.16157602       0.00000000       0.00000000       0.00000000
H        1.76493027       4.53204648       2.45788423       0.00000000       0.00000000       0.00000000
H        6.45021278       8.64077104       8.93756894       0.00000000       0.00000000       0.00000000
H        2.79022418       0.45167562       2.50961956       0.00000000       0.00000000       0.00000000
H        7.41189798       4.19825116       8.74226363       0.00000000       0.00000000       0.00000000
H        8.74775353       3.26064720       1.61154209       0.00000000       0.00000000       0.00000000
H        4.47090794       1.02315463       8.11694492       0.00000000       0.00000000       0.00000000
H        2.98298792       1.46573466       3.50316462       0.00000000       0.00000000       0.00000000
H        7.50008199       2.97600459      10.16450990       0.00000000       0.00000000       0.00000000
H        7.31389877       3.55596714       2.37145031       0.00000000       0.00000000       0.00000000
H        2.64237532       0.62336535       8.89046080       0.00000000       0.00000000       0.00000000
Pb       4.68264739       4.19025271      12.49966868       0.00000000       0.00000000       0.00000000
Pb       0.16457712       0.05005750       6.31774106       0.00000000       0.00000000       0.00000000
Pb       0.07848306       0.01496368      12.50602267       0.00000000       0.00000000       0.00000000
Pb       4.50944039       4.38032215       5.93055579       0.00000000       0.00000000       0.00000000
I        7.22261470       6.14036571       6.45976038       0.00000000       0.00000000       0.00000000
I        8.57878450       0.09499107       3.08438319       0.00000000       0.00000000       0.00000000
I        6.42981267       1.58563921      12.09415318       0.00000000       0.00000000       0.00000000
I        1.82819441       2.61675342       0.00486901       0.00000000       0.00000000       0.00000000
I        2.04191348       2.61392916       5.91993978       0.00000000       0.00000000       0.00000000
I        2.66990143       6.99817534       6.05036231       0.00000000       0.00000000       0.00000000
I        7.23111482       6.14321900      12.27507071       0.00000000       0.00000000       0.00000000
I        6.34927729       1.98483114       6.29710236       0.00000000       0.00000000       0.00000000
I        4.27345538       4.52545038       9.39606266       0.00000000       0.00000000       0.00000000
I        0.35558607       0.09118709       9.42784663       0.00000000       0.00000000       0.00000000
I        2.90298959       6.75833916       0.07988608       0.00000000       0.00000000       0.00000000
I        4.78156010       4.27415827       3.01140045       0.00000000       0.00000000       0.00000000
48
Lattice="9.01938999317578 0.0 0.0 0.0 8.777767844565316 0.0 0.0 0.0 12.796186806294449" Properties=species:S:1:pos:R:3:momenta:R:3 config_id=O-FAPI3_al_global_rattle_29__global_rattle__sev-0.580__seed-new phase=O-FAPI3 mode=active_learning seed=108919566 seed_origin=new seed_origin_config_id= parity_master_seed new_master_seed=20260901 source=O-FAPI3/CONTCAR formula=C4H20I12N8Pb4 natoms=48 fa_groups="_JSON [[0, 4, 8, 12, 16, 28, 20, 24], [1, 5, 9, 13, 17, 29, 21, 25], [2, 10, 6, 14, 30, 18, 26, 22], [3, 11, 7, 15, 31, 19, 27, 23]]" cell_A="_JSON [[9.0193899932, 0.0, 0.0], [0.0, 8.7777678446, 0.0], [0.0, 0.0, 12.7961868063]]" distortion_family=global_rattle distortion_severity=0.58 rattle_target=all rattle_sigma_A=0.1117 distortion_label=global_rattle minimum_distance_A=0.8095632965626158 minimum_pair_indices="_JSON [7, 23]" minimum_pair_symbols="_JSON [\"N\", \"H\"]" pbc="T T T"
C        4.65870441       0.53377803       3.13680981       0.00000000       0.00000000       0.00000000
C        0.02741889       3.99765121       9.66272043       0.00000000       0.00000000       0.00000000
C        0.03851327       4.83082843       2.95423909       0.00000000       0.00000000       0.00000000
C        4.63162438       8.45897757       9.68777328       0.00000000       0.00000000       0.00000000
N        5.34817872       8.31117171       2.41474209       0.00000000       0.00000000       0.00000000
N        0.65307483       4.91586177       8.78966675       0.00000000       0.00000000       0.00000000
N        1.01897362       5.24932737       2.95584245       0.00000000       0.00000000       0.00000000
N        5.74631310       8.27635310       9.38676792       0.00000000       0.00000000       0.00000000
N        3.52518258       0.76735522       3.14360668       0.00000000       0.00000000       0.00000000
N        8.09648135       3.79464794       9.27217864       0.00000000       0.00000000       0.00000000
N        8.47732517       3.59582109       2.50148465       0.00000000       0.00000000       0.00000000
N        3.79322521       0.52295728       8.79153575       0.00000000       0.00000000       0.00000000
H        5.13586305       1.03005724       3.95957549       0.00000000       0.00000000       0.00000000
H        0.80961623       3.52121732      10.39641495       0.00000000       0.00000000       0.00000000
H        8.54826650       5.06951166       3.79858299       0.00000000       0.00000000       0.00000000
H        3.72386090       7.99708816      10.40894954       0.00000000       0.00000000       0.00000000
H        6.13077996       7.89666403       2.55062760       0.00000000       0.00000000       0.00000000
H        1.56386886       5.09854652       9.03689858       0.00000000       0.00000000       0.00000000
H        1.62342477       5.96003499       3.89227932       0.00000000       0.00000000       0.00000000
H        6.05080371       7.62263274      10.11874003       0.00000000       0.00000000       0.00000000
H        4.48618472       7.65862802       1.77259338       0.00000000       0.00000000       0.00000000
H        0.10084468       5.60834769       8.19600294       0.00000000       0.00000000       0.00000000
H        1.96343004       4.59296796       2.40473715       0.00000000       0.00000000       0.00000000
H        6.29443509       8.45111855       8.81719610       0.00000000       0.00000000       0.00000000
H        2.71959463       0.23847867       2.43249484       0.00000000       0.00000000       0.00000000
H        7.00140220       4.17258113       8.76529521       0.00000000       0.00000000       0.00000000
H        8.90787699       3.29239201       1.71568610       0.00000000       0.00000000       0.00000000
H        4.32520888       1.14586563       8.06090950       0.00000000       0.00000000       0.00000000
H        2.94086988       1.47565060       3.87502020       0.00000000       0.00000000       0.00000000
H        7.55050464       3.21097446      10.01297004       0.00000000       0.00000000       0.00000000
H        7.52857073       3.80076558       2.58650782       0.00000000       0.00000000       0.00000000
H        2.92819167       0.74172885       8.76936985       0.00000000       0.00000000       0.00000000
Pb       4.37761479       4.32492557      12.57903436       0.00000000       0.00000000       0.00000000
Pb       0.01295157       8.65762616       6.21365417       0.00000000       0.00000000       0.00000000
Pb       0.01150581       0.06270343      12.53614347       0.00000000       0.00000000       0.00000000
Pb       4.63766662       4.60741870       6.04432673       0.00000000       0.00000000       0.00000000
I        7.03146898       6.18535411       6.37179087       0.00000000       0.00000000       0.00000000
I        8.53275281       8.52012778       2.90838633       0.00000000       0.00000000       0.00000000
I        6.53933130       1.62486009      12.09061429       0.00000000       0.00000000       0.00000000
I        2.03111736       2.59204581       0.05362250       0.00000000       0.00000000       0.00000000
I        2.02752745       2.76701305       6.03731032       0.00000000       0.00000000       0.00000000
I        2.59928088       7.00492050       5.95144691       0.00000000       0.00000000       0.00000000
I        7.19915246       6.13869838      12.19832498       0.00000000       0.00000000       0.00000000
I        6.41016909       2.06076398       6.51004028       0.00000000       0.00000000       0.00000000
I        4.01678488       4.44408589       9.48510837       0.00000000       0.00000000       0.00000000
I        0.30805988       0.12096385       9.41491148       0.00000000       0.00000000       0.00000000
I        2.49641206       6.90966642       0.12294136       0.00000000       0.00000000       0.00000000
I        4.69883882       4.20065592       3.11516652       0.00000000       0.00000000       0.00000000
48
Lattice="9.01938999317578 0.0 0.0 0.0 8.777767844565316 0.0 0.0 0.0 12.796186806294449" Properties=species:S:1:pos:R:3:momenta:R:3 config_id=O-FAPI3_al_global_rattle_30__global_rattle__sev-0.593__seed-new phase=O-FAPI3 mode=active_learning seed=1665721743 seed_origin=new seed_origin_config_id= parity_master_seed new_master_seed=20260901 source=O-FAPI3/CONTCAR formula=C4H20I12N8Pb4 natoms=48 fa_groups="_JSON [[0, 4, 8, 12, 16, 28, 20, 24], [1, 5, 9, 13, 17, 29, 21, 25], [2, 10, 6, 14, 30, 18, 26, 22], [3, 11, 7, 15, 31, 19, 27, 23]]" cell_A="_JSON [[9.0193899932, 0.0, 0.0], [0.0, 8.7777678446, 0.0], [0.0, 0.0, 12.7961868063]]" distortion_family=global_rattle distortion_severity=0.593 rattle_target=all rattle_sigma_A=0.113233295 distortion_label=global_rattle minimum_distance_A=0.7561618613109428 minimum_pair_indices="_JSON [11, 31]" minimum_pair_symbols="_JSON [\"N\", \"H\"]" pbc="T T T"
C        4.69460156       0.50180323       3.08775640       0.00000000       0.00000000       0.00000000
C        0.05062211       3.98996858       9.56106524       0.00000000       0.00000000       0.00000000
C        8.84763099       4.85437590       3.32872550       0.00000000       0.00000000       0.00000000
C        4.39191615       8.40368821       9.84889035       0.00000000       0.00000000       0.00000000
N        5.24408941       7.99491808       2.49597330       0.00000000       0.00000000       0.00000000
N        0.80510413       4.98642750       8.87846118       0.00000000       0.00000000       0.00000000
N        1.32265482       5.07035099       2.86073983       0.00000000       0.00000000       0.00000000
N        5.67861967       8.12635519       9.57982820       0.00000000       0.00000000       0.00000000
N        3.42374660       0.64725589       3.17847888       0.00000000       0.00000000       0.00000000
N        7.58500816       3.73099332       9.56274797       0.00000000       0.00000000       0.00000000
N        8.28231735       3.97935851       2.56628016       0.00000000       0.00000000       0.00000000
N        3.66491702       0.55033358       8.72946321       0.00000000       0.00000000       0.00000000
H        5.35015087       0.91243673       3.87442196       0.00000000       0.00000000       0.00000000
H        0.59521755       3.43325746      10.29199509       0.00000000       0.00000000       0.00000000
H        8.28635214       5.16195705       4.02663282       0.00000000       0.00000000       0.00000000
H        3.71687738       7.67811392      10.20339135       0.00000000       0.00000000       0.00000000
H        6.34157659       7.96484929       2.17222132       0.00000000       0.00000000       0.00000000
H        1.67105855       5.17828012       8.81370455       0.00000000       0.00000000       0.00000000
H        1.44284269       5.85924862       3.76086395       0.00000000       0.00000000       0.00000000
H        6.13285232       7.51538031       9.92324955       0.00000000       0.00000000       0.00000000
H        4.83463818       7.65756740       1.81892464       0.00000000       0.00000000       0.00000000
H        0.05798391       5.39355552       8.00400648       0.00000000       0.00000000       0.00000000
H        1.79462883       4.51874932       2.42422956       0.00000000       0.00000000       0.00000000
H        6.45266729       8.25154497       8.90940992       0.00000000       0.00000000       0.00000000
H        2.81190484       0.24960633       2.36936081       0.00000000       0.00000000       0.00000000
H        7.17242225       4.12392968       8.96191349       0.00000000       0.00000000       0.00000000
H        0.23301528       3.40157522       1.63487057       0.00000000       0.00000000       0.00000000
H        4.30949666       1.24540994       8.10510213       0.00000000       0.00000000       0.00000000
H        2.86701530       1.64833959       3.84079460       0.00000000       0.00000000       0.00000000
H        7.30535297       2.76955089      10.36896385       0.00000000       0.00000000       0.00000000
H        7.40300857       3.79315468       2.51504551       0.00000000       0.00000000       0.00000000
H        2.99461163       0.90008699       8.71746351       0.00000000       0.00000000       0.00000000
Pb       4.47755392       4.26244552      12.66089490       0.00000000       0.00000000       0.00000000
Pb       0.08576915       8.74171336       6.24665119       0.00000000       0.00000000       0.00000000
Pb       8.99935750       8.61762495      12.51137614       0.00000000       0.00000000       0.00000000
Pb       4.35881151       4.65210218       6.28486165       0.00000000       0.00000000       0.00000000
I        7.18922952       6.26705221       6.34320998       0.00000000       0.00000000       0.00000000
I        8.69995578       0.21963044       2.85461692       0.00000000       0.00000000       0.00000000
I        6.35518576       1.62398983      12.13585146       0.00000000       0.00000000       0.00000000
I        1.79582259       2.53086998       0.10140599       0.00000000       0.00000000       0.00000000
I        1.80568848       2.67088551       5.73148381       0.00000000       0.00000000       0.00000000
I        2.64058138       6.90184064       5.94172925       0.00000000       0.00000000       0.00000000
I        7.30228099       6.17407014      12.33900456       0.00000000       0.00000000       0.00000000
I        6.25807382       1.97523077       6.41407098       0.00000000       0.00000000       0.00000000
I        4.00433867       4.31244918       9.46019325       0.00000000       0.00000000       0.00000000
I        0.33209982       0.06935429       9.45984026       0.00000000       0.00000000       0.00000000
I        2.65424108       7.02031902      12.69120584       0.00000000       0.00000000       0.00000000
I        4.84761800       4.25406040       2.96908793       0.00000000       0.00000000       0.00000000
48
Lattice="9.121800068380958 -0.07751950888182321 -0.007197223911277471 -0.07544282406062956 8.769286081182967 -0.014032696130984798 -0.01021100337440978 -0.020456795425413656 13.013488750430907" Properties=species:S:1:pos:R:3:momenta:R:3 config_id=O-FAPI3_al_combined_01__combined_strain_rattle_fa_rotation__sev-0.407__seed-new phase=O-FAPI3 mode=active_learning seed=1899588555 seed_origin=new seed_origin_config_id= parity_master_seed new_master_seed=20260901 source=O-FAPI3/CONTCAR formula=C4H20I12N8Pb4 natoms=48 fa_groups="_JSON [[0, 4, 8, 12, 16, 28, 20, 24], [1, 5, 9, 13, 17, 29, 21, 25], [2, 10, 6, 14, 30, 18, 26, 22], [3, 11, 7, 15, 31, 19, 27, 23]]" cell_A="_JSON [[9.1218000684, -0.0775195089, -0.0071972239], [-0.0754428241, 8.7692860812, -0.0140326961], [-0.0102110034, -0.0204567954, 13.0134887504]]" distortion_family=combined distortion_severity=0.407 rotations="_JSON [{\"fa_group\": 0, \"kind\": \"axis_angle\", \"angle_deg\": 39.057314, \"axis\": [0.76036939, -0.61425233, -0.21102717]}, {\"fa_group\": 1, \"kind\": \"axis_angle\", \"angle_deg\": -39.508877, \"axis\": [-0.83190814, 0.20571966, 0.51537197]}, {\"fa_group\": 3, \"kind\": \"axis_angle\", \"angle_deg\": 29.439812, \"axis\": [0.16600622, -0.97939571, 0.11500426]}]" strain="_JSON [[0.01135443, -0.00859476, -0.00079797], [-0.00859476, -0.00096628, -0.00159866], [-0.00079797, -0.00159866, 0.01698177]]" rattle_target=all rattle_sigma_A=0.071675 distortion_label=combined_strain_rattle_fa_rotation minimum_distance_A=0.8887063002929686 minimum_pair_indices="_JSON [9, 25]" minimum_pair_symbols="_JSON [\"N\", \"H\"]" pbc="T T T"
C        4.35390940      -0.04198835       3.26924970       0.00000000       0.00000000       0.00000000
C        8.87095345       3.67734416       9.59932660       0.00000000       0.00000000       0.00000000
C        8.96425546       4.55666653       3.08536919       0.00000000       0.00000000       0.00000000
C        4.23914418       8.24922060       9.45504894       0.00000000       0.00000000       0.00000000
N        5.02968312       8.16180993       2.50876255       0.00000000       0.00000000       0.00000000
N        0.76067208       4.64280617       9.61915358       0.00000000       0.00000000       0.00000000
N        1.22581861       5.11259645       3.10149187       0.00000000       0.00000000       0.00000000
N        5.61372073       7.92179893      10.01576885       0.00000000       0.00000000       0.00000000
N        3.42388006       0.73408212       3.00925401       0.00000000       0.00000000       0.00000000
N        7.77711176       4.09456175       9.32752807       0.00000000       0.00000000       0.00000000
N        8.45240864       3.75083838       2.39705373       0.00000000       0.00000000       0.00000000
N        4.18230428       0.48912645       8.61276568       0.00000000       0.00000000       0.00000000
H        4.73226516       0.03303965       4.37981865       0.00000000       0.00000000       0.00000000
H        0.13338543       2.80309280       9.95938963       0.00000000       0.00000000       0.00000000
H        8.36902081       5.14405056       3.95088435       0.00000000       0.00000000       0.00000000
H        3.40001451       7.75992255       9.84971758       0.00000000       0.00000000       0.00000000
H        6.08349278       7.84836231       2.66574716       0.00000000       0.00000000       0.00000000
H        1.91944863       4.43500593       9.66554821       0.00000000       0.00000000       0.00000000
H        1.52428868       5.74741730       3.70417977       0.00000000       0.00000000       0.00000000
H        5.49165785       7.29038283      10.76320666       0.00000000       0.00000000       0.00000000
H        4.98349669       8.35299621       1.36696865       0.00000000       0.00000000       0.00000000
H        0.68614721       5.57510537       9.18240955       0.00000000       0.00000000       0.00000000
H        1.76962980       4.55616234       2.40845233       0.00000000       0.00000000       0.00000000
H        6.41064519       8.51594492       9.77606516       0.00000000       0.00000000       0.00000000
H        3.16188671       0.87492568       2.00512516       0.00000000       0.00000000       0.00000000
H        7.46896177       4.70730293       8.76238143       0.00000000       0.00000000       0.00000000
H        8.93780889       3.19009674       1.63301663       0.00000000       0.00000000       0.00000000
H        5.05932869       1.06468906       8.25150542       0.00000000       0.00000000       0.00000000
H        2.87900503       1.06905116       3.70514418       0.00000000       0.00000000       0.00000000
H        7.16322742       3.17007129       9.51892757       0.00000000       0.00000000       0.00000000
H        7.48354001       3.57994741       2.62343403       0.00000000       0.00000000       0.00000000
H        3.28474837       0.72747777       8.32718949       0.00000000       0.00000000       0.00000000
Pb       4.49453401       4.27122056      12.70081905       0.00000000       0.00000000       0.00000000
Pb       9.10191864       0.00281644       6.24746862       0.00000000       0.00000000       0.00000000
Pb       8.92263321       8.58704925      12.65772608       0.00000000       0.00000000       0.00000000
Pb       4.61320184       4.58394587       6.29658036       0.00000000       0.00000000       0.00000000
I        7.17826206       6.06776510       6.72295162       0.00000000       0.00000000       0.00000000
I        8.74516514       8.68195957       2.91985105       0.00000000       0.00000000       0.00000000
I        6.34577269       1.57953852      12.46054582       0.00000000       0.00000000       0.00000000
I        1.82645712       2.60647162      12.99255559       0.00000000       0.00000000       0.00000000
I        1.90394884       2.72598737       6.05604944       0.00000000       0.00000000       0.00000000
I        2.53567395       7.08440817       5.99562370       0.00000000       0.00000000       0.00000000
I        7.18348177       5.87268683      12.42335013       0.00000000       0.00000000       0.00000000
I        6.40704875       1.71098348       6.62319582       0.00000000       0.00000000       0.00000000
I        4.06288235       4.38739378       9.62809035       0.00000000       0.00000000       0.00000000
I        0.39370171       0.05182413       9.42262168       0.00000000       0.00000000       0.00000000
I        2.74505723       6.79333798       0.04442809       0.00000000       0.00000000       0.00000000
I        4.92167249       4.31271998       3.17100985       0.00000000       0.00000000       0.00000000
48
Lattice="8.739366301193298 -0.09734116777408951 0.08683375656314161 -0.09473347677462916 8.65293653131432 0.08157803993628827 0.1231946917601927 0.11892406552565733 13.139109082787117" Properties=species:S:1:pos:R:3:momenta:R:3 config_id=O-FAPI3_al_combined_02__combined_strain_rattle_fa_rotation__sev-0.422__seed-new phase=O-FAPI3 mode=active_learning seed=1974325161 seed_origin=new seed_origin_config_id= parity_master_seed new_master_seed=20260901 source=O-FAPI3/CONTCAR formula=C4H20I12N8Pb4 natoms=48 fa_groups="_JSON [[0, 4, 8, 12, 16, 28, 20, 24], [1, 5, 9, 13, 17, 29, 21, 25], [2, 10, 6, 14, 30, 18, 26, 22], [3, 11, 7, 15, 31, 19, 27, 23]]" cell_A="_JSON [[8.7393663012, -0.0973411678, 0.0868337566], [-0.0947334768, 8.6529365313, 0.0815780399], [0.1231946918, 0.1189240655, 13.1391090828]]" distortion_family=combined distortion_severity=0.422 rotations="_JSON [{\"fa_group\": 0, \"kind\": \"axis_angle\", \"angle_deg\": -0.451045, \"axis\": [0.8121509, -0.17600491, -0.55626719]}, {\"fa_group\": 3, \"kind\": \"axis_angle\", \"angle_deg\": 5.926343, \"axis\": [0.14354474, -0.98233293, 0.12007048]}]" strain="_JSON [[-0.03104685, -0.01079243, 0.00962745], [-0.01079243, -0.0142213, 0.00929371], [0.00962745, 0.00929371, 0.02679879]]" rattle_target=all rattle_sigma_A=0.073025 distortion_label=combined_strain_rattle_fa_rotation minimum_distance_A=0.7745054836685251 minimum_pair_indices="_JSON [10, 30]" minimum_pair_symbols="_JSON [\"N\", \"H\"]" pbc="T T T"
C        4.37065300       0.37983101       3.41091198       0.00000000       0.00000000       0.00000000
C        0.13018433       3.99949924       9.83701765       0.00000000       0.00000000       0.00000000
C        8.71246763       4.49741494       3.36382705       0.00000000       0.00000000       0.00000000
C        4.19553953       8.30851417       9.86127956       0.00000000       0.00000000       0.00000000
N        4.95623002       8.08145672       2.69477362       0.00000000       0.00000000       0.00000000
N        0.60264978       4.93045060       9.00682412       0.00000000       0.00000000       0.00000000
N        1.14642894       5.13726700       3.22553078       0.00000000       0.00000000       0.00000000
N        5.51651605       7.98449101       9.93319506       0.00000000       0.00000000       0.00000000
N        3.32170382       0.76679043       3.27750776       0.00000000       0.00000000       0.00000000
N        7.51597575       3.61821764       9.78383606       0.00000000       0.00000000       0.00000000
N        8.00493181       3.80802897       2.61303129       0.00000000       0.00000000       0.00000000
N        3.85181014       0.55139075       9.08143278       0.00000000       0.00000000       0.00000000
H        5.23653197       0.67146335       4.17974737       0.00000000       0.00000000       0.00000000
H        0.70496235       3.54678948      10.57145021       0.00000000       0.00000000       0.00000000
H        8.10014843       5.16838003       4.14214750       0.00000000       0.00000000       0.00000000
H        3.53202400       7.92239124      10.54906185       0.00000000       0.00000000       0.00000000
H        5.98371633       7.93251145       2.69339258       0.00000000       0.00000000       0.00000000
H        1.61734647       5.17276783       9.29435851       0.00000000       0.00000000       0.00000000
H        1.62734055       5.74793782       3.86471164       0.00000000       0.00000000       0.00000000
H        5.76108979       7.32834874      10.65595165       0.00000000       0.00000000       0.00000000
H        4.46971409       7.56854721       1.75592910       0.00000000       0.00000000       0.00000000
H        0.24101245       5.51093385       8.35959822       0.00000000       0.00000000       0.00000000
H        1.82695431       4.58867252       2.56360494       0.00000000       0.00000000       0.00000000
H        6.18911783       8.48059909       9.34255125       0.00000000       0.00000000       0.00000000
H        2.52409911       0.21750218       2.37138849       0.00000000       0.00000000       0.00000000
H        7.04816005       4.07358306       9.20302063       0.00000000       0.00000000       0.00000000
H        8.51491483       3.16583395       1.94882345       0.00000000       0.00000000       0.00000000
H        4.48799084       1.10708189       8.23951866       0.00000000       0.00000000       0.00000000
H        2.83737683       1.38720682       3.87395056       0.00000000       0.00000000       0.00000000
H        7.30247710       2.92074070      10.48236552       0.00000000       0.00000000       0.00000000
H        7.23567387       3.72722943       2.65268480       0.00000000       0.00000000       0.00000000
H        2.94187870       0.73439373       9.19465760       0.00000000       0.00000000       0.00000000
Pb       4.51179962       4.19350803      13.07550438       0.00000000       0.00000000       0.00000000
Pb       8.73729164       0.14351300       6.38583255       0.00000000       0.00000000       0.00000000
Pb       8.72770128       8.49953600      13.07842470       0.00000000       0.00000000       0.00000000
Pb       4.37841509       4.50746375       6.41801020       0.00000000       0.00000000       0.00000000
I        6.96982740       6.10242445       6.73447766       0.00000000       0.00000000       0.00000000
I        8.41828004       8.52109844       3.17720383       0.00000000       0.00000000       0.00000000
I        6.40166046       1.75421155      12.77552055       0.00000000       0.00000000       0.00000000
I        1.77446819       2.46440431       0.13604073       0.00000000       0.00000000       0.00000000
I        1.75803244       2.67363623       6.04360015       0.00000000       0.00000000       0.00000000
I        2.58204680       7.03978650       6.26881382       0.00000000       0.00000000       0.00000000
I        7.08228876       6.07585264      12.87463013       0.00000000       0.00000000       0.00000000
I        6.22515463       1.91056882       6.69344054       0.00000000       0.00000000       0.00000000
I        4.10680830       4.42237914       9.78251290       0.00000000       0.00000000       0.00000000
I        0.58854798       0.14018743       9.63473400       0.00000000       0.00000000       0.00000000
I        2.68736621       6.87234061      13.12683921       0.00000000       0.00000000       0.00000000
I        4.74302518       4.28356219       3.09079583       0.00000000       0.00000000       0.00000000
48
Lattice="8.749861204613456 -0.09913921767806812 0.04008462770892927 -0.09648335837881845 8.886606496049493 -0.0681051684001383 0.056869742256662276 -0.09928337964211312 12.585635987685503" Properties=species:S:1:pos:R:3:momenta:R:3 config_id=O-FAPI3_al_combined_03__combined_strain_rattle_fa_rotation__sev-0.438__seed-parity phase=O-FAPI3 mode=active_learning seed=3663235565 seed_origin=parity seed_origin_config_id=O-FAPI3_parity_42__combined_strain_rattle_fa_rotation__sev-0.2 parity_master_seed=20260810 new_master_seed source=O-FAPI3/CONTCAR formula=C4H20I12N8Pb4 natoms=48 fa_groups="_JSON [[0, 4, 8, 12, 16, 28, 20, 24], [1, 5, 9, 13, 17, 29, 21, 25], [2, 10, 6, 14, 30, 18, 26, 22], [3, 11, 7, 15, 31, 19, 27, 23]]" cell_A="_JSON [[8.7498612046, -0.0991392177, 0.0400846277], [-0.0964833584, 8.886606496, -0.0681051684], [0.0568697423, -0.0992833796, 12.5856359877]]" distortion_family=combined distortion_severity=0.438 rotations="_JSON [{\"fa_group\": 1, \"kind\": \"axis_angle\", \"angle_deg\": 44.262969, \"axis\": [-0.97181367, -0.18463311, 0.14659061]}, {\"fa_group\": 2, \"kind\": \"axis_angle\", \"angle_deg\": 43.540409, \"axis\": [0.28392268, 0.23416322, 0.92981477]}]" strain="_JSON [[-0.02988326, -0.01099179, 0.00444427], [-0.01099179, 0.01239935, -0.00775883], [0.00444427, -0.00775883, -0.01645418]]" rattle_target=all rattle_sigma_A=0.074375 distortion_label=combined_strain_rattle_fa_rotation minimum_distance_A=0.7469893748176493 minimum_pair_indices="_JSON [10, 30]" minimum_pair_symbols="_JSON [\"N\", \"H\"]" pbc="T T T"
C        4.35944565       0.09685442       3.24225176       0.00000000       0.00000000       0.00000000
C        0.00814484       4.27870124       9.31953156       0.00000000       0.00000000       0.00000000
C        0.07468276       4.51907587       3.11515968       0.00000000       0.00000000       0.00000000
C        4.14947591       8.43849710       9.38217581       0.00000000       0.00000000       0.00000000
N        4.83678108       8.28421998       2.22922277       0.00000000       0.00000000       0.00000000
N        0.66673796       4.56396078       8.28834370       0.00000000       0.00000000       0.00000000
N        0.51721461       5.71181482       3.11910566       0.00000000       0.00000000       0.00000000
N        5.52418214       7.91869154       9.32282615       0.00000000       0.00000000       0.00000000
N        3.23972567       0.69883223       3.04621883       0.00000000       0.00000000       0.00000000
N        7.68326483       3.69684472       9.57083613       0.00000000       0.00000000       0.00000000
N        8.58356641       3.35076461       2.33611818       0.00000000       0.00000000       0.00000000
N        3.99055661       0.43310236       8.66541728       0.00000000       0.00000000       0.00000000
H        4.97125662       0.70056055       3.88409142       0.00000000       0.00000000       0.00000000
H        0.47925187       4.50039487      10.45440427       0.00000000       0.00000000       0.00000000
H        7.96605007       4.26948743       4.17211015       0.00000000       0.00000000       0.00000000
H        3.74418165       7.93403108      10.13227614       0.00000000       0.00000000       0.00000000
H        5.81733109       7.96354228       2.40718460       0.00000000       0.00000000       0.00000000
H        1.53462190       4.94618404       8.35858403       0.00000000       0.00000000       0.00000000
H        0.57221509       6.25184059       3.95219920       0.00000000       0.00000000       0.00000000
H        5.82563679       7.30726843       9.92318116       0.00000000       0.00000000       0.00000000
H        4.54522927       7.87446176       1.53137264       0.00000000       0.00000000       0.00000000
H        0.14074502       4.43555126       7.48742050       0.00000000       0.00000000       0.00000000
H        1.12053122       5.75558284       2.33273299       0.00000000       0.00000000       0.00000000
H        5.99699609       8.41024660       8.70575483       0.00000000       0.00000000       0.00000000
H        2.60150909       0.38978503       2.45532814       0.00000000       0.00000000       0.00000000
H        7.03953426       3.56162790       8.80532450       0.00000000       0.00000000       0.00000000
H        0.42270303       3.77651455       1.42753764       0.00000000       0.00000000       0.00000000
H        4.31630304       0.89731209       7.90393593       0.00000000       0.00000000       0.00000000
H        2.85806934       1.37949269       3.71497167       0.00000000       0.00000000       0.00000000
H        7.16427005       3.62394973      10.54232713       0.00000000       0.00000000       0.00000000
H        8.02894051       2.86603902       2.46031299       0.00000000       0.00000000       0.00000000
H        2.75932382       0.67510883       8.77325544       0.00000000       0.00000000       0.00000000
Pb       4.45330083       4.23931391      12.45634327       0.00000000       0.00000000       0.00000000
Pb       0.06116651      -0.00049888       6.00353861       0.00000000       0.00000000       0.00000000
Pb       8.68349914       8.48818233      12.35974328       0.00000000       0.00000000       0.00000000
Pb       4.40325243       4.49032153       6.15159236       0.00000000       0.00000000       0.00000000
I        6.83642273       6.06663016       6.35929589       0.00000000       0.00000000       0.00000000
I        8.32045960       8.62728853       2.94957139       0.00000000       0.00000000       0.00000000
I        6.17902569       1.62626536      12.06978778       0.00000000       0.00000000       0.00000000
I        1.74744934       2.55043849       0.09820227       0.00000000       0.00000000       0.00000000
I        1.75694554       2.67500647       5.78698119       0.00000000       0.00000000       0.00000000
I        2.54412877       6.97700234       5.81643534       0.00000000       0.00000000       0.00000000
I        6.92409717       6.16133363      12.09861632       0.00000000       0.00000000       0.00000000
I        6.23644051       1.77673428       6.43568671       0.00000000       0.00000000       0.00000000
I        4.02750022       4.40852390       9.21507892       0.00000000       0.00000000       0.00000000
I        0.34117520      -0.04285946       9.14639519       0.00000000       0.00000000       0.00000000
I        2.44227838       7.00419940       0.11572239       0.00000000       0.00000000       0.00000000
I        4.76723758       4.36950298       2.75720783       0.00000000       0.00000000       0.00000000
48
Lattice="9.172675288804339 0.07287121977637813 0.09962527407719883 0.07091905885334944 8.871866815161239 -0.028010956317276008 0.14134255406237814 -0.040834234398297344 12.599481152911387" Properties=species:S:1:pos:R:3:momenta:R:3 config_id=O-FAPI3_al_combined_04__combined_strain_rattle_fa_rotation__sev-0.453__seed-new phase=O-FAPI3 mode=active_learning seed=3854395481 seed_origin=new seed_origin_config_id= parity_master_seed new_master_seed=20260901 source=O-FAPI3/CONTCAR formula=C4H20I12N8Pb4 natoms=48 fa_groups="_JSON [[0, 4, 8, 12, 16, 28, 20, 24], [1, 5, 9, 13, 17, 29, 21, 25], [2, 10, 6, 14, 30, 18, 26, 22], [3, 11, 7, 15, 31, 19, 27, 23]]" cell_A="_JSON [[9.1726752888, 0.0728712198, 0.0996252741], [0.0709190589, 8.8718668152, -0.0280109563], [0.1413425541, -0.0408342344, 12.5994811529]]" distortion_family=combined distortion_severity=0.453 rotations="_JSON [{\"fa_group\": 0, \"kind\": \"axis_angle\", \"angle_deg\": 31.930288, \"axis\": [0.75800617, -0.65224236, -0.00255802]}, {\"fa_group\": 1, \"kind\": \"axis_angle\", \"angle_deg\": 36.419735, \"axis\": [0.16208213, -0.82190974, 0.5460712]}, {\"fa_group\": 2, \"kind\": \"axis_angle\", \"angle_deg\": -22.568455, \"axis\": [0.03304569, 0.11984207, 0.99224284]}, {\"fa_group\": 3, \"kind\": \"axis_angle\", \"angle_deg\": -28.424959, \"axis\": [-0.71231309, 0.64913578, -0.26689473]}]" strain="_JSON [[0.01699508, 0.0080794, 0.01104568], [0.0080794, 0.01072015, -0.00319113], [0.01104568, -0.00319113, -0.01537221]]" rattle_target=all rattle_sigma_A=0.075725 distortion_label=combined_strain_rattle_fa_rotation minimum_distance_A=0.8360940328678037 minimum_pair_indices="_JSON [7, 19]" minimum_pair_symbols="_JSON [\"N\", \"H\"]" pbc="T T T"
C        4.49441346       0.15973671       3.31725553       0.00000000       0.00000000       0.00000000
C        0.16684956       4.04881714       9.44296752       0.00000000       0.00000000       0.00000000
C        0.20537724       4.86298496       2.93538588       0.00000000       0.00000000       0.00000000
C        4.72517929       8.42614473       9.25653134       0.00000000       0.00000000       0.00000000
N        5.49532885       8.45771591       2.34335265       0.00000000       0.00000000       0.00000000
N        0.55900892       5.34736955       9.11493853       0.00000000       0.00000000       0.00000000
N        1.26953369       4.80609040       3.00479070       0.00000000       0.00000000       0.00000000
N        6.00449595       8.20691779       9.58515012       0.00000000       0.00000000       0.00000000
N        3.43544451       0.60577130       2.88412161       0.00000000       0.00000000       0.00000000
N        8.45407898       3.43428045       8.87815098       0.00000000       0.00000000       0.00000000
N        8.38027302       4.26227360       2.49555238       0.00000000       0.00000000       0.00000000
N        4.04974762       0.54768658       8.79389996       0.00000000       0.00000000       0.00000000
H        4.68934221       0.35663612       4.25176898       0.00000000       0.00000000       0.00000000
H        0.43237396       3.68904058      10.47727531       0.00000000       0.00000000       0.00000000
H        8.63357971       5.59918662       3.98012824       0.00000000       0.00000000       0.00000000
H        4.03525463       7.65781135       9.53418526       0.00000000       0.00000000       0.00000000
H        6.43819151       8.31764692       2.96544672       0.00000000       0.00000000       0.00000000
H        1.14892099       5.64500599       9.75324414       0.00000000       0.00000000       0.00000000
H        2.04695644       5.31429877       3.83378441       0.00000000       0.00000000       0.00000000
H        6.34289985       7.46373060       9.76461834       0.00000000       0.00000000       0.00000000
H        5.47398052       8.43842655       1.50454611       0.00000000       0.00000000       0.00000000
H        0.31804111       5.68267893       8.26545114       0.00000000       0.00000000       0.00000000
H        1.90453054       4.11338539       2.32013913       0.00000000       0.00000000       0.00000000
H        6.50135943       0.10646845       9.17188194       0.00000000       0.00000000       0.00000000
H        2.96235559       0.60269363       1.85598541       0.00000000       0.00000000       0.00000000
H        7.96052809       3.78933560       7.92795003       0.00000000       0.00000000       0.00000000
H        8.82887823       3.68872680       1.70458524       0.00000000       0.00000000       0.00000000
H        4.69842445       1.47182027       8.44217449       0.00000000       0.00000000       0.00000000
H        2.65831799       1.07299312       3.49481236       0.00000000       0.00000000       0.00000000
H        7.99244500       2.38375263       9.35587412       0.00000000       0.00000000       0.00000000
H        7.26145745       4.53035639       2.36838515       0.00000000       0.00000000       0.00000000
H        3.13059682       0.58495887       8.48614690       0.00000000       0.00000000       0.00000000
Pb       4.76032362       4.40481851      12.41802964       0.00000000       0.00000000       0.00000000
Pb       9.21497521       0.17639426       6.08646380       0.00000000       0.00000000       0.00000000
Pb       0.21951101       8.71655935      12.23064192       0.00000000       0.00000000       0.00000000
Pb       4.70007799       4.46784784       6.04032024       0.00000000       0.00000000       0.00000000
I        7.29387670       6.34030889       6.32479523       0.00000000       0.00000000       0.00000000
I        8.84945074       8.90094165       2.88188510       0.00000000       0.00000000       0.00000000
I        6.64094132       1.84710488      12.21483971       0.00000000       0.00000000       0.00000000
I        2.01017718       2.68367518       0.10162433       0.00000000       0.00000000       0.00000000
I        2.02565174       2.57233721       5.98353189       0.00000000       0.00000000       0.00000000
I        2.86363693       7.16287363       5.79697973       0.00000000       0.00000000       0.00000000
I        7.38008288       6.18637071      12.21631637       0.00000000       0.00000000       0.00000000
I        6.64261172       1.99128687       6.35080397       0.00000000       0.00000000       0.00000000
I        4.43366825       4.41662885       9.33295868       0.00000000       0.00000000       0.00000000
I        0.47209827       0.08117407       9.15170974       0.00000000       0.00000000       0.00000000
I        2.64702725       7.04530948       0.10876753       0.00000000       0.00000000       0.00000000
I        4.75815618       4.34724036       2.86791981       0.00000000       0.00000000       0.00000000
48
Lattice="9.165374022968736 0.09512652637833169 0.06778255840339069 0.09257816382712002 8.699633048919818 0.03920590701898934 0.09616595802982336 0.057154178489217305 12.487558572209785" Properties=species:S:1:pos:R:3:momenta:R:3 config_id=O-FAPI3_al_combined_05__combined_strain_rattle_fa_rotation__sev-0.468__seed-new phase=O-FAPI3 mode=active_learning seed=2205849989 seed_origin=new seed_origin_config_id= parity_master_seed new_master_seed=20260901 source=O-FAPI3/CONTCAR formula=C4H20I12N8Pb4 natoms=48 fa_groups="_JSON [[0, 4, 8, 12, 16, 28, 20, 24], [1, 5, 9, 13, 17, 29, 21, 25], [2, 10, 6, 14, 30, 18, 26, 22], [3, 11, 7, 15, 31, 19, 27, 23]]" cell_A="_JSON [[9.165374023, 0.0951265264, 0.0677825584], [0.0925781638, 8.6996330489, 0.039205907], [0.096165958, 0.0571541785, 12.4875585722]]" distortion_family=combined distortion_severity=0.468 rotations="_JSON [{\"fa_group\": 0, \"kind\": \"axis_angle\", \"angle_deg\": 44.212028, \"axis\": [0.19046513, -0.97825284, 0.08212442]}, {\"fa_group\": 3, \"kind\": \"axis_angle\", \"angle_deg\": 2.717982, \"axis\": [-0.53052708, -0.1588121, -0.83265824]}]" strain="_JSON [[0.01618558, 0.01054689, 0.0075152], [0.01054689, -0.00890144, 0.0044665], [0.0075152, 0.0044665, -0.02411877]]" rattle_target=all rattle_sigma_A=0.077075 distortion_label=combined_strain_rattle_fa_rotation minimum_distance_A=0.8026702877395635 minimum_pair_indices="_JSON [10, 26]" minimum_pair_symbols="_JSON [\"N\", \"H\"]" pbc="T T T"
C        4.46295397       0.35670308       3.32485869       0.00000000       0.00000000       0.00000000
C        0.20156690       4.09308482       9.46063520       0.00000000       0.00000000       0.00000000
C        0.10897666       4.74253184       3.08240798       0.00000000       0.00000000       0.00000000
C        4.61291280       8.42165661       9.46772458       0.00000000       0.00000000       0.00000000
N        5.48255204       8.32867433       3.08049670       0.00000000       0.00000000       0.00000000
N        0.63421250       5.02166198       8.66805900       0.00000000       0.00000000       0.00000000
N        1.19242943       5.03844273       2.89590894       0.00000000       0.00000000       0.00000000
N        5.84521226       7.94007540       9.41785337       0.00000000       0.00000000       0.00000000
N        3.61533966       0.57242648       2.24837731       0.00000000       0.00000000       0.00000000
N        7.99191282       3.79278026       9.44833109       0.00000000       0.00000000       0.00000000
N        8.63262883       3.84889554       2.35534410       0.00000000       0.00000000       0.00000000
N        4.12874976       0.53762138       8.50245023       0.00000000       0.00000000       0.00000000
H        4.24712391       0.65935481       4.22839011       0.00000000       0.00000000       0.00000000
H        0.77994917       3.59973046       9.96940015       0.00000000       0.00000000       0.00000000
H        8.52427784       5.22735413       4.08851510       0.00000000       0.00000000       0.00000000
H        4.11316400       7.87931498      10.22527406       0.00000000       0.00000000       0.00000000
H        6.19302602       7.91325194       3.72471471       0.00000000       0.00000000       0.00000000
H        1.74487639       5.16991789       8.77410970       0.00000000       0.00000000       0.00000000
H        1.55576619       5.84114065       3.65685611       0.00000000       0.00000000       0.00000000
H        6.21396137       7.52312303      10.05824718       0.00000000       0.00000000       0.00000000
H        5.61184616       7.84406212       2.06942444       0.00000000       0.00000000       0.00000000
H        0.46524325       5.30388061       7.88231490       0.00000000       0.00000000       0.00000000
H        2.00673147       4.69648851       2.30864570       0.00000000       0.00000000       0.00000000
H        6.70044546       8.47813460       8.70565340       0.00000000       0.00000000       0.00000000
H        3.54362560       0.37472699       1.40753924       0.00000000       0.00000000       0.00000000
H        7.39738247       4.21220866       8.76168987       0.00000000       0.00000000       0.00000000
H        9.05083128       3.49013096       1.77167100       0.00000000       0.00000000       0.00000000
H        4.49202332       1.21408889       7.73705559       0.00000000       0.00000000       0.00000000
H        2.82337343       1.23535887       2.64177042       0.00000000       0.00000000       0.00000000
H        7.73523672       3.12309804       9.96084354       0.00000000       0.00000000       0.00000000
H        7.55641753       3.74162311       2.71185160       0.00000000       0.00000000       0.00000000
H        3.08742198       0.97860947       8.57620541       0.00000000       0.00000000       0.00000000
Pb       4.81756324       4.38942916      12.34607314       0.00000000       0.00000000       0.00000000
Pb       0.16850291       8.66746495       6.03562155       0.00000000       0.00000000       0.00000000
Pb       9.28932540       8.60474987      12.28551954       0.00000000       0.00000000       0.00000000
Pb       4.67134565       4.59231327       5.95005612       0.00000000       0.00000000       0.00000000
I        7.11087246       6.20826173       6.36194705       0.00000000       0.00000000       0.00000000
I        8.86260404       8.65915030       3.04047951       0.00000000       0.00000000       0.00000000
I        6.69326236       1.70551467      12.10342705       0.00000000       0.00000000       0.00000000
I        1.82964896       2.58993785       0.10270239       0.00000000       0.00000000       0.00000000
I        2.01719301       2.60819254       5.73893472       0.00000000       0.00000000       0.00000000
I        2.78839781       6.93566210       5.83469364       0.00000000       0.00000000       0.00000000
I        7.46067545       6.27041318      12.20894276       0.00000000       0.00000000       0.00000000
I        6.55319996       1.87861304       6.30812159       0.00000000       0.00000000       0.00000000
I        4.22654335       4.53071289       9.18960806       0.00000000       0.00000000       0.00000000
I        0.39541650       8.68111142       9.30062017       0.00000000       0.00000000       0.00000000
I        2.85538975       6.93217161       0.08477698       0.00000000       0.00000000       0.00000000
I        5.05016452       4.56814117       2.90664359       0.00000000       0.00000000       0.00000000
48
Lattice="8.907770870795424 0.004397190710118414 0.0015178783942994027 0.004279393534474312 9.03539105020646 -0.10135029674704833 0.0021534777293574425 -0.1477479642904398 13.040284054714691" Properties=species:S:1:pos:R:3:momenta:R:3 config_id=O-FAPI3_al_combined_06__combined_strain_rattle_fa_rotation__sev-0.482__seed-new phase=O-FAPI3 mode=active_learning seed=2035766449 seed_origin=new seed_origin_config_id= parity_master_seed new_master_seed=20260901 source=O-FAPI3/CONTCAR formula=C4H20I12N8Pb4 natoms=48 fa_groups="_JSON [[0, 4, 8, 12, 16, 28, 20, 24], [1, 5, 9, 13, 17, 29, 21, 25], [2, 10, 6, 14, 30, 18, 26, 22], [3, 11, 7, 15, 31, 19, 27, 23]]" cell_A="_JSON [[8.9077708708, 0.0043971907, 0.0015178784], [0.0042793935, 9.0353910502, -0.1013502967], [0.0021534777, -0.1477479643, 13.0402840547]]" distortion_family=combined distortion_severity=0.482 rotations="_JSON [{\"fa_group\": 0, \"kind\": \"axis_angle\", \"angle_deg\": -41.061544, \"axis\": [-0.94679198, 0.02930799, 0.32050896]}, {\"fa_group\": 1, \"kind\": \"axis_angle\", \"angle_deg\": 41.517447, \"axis\": [0.38886771, -0.67747048, -0.62435219]}, {\"fa_group\": 2, \"kind\": \"axis_angle\", \"angle_deg\": 24.07145, \"axis\": [0.03161479, -0.96663623, -0.25419462]}, {\"fa_group\": 3, \"kind\": \"axis_angle\", \"angle_deg\": 24.616328, \"axis\": [0.84515386, 0.50927592, -0.16233603]}]" strain="_JSON [[-0.01237546, 0.00048753, 0.00016829], [0.00048753, 0.02934951, -0.01154625], [0.00016829, -0.01154625, 0.01907578]]" rattle_target=all rattle_sigma_A=0.078425 distortion_label=combined_strain_rattle_fa_rotation minimum_distance_A=0.9087367464851167 minimum_pair_indices="_JSON [11, 31]" minimum_pair_symbols="_JSON [\"N\", \"H\"]" pbc="T T T"
C        4.45919922       0.04855335       3.15267430       0.00000000       0.00000000       0.00000000
C        8.74412535       3.83621696       9.55215593       0.00000000       0.00000000       0.00000000
C        8.87752312       4.83983545       3.04861984       0.00000000       0.00000000       0.00000000
C        4.47501186       8.41453579       9.59323451       0.00000000       0.00000000       0.00000000
N        5.08070383       8.67034497       1.90125246       0.00000000       0.00000000       0.00000000
N        0.90796114       4.62261947       9.59524119       0.00000000       0.00000000       0.00000000
N        1.14692347       5.15475793       3.57157569       0.00000000       0.00000000       0.00000000
N        5.46158572       7.95976641       9.13558220       0.00000000       0.00000000       0.00000000
N        3.34664345       0.62081715       3.44035245       0.00000000       0.00000000       0.00000000
N        7.64899214       4.06895178       9.03125513       0.00000000       0.00000000       0.00000000
N        8.32073053       4.04062911       2.14312412       0.00000000       0.00000000       0.00000000
N        3.78226789       0.61159833       9.50774745       0.00000000       0.00000000       0.00000000
H        5.09634032       8.77234278       4.18882297       0.00000000       0.00000000       0.00000000
H        8.57943447       2.97267159      10.34361713       0.00000000       0.00000000       0.00000000
H        8.00953310       5.33691429       3.36340812       0.00000000       0.00000000       0.00000000
H        3.97784190       7.86269463      10.35357343       0.00000000       0.00000000       0.00000000
H        5.89115737       8.21987140       1.84189786       0.00000000       0.00000000       0.00000000
H        1.64661097       4.18916597      10.05602561       0.00000000       0.00000000       0.00000000
H        1.26631178       6.00391853       4.40587089       0.00000000       0.00000000       0.00000000
H        6.08104940       7.21763175       9.33970357       0.00000000       0.00000000       0.00000000
H        4.45665844       8.89135789       1.04057204       0.00000000       0.00000000       0.00000000
H        1.10686395       5.46595464       9.02084574       0.00000000       0.00000000       0.00000000
H        2.01455824       4.64836519       3.00483247       0.00000000       0.00000000       0.00000000
H        6.05265046       8.71322300       8.50512367       0.00000000       0.00000000       0.00000000
H        2.87641856       1.12890750       2.69669978       0.00000000       0.00000000       0.00000000
H        7.58656694       4.96068836       8.11225725       0.00000000       0.00000000       0.00000000
H        0.17359032       3.53264689       1.56715533       0.00000000       0.00000000       0.00000000
H        4.13651895       1.25186642       8.87853979       0.00000000       0.00000000       0.00000000
H        3.13874123       0.86733968       4.46475382       0.00000000       0.00000000       0.00000000
H        6.68982156       3.52772110       9.23675942       0.00000000       0.00000000       0.00000000
H        7.35606053       3.93512241       1.91374705       0.00000000       0.00000000       0.00000000
H        3.02152615       0.94858719       9.87314176       0.00000000       0.00000000       0.00000000
Pb       4.51032402       4.17413659      12.82157800       0.00000000       0.00000000       0.00000000
Pb       0.02616192       0.24128763       6.24146593       0.00000000       0.00000000       0.00000000
Pb       0.19862887       8.87789152      12.76506763       0.00000000       0.00000000       0.00000000
Pb       4.44672776       4.73316076       6.23560531       0.00000000       0.00000000       0.00000000
I        7.12185595       6.41575121       6.61633055       0.00000000       0.00000000       0.00000000
I        8.43034478       0.00705833       3.11284093       0.00000000       0.00000000       0.00000000
I        6.19640830       1.56843457      12.42508930       0.00000000       0.00000000       0.00000000
I        1.73320988       2.61274655       0.08217355       0.00000000       0.00000000       0.00000000
I        1.81941365       2.67139332       5.92507238       0.00000000       0.00000000       0.00000000
I        2.68773889       7.24202012       5.83546541       0.00000000       0.00000000       0.00000000
I        7.03975436       6.23926968      12.31645172       0.00000000       0.00000000       0.00000000
I        6.31232887       1.79444290       6.57740897       0.00000000       0.00000000       0.00000000
I        4.19942668       4.49521883       9.61307505       0.00000000       0.00000000       0.00000000
I        0.45527876      -0.04490029       9.58635813       0.00000000       0.00000000       0.00000000
I        2.70124130       7.12534182      -0.06024740       0.00000000       0.00000000       0.00000000
I        4.97620989       4.51181563       2.97435096       0.00000000       0.00000000       0.00000000
48
Lattice="8.942749296434249 -0.07303559252288794 0.09028795944329886 -0.0710790281871878 8.88772228610714 0.015250812573671713 0.12809531423629975 0.022232559586468716 12.576682700046462" Properties=species:S:1:pos:R:3:momenta:R:3 config_id=O-FAPI3_al_combined_07__combined_strain_rattle_fa_rotation__sev-0.497__seed-new phase=O-FAPI3 mode=active_learning seed=2861091372 seed_origin=new seed_origin_config_id= parity_master_seed new_master_seed=20260901 source=O-FAPI3/CONTCAR formula=C4H20I12N8Pb4 natoms=48 fa_groups="_JSON [[0, 4, 8, 12, 16, 28, 20, 24], [1, 5, 9, 13, 17, 29, 21, 25], [2, 10, 6, 14, 30, 18, 26, 22], [3, 11, 7, 15, 31, 19, 27, 23]]" cell_A="_JSON [[8.9427492964, -0.0730355925, 0.0902879594], [-0.0710790282, 8.8877222861, 0.0152508126], [0.1280953142, 0.0222325596, 12.5766827]]" distortion_family=combined distortion_severity=0.497 rotations="_JSON [{\"fa_group\": 0, \"kind\": \"axis_angle\", \"angle_deg\": -38.353618, \"axis\": [-0.0331188, 0.93703644, -0.34765767]}, {\"fa_group\": 1, \"kind\": \"axis_angle\", \"angle_deg\": 13.582646, \"axis\": [0.1056443, 0.1641433, -0.9807631]}, {\"fa_group\": 2, \"kind\": \"axis_angle\", \"angle_deg\": 38.842246, \"axis\": [-0.81828652, 0.49222693, 0.29684983]}, {\"fa_group\": 3, \"kind\": \"axis_angle\", \"angle_deg\": -27.294993, \"axis\": [-0.41417992, -0.90765503, 0.06795101]}]" strain="_JSON [[-0.00849733, -0.00809762, 0.01001043], [-0.00809762, 0.01252647, 0.00173744], [0.01001043, 0.00173744, -0.01715387]]" rattle_target=all rattle_sigma_A=0.079775 distortion_label=combined_strain_rattle_fa_rotation minimum_distance_A=0.8368170103220377 minimum_pair_indices="_JSON [5, 17]" minimum_pair_symbols="_JSON [\"N\", \"H\"]" pbc="T T T"
C        4.33150012       0.21771584       3.22332877       0.00000000       0.00000000       0.00000000
C        8.91472034       3.94259814       9.63005265       0.00000000       0.00000000       0.00000000
C        8.90661384       4.92842449       3.06948592       0.00000000       0.00000000       0.00000000
C        4.48530351       8.38228190       9.38896363       0.00000000       0.00000000       0.00000000
N        5.50943731       8.54111007       3.06231260       0.00000000       0.00000000       0.00000000
N        0.92641304       4.74344746       8.75473843       0.00000000       0.00000000       0.00000000
N        1.01985632       5.27725396       2.27246579       0.00000000       0.00000000       0.00000000
N        5.64977821       8.29124825       8.88148217       0.00000000       0.00000000       0.00000000
N        3.26620627       0.32866233       2.34061339       0.00000000       0.00000000       0.00000000
N        7.93429384       3.87744425       9.42198991       0.00000000       0.00000000       0.00000000
N        8.32016874       3.57796715       3.04837524       0.00000000       0.00000000       0.00000000
N        3.81745697       0.67494836       9.21105053       0.00000000       0.00000000       0.00000000
H        4.26786048       0.81730930       4.24905231       0.00000000       0.00000000       0.00000000
H        0.62664197       3.38991816      10.06800927       0.00000000       0.00000000       0.00000000
H        8.31517580       5.59051325       3.66742896       0.00000000       0.00000000       0.00000000
H        4.42029529       7.69967465      10.22803725       0.00000000       0.00000000       0.00000000
H        6.12759409       8.37879101       3.65332436       0.00000000       0.00000000       0.00000000
H        1.74427563       4.61218726       8.87362599       0.00000000       0.00000000       0.00000000
H        1.47307517       6.14631920       2.25083233       0.00000000       0.00000000       0.00000000
H        6.26826958       7.28970903       9.07068135       0.00000000       0.00000000       0.00000000
H        5.38398640       8.09151643       2.20918799       0.00000000       0.00000000       0.00000000
H        0.38011960       5.55055692       8.06386655       0.00000000       0.00000000       0.00000000
H        1.62285822       4.63727468       1.79543359       0.00000000       0.00000000       0.00000000
H        6.05788903       8.60751039       8.11096019       0.00000000       0.00000000       0.00000000
H        3.18149396       0.03282721       1.48047445       0.00000000       0.00000000       0.00000000
H        7.19846920       4.46703215       8.88008083       0.00000000       0.00000000       0.00000000
H        8.82259726       2.92128404       2.64420962       0.00000000       0.00000000       0.00000000
H        4.11163537       1.17884515       8.53263599       0.00000000       0.00000000       0.00000000
H        2.40874753       0.99482586       2.60873565       0.00000000       0.00000000       0.00000000
H        7.23986044       3.25190935      10.19566978       0.00000000       0.00000000       0.00000000
H        7.51557526       3.32692540       3.81069345       0.00000000       0.00000000       0.00000000
H        2.83243931       0.63309232       9.82665526       0.00000000       0.00000000       0.00000000
Pb       4.54081200       4.31861849      12.31852288       0.00000000       0.00000000       0.00000000
Pb       8.86259204       0.05254219       6.23520830       0.00000000       0.00000000       0.00000000
Pb       0.06704883       8.74036737      12.32491116       0.00000000       0.00000000       0.00000000
Pb       4.55978665       4.58778676       6.15468131       0.00000000       0.00000000       0.00000000
I        7.03836790       6.23547512       6.47121013       0.00000000       0.00000000       0.00000000
I        8.57195472      -0.05740603       3.07593849       0.00000000       0.00000000       0.00000000
I        6.44297308       1.59812559      12.16483822       0.00000000       0.00000000       0.00000000
I        1.63514742       2.42961427       0.22492491       0.00000000       0.00000000       0.00000000
I        1.78057619       2.73798743       5.96809476       0.00000000       0.00000000       0.00000000
I        2.70531943       6.93031824       5.85783306       0.00000000       0.00000000       0.00000000
I        7.08193030       6.18987320      12.30901583       0.00000000       0.00000000       0.00000000
I        6.27502799       1.82290361       6.23693124       0.00000000       0.00000000       0.00000000
I        4.18892866       4.40367535       9.33586070       0.00000000       0.00000000       0.00000000
I        0.43649124       0.05829200       9.25351367       0.00000000       0.00000000       0.00000000
I        2.64254550       6.96140168       0.25164844       0.00000000       0.00000000       0.00000000
I        4.77843326       4.30772253       3.02916517       0.00000000       0.00000000       0.00000000
48
Lattice="9.239251306561647 0.1125930133232633 -0.11907404658251612 0.10957673774162449 8.70629270077534 -0.029393111657633388 -0.16893534318885592 -0.042849133657848947 13.170712256527143" Properties=species:S:1:pos:R:3:momenta:R:3 config_id=O-FAPI3_al_combined_08__combined_strain_rattle_fa_rotation__sev-0.512__seed-parity phase=O-FAPI3 mode=active_learning seed=4222874943 seed_origin=parity seed_origin_config_id=O-FAPI3_parity_44__combined_strain_rattle_fa_rotation__sev-0.4 parity_master_seed=20260810 new_master_seed source=O-FAPI3/CONTCAR formula=C4H20I12N8Pb4 natoms=48 fa_groups="_JSON [[0, 4, 8, 12, 16, 28, 20, 24], [1, 5, 9, 13, 17, 29, 21, 25], [2, 10, 6, 14, 30, 18, 26, 22], [3, 11, 7, 15, 31, 19, 27, 23]]" cell_A="_JSON [[9.2392513066, 0.1125930133, -0.1190740466], [0.1095767377, 8.7062927008, -0.0293931117], [-0.1689353432, -0.0428491337, 13.1707122565]]" distortion_family=combined distortion_severity=0.512 rotations="_JSON [{\"fa_group\": 0, \"kind\": \"axis_angle\", \"angle_deg\": -16.633546, \"axis\": [0.4477785, 0.5976756, -0.66504007]}, {\"fa_group\": 1, \"kind\": \"axis_angle\", \"angle_deg\": 10.290552, \"axis\": [-0.60084339, -0.71968502, 0.34790902]}, {\"fa_group\": 3, \"kind\": \"axis_angle\", \"angle_deg\": 2.193611, \"axis\": [-0.17197275, -0.95531552, 0.24041138]}]" strain="_JSON [[0.02437652, 0.01248344, -0.01320201], [0.01248344, -0.00814275, -0.00334859], [-0.01320201, -0.00334859, 0.02926852]]" rattle_target=all rattle_sigma_A=0.081125 distortion_label=combined_strain_rattle_fa_rotation minimum_distance_A=0.7896145638369485 minimum_pair_indices="_JSON [10, 26]" minimum_pair_symbols="_JSON [\"N\", \"H\"]" pbc="T T T"
C        4.61888759       0.54147704       3.17437673       0.00000000       0.00000000       0.00000000
C        9.07979121       4.20225707       9.61993468       0.00000000       0.00000000       0.00000000
C        9.14459862       4.83012973       3.24069434       0.00000000       0.00000000       0.00000000
C        4.68579544       8.38790035       9.75382076       0.00000000       0.00000000       0.00000000
N        5.55813932       8.46347242       2.72736827       0.00000000       0.00000000       0.00000000
N        0.70056008       4.95048299       9.10870442       0.00000000       0.00000000       0.00000000
N        1.23551521       5.15191288       3.29108222       0.00000000       0.00000000       0.00000000
N        5.78260105       7.89970018       9.73007312       0.00000000       0.00000000       0.00000000
N        3.17103723       0.49329972       2.84940411       0.00000000       0.00000000       0.00000000
N        7.94255298       3.75315273       9.56459831       0.00000000       0.00000000       0.00000000
N        8.69253182       3.83400705       2.28049730       0.00000000       0.00000000       0.00000000
N        3.92586087       0.51827632       8.89660957       0.00000000       0.00000000       0.00000000
H        4.78526907       1.24718539       3.96525649       0.00000000       0.00000000       0.00000000
H        0.46715082       3.69651997      11.00986884       0.00000000       0.00000000       0.00000000
H        8.37259781       5.34642201       3.91055534       0.00000000       0.00000000       0.00000000
H        3.99106500       7.94154138      10.44450865       0.00000000       0.00000000       0.00000000
H        6.55472237       8.35760995       3.01205689       0.00000000       0.00000000       0.00000000
H        1.57495846       5.20998415       9.22725573       0.00000000       0.00000000       0.00000000
H        1.56577537       5.74565435       3.84810565       0.00000000       0.00000000       0.00000000
H        6.13512933       7.37356866      10.37216079       0.00000000       0.00000000       0.00000000
H        5.36295691       7.73492178       1.85144719       0.00000000       0.00000000       0.00000000
H        0.22200347       5.22284460       8.41258614       0.00000000       0.00000000       0.00000000
H        1.94330000       4.67506880       2.39625561       0.00000000       0.00000000       0.00000000
H        6.48562797       8.43096616       8.93488077       0.00000000       0.00000000       0.00000000
H        2.90831510       8.69133637       2.04112705       0.00000000       0.00000000       0.00000000
H        7.30228950       3.97251491       8.72248910       0.00000000       0.00000000       0.00000000
H        9.09829090       3.48700095       1.69874348       0.00000000       0.00000000       0.00000000
H        4.39963137       1.06116257       8.25190327       0.00000000       0.00000000       0.00000000
H        2.64523521       1.38172329       3.43802111       0.00000000       0.00000000       0.00000000
H        7.53115323       3.06178503      10.23705683       0.00000000       0.00000000       0.00000000
H        7.58227470       3.77185027       2.52980100       0.00000000       0.00000000       0.00000000
H        2.86807404       0.66981313       8.99463397       0.00000000       0.00000000       0.00000000
Pb       4.58999173       4.41314495      12.68856607       0.00000000       0.00000000       0.00000000
Pb       0.05451370       0.17769505       6.37323436       0.00000000       0.00000000       0.00000000
Pb       9.05737157       8.73690020      12.66756657       0.00000000       0.00000000       0.00000000
Pb       4.45592003       4.45482893       6.32816495       0.00000000       0.00000000       0.00000000
I        7.19741658       6.39859401       6.42701672       0.00000000       0.00000000       0.00000000
I        8.83027330       8.79278750       2.86997335       0.00000000       0.00000000       0.00000000
I        6.43812991       1.83790272      12.37342371       0.00000000       0.00000000       0.00000000
I        2.00032956       2.46893408       0.13090303       0.00000000       0.00000000       0.00000000
I        1.91239832       2.48667807       6.05775803       0.00000000       0.00000000       0.00000000
I        2.71247579       6.98382045       5.92396253       0.00000000       0.00000000       0.00000000
I        7.29255678       6.12518537      12.57106645       0.00000000       0.00000000       0.00000000
I        6.34896397       1.95006930       6.43057941       0.00000000       0.00000000       0.00000000
I        4.13887682       4.28442571       9.55079224       0.00000000       0.00000000       0.00000000
I        0.20804252      -0.02598509       9.62799022       0.00000000       0.00000000       0.00000000
I        2.79474614       6.95322474      -0.02176966       0.00000000       0.00000000       0.00000000
I        5.07257630       4.29619500       2.97397811       0.00000000       0.00000000       0.00000000
48
Lattice="9.148451011573151 0.07302162814987995 0.10133360266281007 0.07106543790841596 9.019655225925863 -0.03344404224035177 0.14376623146456982 -0.048754560344189235 13.177592026483714" Properties=species:S:1:pos:R:3:momenta:R:3 config_id=O-FAPI3_al_combined_09__combined_strain_rattle_fa_rotation__sev-0.527__seed-new phase=O-FAPI3 mode=active_learning seed=1735771584 seed_origin=new seed_origin_config_id= parity_master_seed new_master_seed=20260901 source=O-FAPI3/CONTCAR formula=C4H20I12N8Pb4 natoms=48 fa_groups="_JSON [[0, 4, 8, 12, 16, 28, 20, 24], [1, 5, 9, 13, 17, 29, 21, 25], [2, 10, 6, 14, 30, 18, 26, 22], [3, 11, 7, 15, 31, 19, 27, 23]]" cell_A="_JSON [[9.1484510116, 0.0730216281, 0.1013336027], [0.0710654379, 9.0196552259, -0.0334440422], [0.1437662315, -0.0487545603, 13.1775920265]]" distortion_family=combined distortion_severity=0.527 rotations="_JSON [{\"fa_group\": 0, \"kind\": \"axis_angle\", \"angle_deg\": -27.623735, \"axis\": [0.62917075, 0.39362935, 0.67022392]}, {\"fa_group\": 1, \"kind\": \"axis_angle\", \"angle_deg\": -6.853538, \"axis\": [-0.23710494, 0.49931982, -0.83334325]}, {\"fa_group\": 2, \"kind\": \"axis_angle\", \"angle_deg\": 40.364359, \"axis\": [-0.99011475, -0.0531383, 0.12980412]}, {\"fa_group\": 3, \"kind\": \"axis_angle\", \"angle_deg\": -24.275722, \"axis\": [0.82483788, 0.41037775, -0.38888632]}]" strain="_JSON [[0.01430928, 0.00809607, 0.01123508], [0.00809607, 0.02755682, -0.00381009], [0.01123508, -0.00381009, 0.02980616]]" rattle_target=all rattle_sigma_A=0.08247499999999999 distortion_label=combined_strain_rattle_fa_rotation minimum_distance_A=0.8790428053521913 minimum_pair_indices="_JSON [9, 25]" minimum_pair_symbols="_JSON [\"N\", \"H\"]" pbc="T T T"
C        4.63909881       0.34242575       3.37518362       0.00000000       0.00000000       0.00000000
C        0.34145317       4.19444330       9.88667675       0.00000000       0.00000000       0.00000000
C        0.12014009       4.88717960       3.11959644       0.00000000       0.00000000       0.00000000
C        4.67216131       8.65303232       9.97017377       0.00000000       0.00000000       0.00000000
N        5.12164388       8.21224647       2.98264741       0.00000000       0.00000000       0.00000000
N        0.82296965       5.27847872       9.08855584       0.00000000       0.00000000       0.00000000
N        1.07055887       5.50645681       2.73170232       0.00000000       0.00000000       0.00000000
N        6.03271586       8.50411141      10.18386513       0.00000000       0.00000000       0.00000000
N        3.67644626       0.94141075       2.84327444       0.00000000       0.00000000       0.00000000
N        8.08925899       3.77248630       9.74184799       0.00000000       0.00000000       0.00000000
N        8.74119583       3.75532386       3.09471868       0.00000000       0.00000000       0.00000000
N        3.96514491       0.23580232       8.68373924       0.00000000       0.00000000       0.00000000
H        5.31654722       0.97382529       4.08396395       0.00000000       0.00000000       0.00000000
H        0.79359357       3.77911041      10.58747344       0.00000000       0.00000000       0.00000000
H        8.43785190       5.92927938       3.52577711       0.00000000       0.00000000       0.00000000
H        4.01059014       8.49076424      10.68299241       0.00000000       0.00000000       0.00000000
H        5.96923337       7.87898123       3.24674183       0.00000000       0.00000000       0.00000000
H        1.64683870       5.40544377       9.43089872       0.00000000       0.00000000       0.00000000
H        1.56094865       6.25564007       2.92113415       0.00000000       0.00000000       0.00000000
H        6.31307796       8.14145939      11.01773750       0.00000000       0.00000000       0.00000000
H        4.50497154       7.59605848       2.28373737       0.00000000       0.00000000       0.00000000
H        9.28113740       5.73943722       8.40863275       0.00000000       0.00000000       0.00000000
H        1.93047639       4.55755515       2.50482731       0.00000000       0.00000000       0.00000000
H        6.76222964       8.89958256       9.35892799       0.00000000       0.00000000       0.00000000
H        2.98915842       0.52811266       2.12706919       0.00000000       0.00000000       0.00000000
H        7.63501150       4.06847674       9.04991943       0.00000000       0.00000000       0.00000000
H        0.11815674       2.99513469       2.73450435       0.00000000       0.00000000       0.00000000
H        4.56262783       0.40774008       7.92733786       0.00000000       0.00000000       0.00000000
H        3.50097996       2.00212315       3.29963151       0.00000000       0.00000000       0.00000000
H        7.87180988       2.82479921      10.55875991       0.00000000       0.00000000       0.00000000
H        7.58999393       3.50830621       3.53177826       0.00000000       0.00000000       0.00000000
H        2.89772949       0.23645904       8.71103400       0.00000000       0.00000000       0.00000000
Pb       4.66042047       4.42095239      12.91103953       0.00000000       0.00000000       0.00000000
Pb       0.14277682       0.08349414       6.39397937       0.00000000       0.00000000       0.00000000
Pb       9.31136030       8.94337061      13.02045392       0.00000000       0.00000000       0.00000000
Pb       4.73090109       4.71520174       6.42129913       0.00000000       0.00000000       0.00000000
I        7.48878790       6.44786278       6.76877596       0.00000000       0.00000000       0.00000000
I        8.72484355       8.94000794       3.18402641       0.00000000       0.00000000       0.00000000
I        6.60991932       1.64475734      12.81207613       0.00000000       0.00000000       0.00000000
I        2.07009336       2.60654661       0.06113732       0.00000000       0.00000000       0.00000000
I        1.99980017       2.78218925       6.13952234       0.00000000       0.00000000       0.00000000
I        2.73691147       7.26604927       6.15334016       0.00000000       0.00000000       0.00000000
I        7.45873842       6.41220827      12.81724118       0.00000000       0.00000000       0.00000000
I        6.44050920       1.93512406       6.66958766       0.00000000       0.00000000       0.00000000
I        4.32787526       4.52966365       9.65570244       0.00000000       0.00000000       0.00000000
I        0.42223950      -0.00493229       9.54439819       0.00000000       0.00000000       0.00000000
I        2.73504991       7.06767638       0.09631862       0.00000000       0.00000000       0.00000000
I        4.92944478       4.44926886       3.05362807       0.00000000       0.00000000       0.00000000
48
Lattice="8.688669284415575 0.051184016516613716 -0.06021785927018881 0.04981283819362126 8.934415840368246 0.07112325262617865 -0.08543360214820554 0.10368312798786758 12.656090806210965" Properties=species:S:1:pos:R:3:momenta:R:3 config_id=O-FAPI3_al_combined_10__combined_strain_rattle_fa_rotation__sev-0.542__seed-new phase=O-FAPI3 mode=active_learning seed=4198872199 seed_origin=new seed_origin_config_id= parity_master_seed new_master_seed=20260901 source=O-FAPI3/CONTCAR formula=C4H20I12N8Pb4 natoms=48 fa_groups="_JSON [[0, 4, 8, 12, 16, 28, 20, 24], [1, 5, 9, 13, 17, 29, 21, 25], [2, 10, 6, 14, 30, 18, 26, 22], [3, 11, 7, 15, 31, 19, 27, 23]]" cell_A="_JSON [[8.6886692844, 0.0511840165, -0.0602178593], [0.0498128382, 8.9344158404, 0.0711232526], [-0.0854336021, 0.103683128, 12.6560908062]]" distortion_family=combined distortion_severity=0.542 rotations="_JSON [{\"fa_group\": 0, \"kind\": \"axis_angle\", \"angle_deg\": 12.122408, \"axis\": [-0.55067538, -0.3516543, -0.75703096]}]" strain="_JSON [[-0.03666775, 0.00567489, -0.00667649], [0.00567489, 0.01784599, 0.00810266], [-0.00667649, 0.00810266, -0.01094826]]" rattle_target=all rattle_sigma_A=0.083825 distortion_label=combined_strain_rattle_fa_rotation minimum_distance_A=0.7209619346548377 minimum_pair_indices="_JSON [4, 16]" minimum_pair_symbols="_JSON [\"N\", \"H\"]" pbc="T T T"
C        4.46423073       0.27625140       3.00795144       0.00000000       0.00000000       0.00000000
C        8.60097553       4.19800043       9.24503393       0.00000000       0.00000000       0.00000000
C        8.54985626       4.98829575       3.10274587       0.00000000       0.00000000       0.00000000
C        4.31130527       8.73025194       9.40089903       0.00000000       0.00000000       0.00000000
N        4.99697162       8.14956844       2.58083515       0.00000000       0.00000000       0.00000000
N        0.50202555       5.17045173       8.63945928       0.00000000       0.00000000       0.00000000
N        1.19670793       5.28343652       3.11416651       0.00000000       0.00000000       0.00000000
N        5.49487549       8.35188977       9.36802987       0.00000000       0.00000000       0.00000000
N        3.24725677       1.05602303       2.73328560       0.00000000       0.00000000       0.00000000
N        7.65234688       3.85538065       9.29071621       0.00000000       0.00000000       0.00000000
N        8.02431825       3.93083066       2.23580446       0.00000000       0.00000000       0.00000000
N        3.63783606       0.74203392       8.81150162       0.00000000       0.00000000       0.00000000
H        4.99659433       0.95325634       3.81025584       0.00000000       0.00000000       0.00000000
H        0.65495096       3.67361146      10.29541209       0.00000000       0.00000000       0.00000000
H        8.04440466       5.52537713       3.82163203       0.00000000       0.00000000       0.00000000
H        3.81725957       8.22693126      10.23748276       0.00000000       0.00000000       0.00000000
H        5.65225989       7.86728377       2.68426994       0.00000000       0.00000000       0.00000000
H        1.52226571       5.28513301       8.83672212       0.00000000       0.00000000       0.00000000
H        1.52148211       5.92836235       3.62355414       0.00000000       0.00000000       0.00000000
H        5.83495312       7.69144958      10.08356738       0.00000000       0.00000000       0.00000000
H        4.35784376       7.69523084       1.81518508       0.00000000       0.00000000       0.00000000
H        0.15788612       5.59344846       8.06169345       0.00000000       0.00000000       0.00000000
H        1.95836671       4.82153152       2.45187460       0.00000000       0.00000000       0.00000000
H        6.07328934       8.64536424       8.57388569       0.00000000       0.00000000       0.00000000
H        2.65885200       0.56663945       2.27839066       0.00000000       0.00000000       0.00000000
H        7.02212005       4.23525682       8.62118255       0.00000000       0.00000000       0.00000000
H        0.02128570       3.42805143       1.68687679       0.00000000       0.00000000       0.00000000
H        4.21746770       1.20325131       8.00610147       0.00000000       0.00000000       0.00000000
H        2.92834896       1.82997286       3.42126782       0.00000000       0.00000000       0.00000000
H        7.11020063       3.16244158      10.02087308       0.00000000       0.00000000       0.00000000
H        7.13365928       3.74631876       2.35050875       0.00000000       0.00000000       0.00000000
H        2.71514499       0.84923349       8.71478726       0.00000000       0.00000000       0.00000000
Pb       4.46038169       4.47678775      12.48799084       0.00000000       0.00000000       0.00000000
Pb       8.57213780       0.14367248       6.08372183       0.00000000       0.00000000       0.00000000
Pb       0.02375908       8.82698883      12.48408390       0.00000000       0.00000000       0.00000000
Pb       4.23808049       4.57483267       5.99006590       0.00000000       0.00000000       0.00000000
I        7.06030283       6.53341016       6.41136244       0.00000000       0.00000000       0.00000000
I        8.41564291       8.94101747       2.99960280       0.00000000       0.00000000       0.00000000
I        6.08950589       1.85766214      12.16941589       0.00000000       0.00000000       0.00000000
I        1.77118283       2.57107244       0.09213101       0.00000000       0.00000000       0.00000000
I        1.98281427       2.82354693       5.80914396       0.00000000       0.00000000       0.00000000
I        2.62813686       7.14711202       5.78103253       0.00000000       0.00000000       0.00000000
I        6.85518486       6.20951527      12.05424690       0.00000000       0.00000000       0.00000000
I        6.08985919       1.92890361       6.23389843       0.00000000       0.00000000       0.00000000
I        3.99485260       4.68561251       9.21268570       0.00000000       0.00000000       0.00000000
I        0.19127795       0.20489773       9.19901438       0.00000000       0.00000000       0.00000000
I        2.80871035       7.03519118       0.08854376       0.00000000       0.00000000       0.00000000
I        4.74251633       4.45475667       2.91964831       0.00000000       0.00000000       0.00000000
48
Lattice="9.35350996457742 0.006993646047651621 0.011957682164112358 0.006806291937680414 8.966774591757705 0.05353946114549592 0.01696486512480877 0.07804956322127884 12.841059776450187" Properties=species:S:1:pos:R:3:momenta:R:3 config_id=O-FAPI3_al_combined_11__combined_strain_rattle_fa_rotation__sev-0.557__seed-new phase=O-FAPI3 mode=active_learning seed=1922154077 seed_origin=new seed_origin_config_id= parity_master_seed new_master_seed=20260901 source=O-FAPI3/CONTCAR formula=C4H20I12N8Pb4 natoms=48 fa_groups="_JSON [[0, 4, 8, 12, 16, 28, 20, 24], [1, 5, 9, 13, 17, 29, 21, 25], [2, 10, 6, 14, 30, 18, 26, 22], [3, 11, 7, 15, 31, 19, 27, 23]]" cell_A="_JSON [[9.3535099646, 0.006993646, 0.0119576822], [0.0068062919, 8.9667745918, 0.0535394611], [0.0169648651, 0.0780495632, 12.8410597765]]" distortion_family=combined distortion_severity=0.557 rotations="_JSON [{\"fa_group\": 0, \"kind\": \"axis_angle\", \"angle_deg\": 20.472177, \"axis\": [0.42957992, -0.90264334, 0.02638355]}, {\"fa_group\": 1, \"kind\": \"axis_angle\", \"angle_deg\": -6.240774, \"axis\": [-0.32199266, -0.9179605, -0.23166626]}, {\"fa_group\": 2, \"kind\": \"axis_angle\", \"angle_deg\": -31.109209, \"axis\": [-0.80342653, -0.27510517, -0.52803689]}, {\"fa_group\": 3, \"kind\": \"axis_angle\", \"angle_deg\": -41.985473, \"axis\": [-0.09239587, 0.92132225, -0.37766163]}]" strain="_JSON [[0.03704463, 0.0007754, 0.00132578], [0.0007754, 0.02153244, 0.00609944], [0.00132578, 0.00609944, 0.00350675]]" rattle_target=all rattle_sigma_A=0.085175 distortion_label=combined_strain_rattle_fa_rotation minimum_distance_A=0.881148461151957 minimum_pair_indices="_JSON [6, 22]" minimum_pair_symbols="_JSON [\"N\", \"H\"]" pbc="T T T"
C        4.73308243       0.38887505       3.33473393       0.00000000       0.00000000       0.00000000
C        0.13872219       4.22948863       9.60502792       0.00000000       0.00000000       0.00000000
C        9.23898356       4.66413160       3.22292893       0.00000000       0.00000000       0.00000000
C        4.54021973       8.62828427       9.42392042       0.00000000       0.00000000       0.00000000
N        5.42373070       8.42596154       2.78202174       0.00000000       0.00000000       0.00000000
N        0.70020968       4.90310099       8.90568257       0.00000000       0.00000000       0.00000000
N        1.13001536       5.54988360       3.20131216       0.00000000       0.00000000       0.00000000
N        5.47752815       8.64377263      10.21000727       0.00000000       0.00000000       0.00000000
N        3.46781512       0.80869776       2.67116598       0.00000000       0.00000000       0.00000000
N        8.15905643       3.82306712       9.71808096       0.00000000       0.00000000       0.00000000
N        8.81449160       3.95677751       2.31305226       0.00000000       0.00000000       0.00000000
N        4.38370104       0.48726052       8.50314187       0.00000000       0.00000000       0.00000000
H        4.93954345       0.69589886       4.13459729       0.00000000       0.00000000       0.00000000
H        0.72254675       3.72810636      10.25869444       0.00000000       0.00000000       0.00000000
H        8.80036954       4.67985144       4.43063446       0.00000000       0.00000000       0.00000000
H        3.72046727       7.92275996       9.63991780       0.00000000       0.00000000       0.00000000
H        6.59826389       8.23188609       3.04244623       0.00000000       0.00000000       0.00000000
H        1.53612952       5.40808267       8.77287085       0.00000000       0.00000000       0.00000000
H        1.35243276       5.94378842       4.13023641       0.00000000       0.00000000       0.00000000
H        5.86369671       7.83754829      10.98146425       0.00000000       0.00000000       0.00000000
H        5.15389497       8.03261457       1.76578356       0.00000000       0.00000000       0.00000000
H        0.06691807       5.71407844       8.22469592       0.00000000       0.00000000       0.00000000
H        1.71492626       5.42231814       2.55476061       0.00000000       0.00000000       0.00000000
H        6.58952336       0.20098965       9.98714479       0.00000000       0.00000000       0.00000000
H        2.90700332       0.34241267       2.00050565       0.00000000       0.00000000       0.00000000
H        7.35695556       4.15952930       8.82731620       0.00000000       0.00000000       0.00000000
H        9.30459863       3.99428874       1.35101542       0.00000000       0.00000000       0.00000000
H        4.94750864       1.20197609       8.27555269       0.00000000       0.00000000       0.00000000
H        2.89739402       1.53050609       3.48178476       0.00000000       0.00000000       0.00000000
H        7.81528131       3.18562525      10.34544889       0.00000000       0.00000000       0.00000000
H        7.94815193       3.38703397       2.32762172       0.00000000       0.00000000       0.00000000
H        3.62584127       0.42909953       7.82729850       0.00000000       0.00000000       0.00000000
Pb       4.68129853       4.46588763      12.72852041       0.00000000       0.00000000       0.00000000
Pb       0.02233181       0.06249079       6.08519435       0.00000000       0.00000000       0.00000000
Pb       9.22601291       0.19831837      12.64701661       0.00000000       0.00000000       0.00000000
Pb       4.62278940       4.58055892       6.21070154       0.00000000       0.00000000       0.00000000
I        7.42828476       6.46991429       6.81868725       0.00000000       0.00000000       0.00000000
I        9.01372295       8.98643642       3.14997558       0.00000000       0.00000000       0.00000000
I        6.45760786       2.00641296      12.27307386       0.00000000       0.00000000       0.00000000
I        1.97253146       2.73798428      12.84158006       0.00000000       0.00000000       0.00000000
I        1.85326598       2.81613661       5.90941982       0.00000000       0.00000000       0.00000000
I        2.77496105       7.28797692       6.00278206       0.00000000       0.00000000       0.00000000
I        7.52419284       6.30807011      12.37610267       0.00000000       0.00000000       0.00000000
I        6.47745895       1.91657021       6.62325331       0.00000000       0.00000000       0.00000000
I        4.28879277       4.63210162       9.50291039       0.00000000       0.00000000       0.00000000
I        0.32156075       0.17944171       9.35898429       0.00000000       0.00000000       0.00000000
I        2.70012263       7.10671702       0.12254393       0.00000000       0.00000000       0.00000000
I        5.10953718       4.47406947       2.98146307       0.00000000       0.00000000       0.00000000
48
Lattice="9.016477688469585 -0.07453404513643072 0.1344442622831159 -0.07253733846955861 8.828429645889868 -0.09140260283707674 0.1907417127445272 -0.13324626501815312 12.484520320489413" Properties=species:S:1:pos:R:3:momenta:R:3 config_id=O-FAPI3_al_combined_12__combined_strain_rattle_fa_rotation__sev-0.573__seed-new phase=O-FAPI3 mode=active_learning seed=1728452832 seed_origin=new seed_origin_config_id= parity_master_seed new_master_seed=20260901 source=O-FAPI3/CONTCAR formula=C4H20I12N8Pb4 natoms=48 fa_groups="_JSON [[0, 4, 8, 12, 16, 28, 20, 24], [1, 5, 9, 13, 17, 29, 21, 25], [2, 10, 6, 14, 30, 18, 26, 22], [3, 11, 7, 15, 31, 19, 27, 23]]" cell_A="_JSON [[9.0164776885, -0.0745340451, 0.1344442623], [-0.0725373385, 8.8284296459, -0.0914026028], [0.1907417127, -0.133246265, 12.4845203205]]" distortion_family=combined distortion_severity=0.573 rotations="_JSON [{\"fa_group\": 1, \"kind\": \"axis_angle\", \"angle_deg\": 8.274595, \"axis\": [-0.68275568, 0.34768129, -0.64262151]}]" strain="_JSON [[-0.00032289, -0.00826376, 0.01490614], [-0.00826376, 0.0057716, -0.01041297], [0.01490614, -0.01041297, -0.0243562]]" rattle_target=all rattle_sigma_A=0.086525 distortion_label=combined_strain_rattle_fa_rotation minimum_distance_A=0.7157302758572414 minimum_pair_indices="_JSON [6, 22]" minimum_pair_symbols="_JSON [\"N\", \"H\"]" pbc="T T T"
C        4.52031302       0.35854129       3.13492832       0.00000000       0.00000000       0.00000000
C        0.14049031       3.95224008       9.43231174       0.00000000       0.00000000       0.00000000
C        8.88545552       4.57187297       3.08648128       0.00000000       0.00000000       0.00000000
C        4.53899971       8.25001421       9.38803034       0.00000000       0.00000000       0.00000000
N        4.93517769       8.06097969       2.31115056       0.00000000       0.00000000       0.00000000
N        0.80434005       4.74583149       8.61158920       0.00000000       0.00000000       0.00000000
N        1.12489299       5.03992560       2.89091600       0.00000000       0.00000000       0.00000000
N        5.77307349       8.01913721       9.15184510       0.00000000       0.00000000       0.00000000
N        3.37540295       0.65055807       3.11132265       0.00000000       0.00000000       0.00000000
N        7.98383684       3.65237396       9.39170248       0.00000000       0.00000000       0.00000000
N        8.47928599       3.79087091       2.60007151       0.00000000       0.00000000       0.00000000
N        4.03995466       0.35053883       8.57624556       0.00000000       0.00000000       0.00000000
H        5.25620340       0.86694389       3.88646503       0.00000000       0.00000000       0.00000000
H        0.68301128       3.49106120      10.11229448       0.00000000       0.00000000       0.00000000
H        8.23310763       5.15822193       3.84544356       0.00000000       0.00000000       0.00000000
H        4.02753760       7.77992496      10.29922582       0.00000000       0.00000000       0.00000000
H        6.17884090       8.00398193       2.47481225       0.00000000       0.00000000       0.00000000
H        1.78900068       4.81394965       8.46326223       0.00000000       0.00000000       0.00000000
H        1.57069957       5.91741657       3.47035766       0.00000000       0.00000000       0.00000000
H        6.31917456       7.16677394       9.81466517       0.00000000       0.00000000       0.00000000
H        4.58335676       7.85480837       1.56109366       0.00000000       0.00000000       0.00000000
H        0.24523941       5.29487282       7.83128743       0.00000000       0.00000000       0.00000000
H        1.63076671       4.75072435       2.47531493       0.00000000       0.00000000       0.00000000
H        6.45489473       8.49214295       8.49954984       0.00000000       0.00000000       0.00000000
H        2.89088961       0.14887918       2.38631409       0.00000000       0.00000000       0.00000000
H        7.27609246       4.10084589       8.75010636       0.00000000       0.00000000       0.00000000
H        8.79923022       3.25207670       1.66635250       0.00000000       0.00000000       0.00000000
H        4.45912093       0.83202310       7.85132364       0.00000000       0.00000000       0.00000000
H        2.94012520       1.27286361       3.79094567       0.00000000       0.00000000       0.00000000
H        7.37649724       3.08344329      10.24633910       0.00000000       0.00000000       0.00000000
H        7.39168151       3.50798385       2.65563819       0.00000000       0.00000000       0.00000000
H        3.04654031       0.59159967       8.75132880       0.00000000       0.00000000       0.00000000
Pb       4.57789686       4.07682932      12.24111992       0.00000000       0.00000000       0.00000000
Pb       0.05906593       8.75956359       5.89731395       0.00000000       0.00000000       0.00000000
Pb       9.04546989       8.51122883      12.15832375       0.00000000       0.00000000       0.00000000
Pb       4.42190739       4.51270039       6.06538926       0.00000000       0.00000000       0.00000000
I        7.38766068       6.23919408       6.13660669       0.00000000       0.00000000       0.00000000
I        8.89123195      -0.09126450       3.14135514       0.00000000       0.00000000       0.00000000
I        6.54930068       1.50660818      12.00418108       0.00000000       0.00000000       0.00000000
I        1.94765415       2.52833392       0.04050165       0.00000000       0.00000000       0.00000000
I        2.10763152       2.51495042       5.77622567       0.00000000       0.00000000       0.00000000
I        2.80479696       6.96551266       5.67514869       0.00000000       0.00000000       0.00000000
I        7.35010524       5.73599806      12.10390825       0.00000000       0.00000000       0.00000000
I        6.35220169       1.74744190       6.21237898       0.00000000       0.00000000       0.00000000
I        4.28821503       4.37112932       9.17300108       0.00000000       0.00000000       0.00000000
I        0.43116815       8.69334137       9.18568245       0.00000000       0.00000000       0.00000000
I        2.61650600       6.95071394       0.06495585       0.00000000       0.00000000       0.00000000
I        4.99730037       4.40313525       2.91406032       0.00000000       0.00000000       0.00000000
48
Lattice="8.718500368966849 0.03276276661162932 0.1301533336363046 0.03188507864502464 8.737553363167727 0.031223348124777124 0.1846539923356502 0.045517243380956286 12.703429493092864" Properties=species:S:1:pos:R:3:momenta:R:3 config_id=O-FAPI3_al_combined_13__combined_strain_rattle_fa_rotation__sev-0.588__seed-parity phase=O-FAPI3 mode=active_learning seed=502609238 seed_origin=parity seed_origin_config_id=O-FAPI3_parity_47__combined_strain_rattle_fa_rotation__sev-0.7 parity_master_seed=20260810 new_master_seed source=O-FAPI3/CONTCAR formula=C4H20I12N8Pb4 natoms=48 fa_groups="_JSON [[0, 4, 8, 12, 16, 28, 20, 24], [1, 5, 9, 13, 17, 29, 21, 25], [2, 10, 6, 14, 30, 18, 26, 22], [3, 11, 7, 15, 31, 19, 27, 23]]" cell_A="_JSON [[8.718500369, 0.0327627666, 0.1301533336], [0.0318850786, 8.7375533632, 0.0312233481], [0.1846539923, 0.0455172434, 12.7034294931]]" distortion_family=combined distortion_severity=0.588 rotations="_JSON [{\"fa_group\": 0, \"kind\": \"axis_angle\", \"angle_deg\": 0.356174, \"axis\": [0.8041, -0.50803162, 0.30875082]}, {\"fa_group\": 1, \"kind\": \"axis_angle\", \"angle_deg\": 44.614295, \"axis\": [-0.98623037, -0.16358268, -0.0242973]}, {\"fa_group\": 2, \"kind\": \"axis_angle\", \"angle_deg\": 19.235328, \"axis\": [-0.12812582, 0.25367292, -0.95876682]}]" strain="_JSON [[-0.03336031, 0.00363248, 0.01443039], [0.00363248, -0.0045814, 0.00355709], [0.01443039, 0.00355709, -0.00724882]]" rattle_target=all rattle_sigma_A=0.08787500000000001 distortion_label=combined_strain_rattle_fa_rotation minimum_distance_A=0.7880990040058341 minimum_pair_indices="_JSON [10, 26]" minimum_pair_symbols="_JSON [\"N\", \"H\"]" pbc="T T T"
C        4.52217024       0.43857441       3.29340754       0.00000000       0.00000000       0.00000000
C        0.39449693       4.32694874       9.58296378       0.00000000       0.00000000       0.00000000
C        8.72684267       4.83959768       3.14900700       0.00000000       0.00000000       0.00000000
C        4.32371563       8.36358455       9.51143601       0.00000000       0.00000000       0.00000000
N        5.09716614       8.20889539       2.46619279       0.00000000       0.00000000       0.00000000
N        0.89156690       4.60739475       8.48907154       0.00000000       0.00000000       0.00000000
N        1.26592180       4.82235258       2.86651736       0.00000000       0.00000000       0.00000000
N        5.62426872       8.18660233       9.65863398       0.00000000       0.00000000       0.00000000
N        3.24608713       0.74744309       3.16665676       0.00000000       0.00000000       0.00000000
N        7.72893582       4.07179239       9.64899003       0.00000000       0.00000000       0.00000000
N        7.96125308       4.11669056       2.48230942       0.00000000       0.00000000       0.00000000
N        4.04831115       0.47563201       8.72894689       0.00000000       0.00000000       0.00000000
H        4.88638793       0.70150843       4.10704093       0.00000000       0.00000000       0.00000000
H        0.77077403       4.65930804      10.53992400       0.00000000       0.00000000       0.00000000
H        8.44537385       5.68527014       4.10789920       0.00000000       0.00000000       0.00000000
H        3.99746851       7.83608981      10.39701083       0.00000000       0.00000000       0.00000000
H        5.99132079       7.93873616       2.42094637       0.00000000       0.00000000       0.00000000
H        1.70361843       4.78601646       8.44315566       0.00000000       0.00000000       0.00000000
H        1.91019693       5.40855915       3.49136950       0.00000000       0.00000000       0.00000000
H        5.99288641       7.26512659      10.04222889       0.00000000       0.00000000       0.00000000
H        4.64767296       7.72840506       1.84976801       0.00000000       0.00000000       0.00000000
H        0.63530628       4.23776552       7.64068676       0.00000000       0.00000000       0.00000000
H        1.63141064       4.06888762       2.22874566       0.00000000       0.00000000       0.00000000
H        6.30404013       8.29951164       8.97501040       0.00000000       0.00000000       0.00000000
H        2.62723163       0.32675948       2.45918611       0.00000000       0.00000000       0.00000000
H        7.10607548       3.73581919       8.92247854       0.00000000       0.00000000       0.00000000
H        8.19277911       3.54786659       1.98841163       0.00000000       0.00000000       0.00000000
H        4.35222369       1.07470334       7.99587844       0.00000000       0.00000000       0.00000000
H        2.97241040       1.42355142       3.77760473       0.00000000       0.00000000       0.00000000
H        7.22058430       3.94382494      10.69610858       0.00000000       0.00000000       0.00000000
H        7.10876007       4.26353283       2.90369659       0.00000000       0.00000000       0.00000000
H        2.91756339       0.80456483       8.80705249       0.00000000       0.00000000       0.00000000
Pb       4.41776588       4.30554528      12.54378178       0.00000000       0.00000000       0.00000000
Pb       0.17690854       0.16148881       5.97200638       0.00000000       0.00000000       0.00000000
Pb       8.76817421       8.66534881      12.58342515       0.00000000       0.00000000       0.00000000
Pb       4.32229060       4.57795874       6.20219971       0.00000000       0.00000000       0.00000000
I        6.94521701       6.25838178       6.57057975       0.00000000       0.00000000       0.00000000
I        8.41404764       8.70995705       3.12816712       0.00000000       0.00000000       0.00000000
I        6.29532222       1.72830423      12.36983694       0.00000000       0.00000000       0.00000000
I        1.92007055       2.49128516       0.09971062       0.00000000       0.00000000       0.00000000
I        1.85083543       2.54693048       5.97439301       0.00000000       0.00000000       0.00000000
I        2.56233547       6.96619271       6.13844645       0.00000000       0.00000000       0.00000000
I        6.95899688       6.17956969      12.29919894       0.00000000       0.00000000       0.00000000
I        6.27960836       1.91421270       6.32186516       0.00000000       0.00000000       0.00000000
I        4.13152804       4.35050684       9.45532799       0.00000000       0.00000000       0.00000000
I        0.43527308       8.76589432       9.36677534       0.00000000       0.00000000       0.00000000
I        2.60548872       6.87445995       0.12809595       0.00000000       0.00000000       0.00000000
I        4.86293429       4.32348340       3.05745287       0.00000000       0.00000000       0.00000000
48
Lattice="8.941073632941318 -0.12190486367278944 0.04497040815645583 -0.1186391311666032 8.869104381884645 0.04134087941256078 0.06380140385998512 0.06026653074758062 13.088958342596227" Properties=species:S:1:pos:R:3:momenta:R:3 config_id=O-FAPI3_al_combined_14__combined_strain_rattle_fa_rotation__sev-0.603__seed-new phase=O-FAPI3 mode=active_learning seed=288956641 seed_origin=new seed_origin_config_id= parity_master_seed new_master_seed=20260901 source=O-FAPI3/CONTCAR formula=C4H20I12N8Pb4 natoms=48 fa_groups="_JSON [[0, 4, 8, 12, 16, 28, 20, 24], [1, 5, 9, 13, 17, 29, 21, 25], [2, 10, 6, 14, 30, 18, 26, 22], [3, 11, 7, 15, 31, 19, 27, 23]]" cell_A="_JSON [[8.9410736329, -0.1219048637, 0.0449704082], [-0.1186391312, 8.8691043819, 0.0413408794], [0.0638014039, 0.0602665307, 13.0889583426]]" distortion_family=combined distortion_severity=0.603 rotations="_JSON [{\"fa_group\": 0, \"kind\": \"axis_angle\", \"angle_deg\": -44.506274, \"axis\": [0.09259552, 0.11547126, -0.98898557]}, {\"fa_group\": 1, \"kind\": \"axis_angle\", \"angle_deg\": 13.921906, \"axis\": [0.55052225, 0.04061149, -0.83383209]}, {\"fa_group\": 2, \"kind\": \"axis_angle\", \"angle_deg\": 3.164374, \"axis\": [-0.30917181, 0.23433738, 0.92168259]}, {\"fa_group\": 3, \"kind\": \"axis_angle\", \"angle_deg\": -7.751608, \"axis\": [0.72021378, 0.36354943, -0.5908671]}]" strain="_JSON [[-0.00868311, -0.01351587, 0.00498597], [-0.01351587, 0.01040544, 0.00470973], [0.00498597, 0.00470973, 0.02287959]]" rattle_target=all rattle_sigma_A=0.089225 distortion_label=combined_strain_rattle_fa_rotation minimum_distance_A=0.7695242351161835 minimum_pair_indices="_JSON [11, 31]" minimum_pair_symbols="_JSON [\"N\", \"H\"]" pbc="T T T"
C        4.35118685       0.32161566       3.29477774       0.00000000       0.00000000       0.00000000
C        8.84826563       3.86495426       9.85947371       0.00000000       0.00000000       0.00000000
C        8.73665083       4.64099289       3.41897804       0.00000000       0.00000000       0.00000000
C        4.31870257       8.52024977       9.84878392       0.00000000       0.00000000       0.00000000
N        5.27112459       0.26252059       2.60231438       0.00000000       0.00000000       0.00000000
N        0.73618859       4.87884282       9.21912681       0.00000000       0.00000000       0.00000000
N        1.04032160       5.24539118       3.09962098       0.00000000       0.00000000       0.00000000
N        5.63731820       8.15496519       9.99916759       0.00000000       0.00000000       0.00000000
N        2.83876270       8.78117543       2.99961934       0.00000000       0.00000000       0.00000000
N        7.78389434       3.77265049       9.69736904       0.00000000       0.00000000       0.00000000
N        8.22897780       3.82007722       2.46291128       0.00000000       0.00000000       0.00000000
N        3.75850785       0.53977049       8.91009812       0.00000000       0.00000000       0.00000000
H        4.29750355       1.25695515       3.89345964       0.00000000       0.00000000       0.00000000
H        0.50448673       3.40068337      10.50657040       0.00000000       0.00000000       0.00000000
H        8.21697968       5.19472087       3.97868723       0.00000000       0.00000000       0.00000000
H        3.62523886       8.11073015      10.59830056       0.00000000       0.00000000       0.00000000
H        6.28669849       0.68200395       2.70561418       0.00000000       0.00000000       0.00000000
H        1.58521792       4.93366431       9.23071687       0.00000000       0.00000000       0.00000000
H        1.49342949       5.89322030       3.77148692       0.00000000       0.00000000       0.00000000
H        5.98318178       7.65224361      10.60784479       0.00000000       0.00000000       0.00000000
H        5.42091148       8.28044671       1.81353835       0.00000000       0.00000000       0.00000000
H        0.31537942       5.57492347       8.50686683       0.00000000       0.00000000       0.00000000
H        1.68749738       4.86376369       2.48338842       0.00000000       0.00000000       0.00000000
H        6.42908043       8.54590131       9.05026549       0.00000000       0.00000000       0.00000000
H        2.95649475       8.07978579       2.50787853       0.00000000       0.00000000       0.00000000
H        7.24785034       4.50000006       9.14738382       0.00000000       0.00000000       0.00000000
H        0.01700166       3.41358013       1.70110939       0.00000000       0.00000000       0.00000000
H        4.44031569       0.99371913       8.04143180       0.00000000       0.00000000       0.00000000
H        2.35578760       0.13108041       3.60110920       0.00000000       0.00000000       0.00000000
H        7.16412206       3.11223833      10.31094539       0.00000000       0.00000000       0.00000000
H        7.30770463       3.51963543       2.74898407       0.00000000       0.00000000       0.00000000
H        3.00925419       0.65594179       9.04159235       0.00000000       0.00000000       0.00000000
Pb       4.51038595       4.40220673      12.87820803       0.00000000       0.00000000       0.00000000
Pb       0.09013218       0.13026503       6.28194539       0.00000000       0.00000000       0.00000000
Pb       8.98105219       0.05816474      12.98366323       0.00000000       0.00000000       0.00000000
Pb       4.34292402       4.42773301       6.15827259       0.00000000       0.00000000       0.00000000
I        7.11337464       6.22495399       6.73196568       0.00000000       0.00000000       0.00000000
I        8.57573317       8.56546912       2.97795275       0.00000000       0.00000000       0.00000000
I        6.17375852       1.57782816      12.57660884       0.00000000       0.00000000       0.00000000
I        1.92809540       2.48746165      12.99915681       0.00000000       0.00000000       0.00000000
I        1.90014636       2.73044713       6.19835581       0.00000000       0.00000000       0.00000000
I        2.43835097       7.23543493       5.97612710       0.00000000       0.00000000       0.00000000
I        7.19126264       6.19171590      12.66981262       0.00000000       0.00000000       0.00000000
I        6.38289276       1.82905649       6.61055970       0.00000000       0.00000000       0.00000000
I        4.18784939       4.32955791       9.58198104       0.00000000       0.00000000       0.00000000
I        0.13032958       8.87594107       9.65055257       0.00000000       0.00000000       0.00000000
I        2.73600918       7.21991059      13.10867626       0.00000000       0.00000000       0.00000000
I        4.81949141       4.30069447       3.14163881       0.00000000       0.00000000       0.00000000
48
Lattice="8.798354703756575 -0.10492901952097733 -0.0351190617000088 -0.10211805612240708 8.715736712205114 0.0748122464953657 -0.04982488553162789 0.10906092511275044 12.491427744318912" Properties=species:S:1:pos:R:3:momenta:R:3 config_id=O-FAPI3_al_combined_15__combined_strain_rattle_fa_rotation__sev-0.618__seed-new phase=O-FAPI3 mode=active_learning seed=3566607901 seed_origin=new seed_origin_config_id= parity_master_seed new_master_seed=20260901 source=O-FAPI3/CONTCAR formula=C4H20I12N8Pb4 natoms=48 fa_groups="_JSON [[0, 4, 8, 12, 16, 28, 20, 24], [1, 5, 9, 13, 17, 29, 21, 25], [2, 10, 6, 14, 30, 18, 26, 22], [3, 11, 7, 15, 31, 19, 27, 23]]" cell_A="_JSON [[8.7983547038, -0.1049290195, -0.0351190617], [-0.1021180561, 8.7157367122, 0.0748122465], [-0.0498248855, 0.1090609251, 12.4914277443]]" distortion_family=combined distortion_severity=0.618 rotations="_JSON [{\"fa_group\": 0, \"kind\": \"axis_angle\", \"angle_deg\": -1.002883, \"axis\": [-0.42585912, 0.8654789, -0.26379971]}, {\"fa_group\": 3, \"kind\": \"axis_angle\", \"angle_deg\": 42.293188, \"axis\": [-0.53540616, 0.06793005, 0.84185851]}]" strain="_JSON [[-0.02450668, -0.01163372, -0.00389373], [-0.01163372, -0.00706685, 0.00852292], [-0.00389373, 0.00852292, -0.0238164]]" rattle_target=all rattle_sigma_A=0.090575 distortion_label=combined_strain_rattle_fa_rotation minimum_distance_A=0.6764837181913561 minimum_pair_indices="_JSON [4, 20]" minimum_pair_symbols="_JSON [\"N\", \"H\"]" pbc="T T T"
C        4.60772594       0.28185957       3.22230410       0.00000000       0.00000000       0.00000000
C        8.57408969       4.06261347       9.43048455       0.00000000       0.00000000       0.00000000
C        0.00400419       4.68278023       3.12328248       0.00000000       0.00000000       0.00000000
C        4.37321865       8.37119365       9.45956229       0.00000000       0.00000000       0.00000000
N        4.81854647       7.98067080       2.26711844       0.00000000       0.00000000       0.00000000
N        0.68921544       5.07781497       8.75315695       0.00000000       0.00000000       0.00000000
N        0.92931252       5.03997988       2.99870458       0.00000000       0.00000000       0.00000000
N        5.71900865       0.04902110       9.30440012       0.00000000       0.00000000       0.00000000
N        3.11160078       0.58414039       2.82257868       0.00000000       0.00000000       0.00000000
N        7.43155026       3.60690469       9.22311880       0.00000000       0.00000000       0.00000000
N        8.28197358       3.59156357       2.24200399       0.00000000       0.00000000       0.00000000
N        3.43372862       8.47750117       8.60484403       0.00000000       0.00000000       0.00000000
H        5.09913740       0.95053934       3.93341090       0.00000000       0.00000000       0.00000000
H        0.62239509       3.57302863      10.07180720       0.00000000       0.00000000       0.00000000
H        8.13547942       5.16272336       3.81944777       0.00000000       0.00000000       0.00000000
H        4.21470247       7.97625502      10.40262815       0.00000000       0.00000000       0.00000000
H        5.88532203       7.79579273       2.67786459       0.00000000       0.00000000       0.00000000
H        1.45980823       5.17454631       8.70592065       0.00000000       0.00000000       0.00000000
H        1.34002678       5.69807966       3.67126757       0.00000000       0.00000000       0.00000000
H        6.16762323       0.11820100      10.02308048       0.00000000       0.00000000       0.00000000
H        4.59077078       7.68151748       1.70475224       0.00000000       0.00000000       0.00000000
H       -0.08953171       5.34660277       7.91729470       0.00000000       0.00000000       0.00000000
H        1.57015840       4.59116656       2.33255156       0.00000000       0.00000000       0.00000000
H        5.93925683       0.40014368       8.50428395       0.00000000       0.00000000       0.00000000
H        2.61936233       0.34781626       2.40186329       0.00000000       0.00000000       0.00000000
H        6.91160141       3.95823556       8.79477745       0.00000000       0.00000000       0.00000000
H        8.58395713       3.26146337       1.57263015       0.00000000       0.00000000       0.00000000
H        3.68394740       0.22430657       7.41514814       0.00000000       0.00000000       0.00000000
H        2.89888999       1.36081197       3.67309154       0.00000000       0.00000000       0.00000000
H        7.26191008       2.98048365       9.81798662       0.00000000       0.00000000       0.00000000
H        7.12828862       3.60528121       2.56224147       0.00000000       0.00000000       0.00000000
H        2.60732225       8.27929570       8.76075985       0.00000000       0.00000000       0.00000000
Pb       4.39123939       4.25430100      12.27680738       0.00000000       0.00000000       0.00000000
Pb       0.00574817       0.12484548       6.02657557       0.00000000       0.00000000       0.00000000
Pb       8.59999914       8.49954588      12.27340709       0.00000000       0.00000000       0.00000000
Pb       4.49555648       4.37978242       5.96868482       0.00000000       0.00000000       0.00000000
I        6.88277697       6.08066434       6.58590283       0.00000000       0.00000000       0.00000000
I        8.30691339       8.61420538       3.06494363       0.00000000       0.00000000       0.00000000
I        6.08397129       1.96358203      12.09594567       0.00000000       0.00000000       0.00000000
I        1.80923809       2.45955848       0.04949485       0.00000000       0.00000000       0.00000000
I        1.83117643       2.76676868       5.79184746       0.00000000       0.00000000       0.00000000
I        2.45047983       6.97703176       5.79007074       0.00000000       0.00000000       0.00000000
I        6.89930032       6.11564873      12.10329201       0.00000000       0.00000000       0.00000000
I        5.99242624       1.65354924       6.33699759       0.00000000       0.00000000       0.00000000
I        3.93427088       4.34302299       9.30274204       0.00000000       0.00000000       0.00000000
I        0.18578923       8.77387748       9.34456334       0.00000000       0.00000000       0.00000000
I        2.44574238       6.88559007      12.51283850       0.00000000       0.00000000       0.00000000
I        4.51654795       4.27334878       2.76990739       0.00000000       0.00000000       0.00000000
48
Lattice="9.177967260414846 -0.11060037716930016 -0.06527958122365425 -0.10763748269539522 9.110060566468965 0.0033867683871341837 -0.09261487934401058 0.0049372143030934415 12.789027570579533" Properties=species:S:1:pos:R:3:momenta:R:3 config_id=O-FAPI3_al_combined_16__combined_strain_rattle_fa_rotation__sev-0.632__seed-new phase=O-FAPI3 mode=active_learning seed=3156114134 seed_origin=new seed_origin_config_id= parity_master_seed new_master_seed=20260901 source=O-FAPI3/CONTCAR formula=C4H20I12N8Pb4 natoms=48 fa_groups="_JSON [[0, 4, 8, 12, 16, 28, 20, 24], [1, 5, 9, 13, 17, 29, 21, 25], [2, 10, 6, 14, 30, 18, 26, 22], [3, 11, 7, 15, 31, 19, 27, 23]]" cell_A="_JSON [[9.1779672604, -0.1106003772, -0.0652795812], [-0.1076374827, 9.1100605665, 0.0033867684], [-0.0926148793, 0.0049372143, 12.7890275706]]" distortion_family=combined distortion_severity=0.632 rotations="_JSON [{\"fa_group\": 0, \"kind\": \"axis_angle\", \"angle_deg\": 29.236361, \"axis\": [-0.99791581, -0.06326794, -0.01269659]}, {\"fa_group\": 1, \"kind\": \"axis_angle\", \"angle_deg\": 37.209346, \"axis\": [0.04147753, 0.66965935, 0.74150925]}, {\"fa_group\": 2, \"kind\": \"axis_angle\", \"angle_deg\": 8.531808, \"axis\": [0.8956656, -0.43541106, -0.09055575]}, {\"fa_group\": 3, \"kind\": \"axis_angle\", \"angle_deg\": -27.443059, \"axis\": [-0.19534551, 0.75791236, 0.62242187]}]" strain="_JSON [[0.01758182, -0.01226251, -0.00723769], [-0.01226251, 0.03785618, 0.00038583], [-0.00723769, 0.00038583, -0.00055948]]" rattle_target=all rattle_sigma_A=0.091925 distortion_label=combined_strain_rattle_fa_rotation minimum_distance_A=0.7312217207551244 minimum_pair_indices="_JSON [8, 24]" minimum_pair_symbols="_JSON [\"N\", \"H\"]" pbc="T T T"
C        4.68190892       0.43790860       3.09193798       0.00000000       0.00000000       0.00000000
C        0.12906380       4.50112449       9.34630033       0.00000000       0.00000000       0.00000000
C        9.08395396       4.76574846       3.00991545       0.00000000       0.00000000       0.00000000
C        4.10767904       8.77878498       9.31087850       0.00000000       0.00000000       0.00000000
N        5.24629418       8.35790711       2.84230409       0.00000000       0.00000000       0.00000000
N       -0.11023734       5.46412516       8.61238744       0.00000000       0.00000000       0.00000000
N        1.08836300       5.28506793       3.17777575       0.00000000       0.00000000       0.00000000
N        5.30114542       7.88496308       9.67726662       0.00000000       0.00000000       0.00000000
N        3.37315535       0.55742066       2.57601580       0.00000000       0.00000000       0.00000000
N        8.40707426       3.31726310       9.56283127       0.00000000       0.00000000       0.00000000
N        8.60081220       3.86919408       2.33914684       0.00000000       0.00000000       0.00000000
N        4.31022044       0.70659316       8.62224090       0.00000000       0.00000000       0.00000000
H        5.34031771       1.28650163       3.48107921       0.00000000       0.00000000       0.00000000
H        1.29517120       4.11540141       9.76594245       0.00000000       0.00000000       0.00000000
H        8.32183190       5.26642709       3.86699750       0.00000000       0.00000000       0.00000000
H        3.07982548       8.45100127       9.89462701       0.00000000       0.00000000       0.00000000
H        5.99924211       8.25324621       3.09200218       0.00000000       0.00000000       0.00000000
H        0.60937634       6.21825578       8.33716524       0.00000000       0.00000000       0.00000000
H        1.45103205       5.80459572       4.05061878       0.00000000       0.00000000       0.00000000
H        5.26681124       7.15463019      10.23157270       0.00000000       0.00000000       0.00000000
H        4.60661224       7.47463271       2.37753023       0.00000000       0.00000000       0.00000000
H        7.96368901       5.38527970       8.20709335       0.00000000       0.00000000       0.00000000
H        1.86455571       4.96585688       2.47227945       0.00000000       0.00000000       0.00000000
H        6.17833366       8.04105637       9.34973574       0.00000000       0.00000000       0.00000000
H        2.73950422       0.23626964       2.40271410       0.00000000       0.00000000       0.00000000
H        7.49487846       3.36863119       9.62653414       0.00000000       0.00000000       0.00000000
H        0.01969911       3.46739575       1.74425966       0.00000000       0.00000000       0.00000000
H        5.26554789       1.11734627       8.11649990       0.00000000       0.00000000       0.00000000
H        3.11065029       1.62536139       2.94102822       0.00000000       0.00000000       0.00000000
H        8.71925284       2.55391280      10.25087878       0.00000000       0.00000000       0.00000000
H        7.47997490       3.75908496       2.23799504       0.00000000       0.00000000       0.00000000
H        3.51074077       1.35656071       8.47989075       0.00000000       0.00000000       0.00000000
Pb       4.62867975       4.46831313      12.65839922       0.00000000       0.00000000       0.00000000
Pb       0.12373239       0.21090135       6.14167174       0.00000000       0.00000000       0.00000000
Pb      -0.15786192       8.95975099      12.63585065       0.00000000       0.00000000       0.00000000
Pb       4.62861417       4.76129561       5.96488279       0.00000000       0.00000000       0.00000000
I        7.15856264       6.43523547       6.48155913       0.00000000       0.00000000       0.00000000
I        8.82844814      -0.09115654       2.78862808       0.00000000       0.00000000       0.00000000
I        6.36740838       1.70197599      12.30517595       0.00000000       0.00000000       0.00000000
I        1.74832399       2.73839813      12.76883651       0.00000000       0.00000000       0.00000000
I        1.68612108       2.91602471       5.86846404       0.00000000       0.00000000       0.00000000
I        2.48097297       7.36590861       5.86546588       0.00000000       0.00000000       0.00000000
I        7.11453541       6.19647678      12.14393423       0.00000000       0.00000000       0.00000000
I        6.28105776       1.85721835       6.37904615       0.00000000       0.00000000       0.00000000
I        4.07927148       4.59759088       9.35574324       0.00000000       0.00000000       0.00000000
I        0.31453860       0.09299902       9.29719138       0.00000000       0.00000000       0.00000000
I        2.67066430       7.17303785      12.62273483       0.00000000       0.00000000       0.00000000
I        4.96883859       4.41603626       2.93286936       0.00000000       0.00000000       0.00000000
48
Lattice="9.312179268372763 -0.02831332455030844 -0.03806252933384236 -0.02755483353070212 8.481828663154829 -0.09937713604917894 -0.05400090649638425 -0.14487150032649393 12.832380109103946" Properties=species:S:1:pos:R:3:momenta:R:3 config_id=O-FAPI3_al_combined_17__combined_strain_rattle_fa_rotation__sev-0.647__seed-new phase=O-FAPI3 mode=active_learning seed=516255582 seed_origin=new seed_origin_config_id= parity_master_seed new_master_seed=20260901 source=O-FAPI3/CONTCAR formula=C4H20I12N8Pb4 natoms=48 fa_groups="_JSON [[0, 4, 8, 12, 16, 28, 20, 24], [1, 5, 9, 13, 17, 29, 21, 25], [2, 10, 6, 14, 30, 18, 26, 22], [3, 11, 7, 15, 31, 19, 27, 23]]" cell_A="_JSON [[9.3121792684, -0.0283133246, -0.0380625293], [-0.0275548335, 8.4818286632, -0.099377136], [-0.0540009065, -0.1448715003, 12.8323801091]]" distortion_family=combined distortion_severity=0.647 rotations="_JSON [{\"fa_group\": 1, \"kind\": \"axis_angle\", \"angle_deg\": -44.806896, \"axis\": [-0.85682285, -0.40261409, -0.32211256]}, {\"fa_group\": 2, \"kind\": \"axis_angle\", \"angle_deg\": -32.495343, \"axis\": [0.48918289, 0.85911121, 0.15042617]}, {\"fa_group\": 3, \"kind\": \"axis_angle\", \"angle_deg\": 6.376665, \"axis\": [0.06157967, -0.38725549, 0.91991365]}]" strain="_JSON [[0.0324622, -0.00313916, -0.00422008], [-0.00313916, -0.03371463, -0.01132146], [-0.00422008, -0.01132146, 0.00282844]]" rattle_target=all rattle_sigma_A=0.093275 distortion_label=combined_strain_rattle_fa_rotation minimum_distance_A=0.6825668066347511 minimum_pair_indices="_JSON [8, 24]" minimum_pair_symbols="_JSON [\"N\", \"H\"]" pbc="T T T"
C        4.70181133       0.21521434       3.07149968       0.00000000       0.00000000       0.00000000
C        0.21645491       3.87862637       9.32985869       0.00000000       0.00000000       0.00000000
C        9.01306416       4.58557627       2.95248649       0.00000000       0.00000000       0.00000000
C        4.46359907       8.08983953       9.31855077       0.00000000       0.00000000       0.00000000
N        5.29323022       7.84380972       2.24172056       0.00000000       0.00000000       0.00000000
N        0.47754358       5.01783923       9.25937891       0.00000000       0.00000000       0.00000000
N        1.12361336       4.86725865       3.42354651       0.00000000       0.00000000       0.00000000
N        5.72311276       7.79257045       9.34500033       0.00000000       0.00000000       0.00000000
N        3.38440011       0.63220975       2.78212882       0.00000000       0.00000000       0.00000000
N        8.13836442       3.18227807       9.31812809       0.00000000       0.00000000       0.00000000
N        8.76301261       3.69211865       2.01222215       0.00000000       0.00000000       0.00000000
N        4.05186196       0.39564667       8.94072749       0.00000000       0.00000000       0.00000000
H        5.32853744       0.68725654       3.95048861       0.00000000       0.00000000       0.00000000
H        1.08592161       3.07764846       9.46313161       0.00000000       0.00000000       0.00000000
H        8.05372197       5.34091188       3.15550033       0.00000000       0.00000000       0.00000000
H        4.00921551       7.38355362      10.29672579       0.00000000       0.00000000       0.00000000
H        6.32316166       7.75875026       2.43470175       0.00000000       0.00000000       0.00000000
H        1.20211089       5.66365291       9.17776714       0.00000000       0.00000000       0.00000000
H        1.19480819       5.61380226       4.01270236       0.00000000       0.00000000       0.00000000
H        6.38371840       7.13787525      10.12660680       0.00000000       0.00000000       0.00000000
H        4.58134626       7.40520963       1.61657687       0.00000000       0.00000000       0.00000000
H        9.00091719       5.68168595       9.06951175       0.00000000       0.00000000       0.00000000
H        1.87443429       4.32966073       3.24384029       0.00000000       0.00000000       0.00000000
H        6.52143660       8.10664234       8.97798673       0.00000000       0.00000000       0.00000000
H        2.85549153       0.46343076       2.38505600       0.00000000       0.00000000       0.00000000
H        7.50407444       3.76974742       9.29102308       0.00000000       0.00000000       0.00000000
H        0.23657491       2.91014289       2.03330371       0.00000000       0.00000000       0.00000000
H        4.36526106       0.89162390       8.03716050       0.00000000       0.00000000       0.00000000
H        2.91203783       1.36755807       3.71602289       0.00000000       0.00000000       0.00000000
H        8.37170630       2.04736442       9.40635982       0.00000000       0.00000000       0.00000000
H        7.88921204       3.54118156       1.97148654       0.00000000       0.00000000       0.00000000
H        2.88363702       0.40989953       8.87694287       0.00000000       0.00000000       0.00000000
Pb       4.55316247       3.88281512      12.34922691       0.00000000       0.00000000       0.00000000
Pb       0.15204233       0.00947707       6.15316394       0.00000000       0.00000000       0.00000000
Pb       8.99341100       8.11480097      12.48277914       0.00000000       0.00000000       0.00000000
Pb       4.69015253       4.24509404       6.01855473       0.00000000       0.00000000       0.00000000
I        7.45682426       5.83610469       6.42627384       0.00000000       0.00000000       0.00000000
I        8.81240316       8.30391219       2.96157949       0.00000000       0.00000000       0.00000000
I        6.51943373       1.45268872      12.21252039       0.00000000       0.00000000       0.00000000
I        1.87287333       2.35417065       0.09373888       0.00000000       0.00000000       0.00000000
I        1.90610323       2.53115310       5.95671050       0.00000000       0.00000000       0.00000000
I        2.78696042       6.92432126       5.79717987       0.00000000       0.00000000       0.00000000
I        7.55949602       5.66259276      12.41251504       0.00000000       0.00000000       0.00000000
I        6.52731838       1.60707409       6.54023417       0.00000000       0.00000000       0.00000000
I        4.18334311       4.20179897       9.39868809       0.00000000       0.00000000       0.00000000
I        0.29082353      -0.06081422       9.37778715       0.00000000       0.00000000       0.00000000
I        2.61581634       6.47704708      12.72197732       0.00000000       0.00000000       0.00000000
I        4.93882691       4.12517535       3.04963640       0.00000000       0.00000000       0.00000000
48
Lattice="9.290527824602549 0.14652307234322737 -0.09177159142105094 0.14259783797733747 9.037814762632014 -0.10429297941133578 -0.13020020513839756 -0.15203779261019654 13.321471770827573" Properties=species:S:1:pos:R:3:momenta:R:3 config_id=O-FAPI3_al_combined_18__combined_strain_rattle_fa_rotation__sev-0.662__seed-parity phase=O-FAPI3 mode=active_learning seed=801589023 seed_origin=parity seed_origin_config_id=O-FAPI3_parity_49__combined_strain_rattle_fa_rotation__sev-0.9 parity_master_seed=20260810 new_master_seed source=O-FAPI3/CONTCAR formula=C4H20I12N8Pb4 natoms=48 fa_groups="_JSON [[0, 4, 8, 12, 16, 28, 20, 24], [1, 5, 9, 13, 17, 29, 21, 25], [2, 10, 6, 14, 30, 18, 26, 22], [3, 11, 7, 15, 31, 19, 27, 23]]" cell_A="_JSON [[9.2905278246, 0.1465230723, -0.0917715914], [0.142597838, 9.0378147626, -0.1042929794], [-0.1302002051, -0.1520377926, 13.3214717708]]" distortion_family=combined distortion_severity=0.662 rotations="_JSON [{\"fa_group\": 0, \"kind\": \"axis_angle\", \"angle_deg\": -3.430425, \"axis\": [0.18586173, -0.93726391, 0.29494368]}]" strain="_JSON [[0.03006166, 0.01624534, -0.01017492], [0.01624534, 0.02962563, -0.01188149], [-0.01017492, -0.01188149, 0.04105012]]" rattle_target=all rattle_sigma_A=0.094625 distortion_label=combined_strain_rattle_fa_rotation minimum_distance_A=0.8067795521538363 minimum_pair_indices="_JSON [5, 17]" minimum_pair_symbols="_JSON [\"N\", \"H\"]" pbc="T T T"
C        4.70013712       0.40696998       3.23171768       0.00000000       0.00000000       0.00000000
C        0.00930280       4.01712184       9.95749518       0.00000000       0.00000000       0.00000000
C        9.18001976       5.06397448       3.15326393       0.00000000       0.00000000       0.00000000
C        4.80702395       8.62564953       9.84031741       0.00000000       0.00000000       0.00000000
N        5.42868282       8.53716785       2.37272743       0.00000000       0.00000000       0.00000000
N        0.85734176       5.02032136       9.03482442       0.00000000       0.00000000       0.00000000
N        1.21759410       5.35638267       3.06183848       0.00000000       0.00000000       0.00000000
N        5.80467100       8.33625310       9.51421871       0.00000000       0.00000000       0.00000000
N        3.33328399       0.70213618       3.17767784       0.00000000       0.00000000       0.00000000
N        8.04303546       3.67084772       9.68166430       0.00000000       0.00000000       0.00000000
N        8.75922062       4.10835519       2.32040493       0.00000000       0.00000000       0.00000000
N        4.09433709       0.54143005       9.15312534       0.00000000       0.00000000       0.00000000
H        5.31818517       0.96994133       3.87967376       0.00000000       0.00000000       0.00000000
H        0.73115115       3.46976736      10.72590746       0.00000000       0.00000000       0.00000000
H        8.70104237       5.56674302       3.94813532       0.00000000       0.00000000       0.00000000
H        3.88966623       8.05450345      10.65105871       0.00000000       0.00000000       0.00000000
H        6.34042833       8.24347189       2.35964982       0.00000000       0.00000000       0.00000000
H        1.64386716       5.10560870       9.19292918       0.00000000       0.00000000       0.00000000
H        1.72690835       5.90462463       3.70176836       0.00000000       0.00000000       0.00000000
H        6.12725070       7.49123989      10.41674896       0.00000000       0.00000000       0.00000000
H        4.83483202       7.99711170       1.61998657       0.00000000       0.00000000       0.00000000
H        0.01055114       5.50144990       8.12337707       0.00000000       0.00000000       0.00000000
H        1.99067068       4.83307814       2.32395545       0.00000000       0.00000000       0.00000000
H        6.57907226       8.76663725       9.08891298       0.00000000       0.00000000       0.00000000
H        2.62162533       0.52123771       2.51734579       0.00000000       0.00000000       0.00000000
H        7.25044590       4.24723452       8.96072098       0.00000000       0.00000000       0.00000000
H        9.17752885       3.59494597       1.57750876       0.00000000       0.00000000       0.00000000
H        4.59922485       1.04988008       8.34442430       0.00000000       0.00000000       0.00000000
H        2.95126729       1.53172833       3.84056474       0.00000000       0.00000000       0.00000000
H        7.63945662       3.08396683      10.46945933       0.00000000       0.00000000       0.00000000
H        7.67073061       3.71968927       2.50021365       0.00000000       0.00000000       0.00000000
H        2.90852117       0.75926645       9.21753870       0.00000000       0.00000000       0.00000000
Pb       4.69565200       4.32417431      13.14776098       0.00000000       0.00000000       0.00000000
Pb       0.11880070       8.80574922       6.20815595       0.00000000       0.00000000       0.00000000
Pb       0.09074986       8.71562013      13.13845841       0.00000000       0.00000000       0.00000000
Pb       4.71686847       4.67733201       6.23892823       0.00000000       0.00000000       0.00000000
I        7.43646485       6.51920373       6.37234811       0.00000000       0.00000000       0.00000000
I        8.89883052       0.19523240       2.99335712       0.00000000       0.00000000       0.00000000
I        6.38483073       1.73061842      12.71658710       0.00000000       0.00000000       0.00000000
I        1.85535813       2.62329647       0.14581950       0.00000000       0.00000000       0.00000000
I        1.84064797       2.69696832       5.97360467       0.00000000       0.00000000       0.00000000
I        2.79627626       7.37529706       5.98821362       0.00000000       0.00000000       0.00000000
I        7.37126244       6.26087097      12.82924348       0.00000000       0.00000000       0.00000000
I        6.61143912       1.90279445       6.48598078       0.00000000       0.00000000       0.00000000
I        4.13101347       4.46044531       9.52473447       0.00000000       0.00000000       0.00000000
I        0.29019866      -0.09862932       9.78942372       0.00000000       0.00000000       0.00000000
I        2.98422371       7.21501887       0.01984266       0.00000000       0.00000000       0.00000000
I        5.13700716       4.51852397       3.03159168       0.00000000       0.00000000       0.00000000
48
Lattice="9.19951278053718 0.12856239712403192 -0.08315782151070299 0.1251183146919469 9.045104953294869 0.14708082895156438 -0.11797948855305783 0.21441370929559606 13.193526612971546" Properties=species:S:1:pos:R:3:momenta:R:3 config_id=O-FAPI3_al_combined_19__combined_strain_rattle_fa_rotation__sev-0.677__seed-new phase=O-FAPI3 mode=active_learning seed=3053778016 seed_origin=new seed_origin_config_id= parity_master_seed new_master_seed=20260901 source=O-FAPI3/CONTCAR formula=C4H20I12N8Pb4 natoms=48 fa_groups="_JSON [[0, 4, 8, 12, 16, 28, 20, 24], [1, 5, 9, 13, 17, 29, 21, 25], [2, 10, 6, 14, 30, 18, 26, 22], [3, 11, 7, 15, 31, 19, 27, 23]]" cell_A="_JSON [[9.1995127805, 0.1285623971, -0.0831578215], [0.1251183147, 9.0451049533, 0.147080829], [-0.1179794886, 0.2144137093, 13.193526613]]" distortion_family=combined distortion_severity=0.677 rotations="_JSON [{\"fa_group\": 1, \"kind\": \"axis_angle\", \"angle_deg\": 32.735066, \"axis\": [0.39237109, 0.59982314, 0.69732139]}, {\"fa_group\": 2, \"kind\": \"axis_angle\", \"angle_deg\": -24.115789, \"axis\": [-0.00163838, -0.98815274, 0.15346489]}]" strain="_JSON [[0.01997062, 0.014254, -0.00921989], [0.014254, 0.03045616, 0.01675606], [-0.00921989, 0.01675606, 0.03105142]]" rattle_target=all rattle_sigma_A=0.095975 distortion_label=combined_strain_rattle_fa_rotation minimum_distance_A=0.734130029590615 minimum_pair_indices="_JSON [4, 16]" minimum_pair_symbols="_JSON [\"N\", \"H\"]" pbc="T T T"
C        4.55840042       0.56833468       3.18767631       0.00000000       0.00000000       0.00000000
C        0.25149938       4.47063504       9.81007519       0.00000000       0.00000000       0.00000000
C        0.24131759       4.90701720       3.43190801       0.00000000       0.00000000       0.00000000
C        4.70850071       9.06649706       9.91074570       0.00000000       0.00000000       0.00000000
N        5.48177955       8.55466640       2.64702150       0.00000000       0.00000000       0.00000000
N        9.06750927       5.79561240       9.23246135       0.00000000       0.00000000       0.00000000
N        1.17583469       5.26688327       2.83834037       0.00000000       0.00000000       0.00000000
N        5.96417882       8.46902129       9.71823449       0.00000000       0.00000000       0.00000000
N        3.34149456       0.93021364       3.15301787       0.00000000       0.00000000       0.00000000
N        8.25582135       3.49347525       9.70625998       0.00000000       0.00000000       0.00000000
N        8.51113318       4.17562286       2.93817648       0.00000000       0.00000000       0.00000000
N        3.83446506       0.87860002       9.19230675       0.00000000       0.00000000       0.00000000
H        5.34993940       1.01427179       4.09671434       0.00000000       0.00000000       0.00000000
H        1.16430803       4.05326669      10.07960938       0.00000000       0.00000000       0.00000000
H        9.12849194       5.69965527       4.16426280       0.00000000       0.00000000       0.00000000
H        3.98706407       8.28767646      10.77813170       0.00000000       0.00000000       0.00000000
H        6.20715375       8.44859274       2.60793768       0.00000000       0.00000000       0.00000000
H        0.93767767       6.25696302       9.07793031       0.00000000       0.00000000       0.00000000
H        2.05275826       6.09156097       3.04014349       0.00000000       0.00000000       0.00000000
H        6.09110980       7.68934526      10.50693382       0.00000000       0.00000000       0.00000000
H        4.62638666       7.93669205       1.79234349       0.00000000       0.00000000       0.00000000
H        8.37274785       5.97797405       8.52073656       0.00000000       0.00000000       0.00000000
H        1.64864721       4.70471675       1.84031821       0.00000000       0.00000000       0.00000000
H        6.42856487       8.77721254       9.17118496       0.00000000       0.00000000       0.00000000
H        2.70566495       0.22690490       2.43250233       0.00000000       0.00000000       0.00000000
H        7.44450258       3.73264801       9.54271413       0.00000000       0.00000000       0.00000000
H        8.48201302       3.65589509       2.10624837       0.00000000       0.00000000       0.00000000
H        4.42819179       1.11438899       8.35389036       0.00000000       0.00000000       0.00000000
H        3.04532941       1.54889435       3.82986773       0.00000000       0.00000000       0.00000000
H        8.45769296       2.67753448      10.46936315       0.00000000       0.00000000       0.00000000
H        7.54490978       3.89166437       3.37734558       0.00000000       0.00000000       0.00000000
H        2.70994871       1.07299339       9.01530036       0.00000000       0.00000000       0.00000000
Pb       4.50921612       4.65863523      12.93940678       0.00000000       0.00000000       0.00000000
Pb       9.05882886       0.38974273       6.18645559       0.00000000       0.00000000       0.00000000
Pb       9.02642011       9.26313428      12.97219608       0.00000000       0.00000000       0.00000000
Pb       4.48029279       4.73951607       6.13220278       0.00000000       0.00000000       0.00000000
I        7.48615650       6.61684692       6.65068902       0.00000000       0.00000000       0.00000000
I        8.73573546       0.26734230       3.07650040       0.00000000       0.00000000       0.00000000
I        6.53663033       1.98421897      12.77881270       0.00000000       0.00000000       0.00000000
I        1.94184793       2.89593111       0.31175350       0.00000000       0.00000000       0.00000000
I        2.03624989       3.02075603       6.14565459       0.00000000       0.00000000       0.00000000
I        2.73374755       7.45851445       6.23520290       0.00000000       0.00000000       0.00000000
I        7.36204425       6.58267685      12.68294370       0.00000000       0.00000000       0.00000000
I        6.37278686       2.00247603       6.63259032       0.00000000       0.00000000       0.00000000
I        4.07457701       4.80792554       9.73479047       0.00000000       0.00000000       0.00000000
I        0.32916552       0.33826109       9.56054632       0.00000000       0.00000000       0.00000000
I        2.86909836       7.19977736       0.24227545       0.00000000       0.00000000       0.00000000
I        5.08140669       4.48062527       3.08267330       0.00000000       0.00000000       0.00000000
48
Lattice="9.38111346655187 -0.05177330252581571 -0.05799746021623849 -0.05038633770819366 8.917962442376819 0.1329402430085789 -0.0822834288991981 0.19379963263270797 12.653402087005368" Properties=species:S:1:pos:R:3:momenta:R:3 config_id=O-FAPI3_al_combined_20__combined_strain_rattle_fa_rotation__sev-0.693__seed-new phase=O-FAPI3 mode=active_learning seed=1516533322 seed_origin=new seed_origin_config_id= parity_master_seed new_master_seed=20260901 source=O-FAPI3/CONTCAR formula=C4H20I12N8Pb4 natoms=48 fa_groups="_JSON [[0, 4, 8, 12, 16, 28, 20, 24], [1, 5, 9, 13, 17, 29, 21, 25], [2, 10, 6, 14, 30, 18, 26, 22], [3, 11, 7, 15, 31, 19, 27, 23]]" cell_A="_JSON [[9.3811134666, -0.0517733025, -0.0579974602], [-0.0503863377, 8.9179624424, 0.132940243], [-0.0822834289, 0.1937996326, 12.653402087]]" distortion_family=combined distortion_severity=0.693 rotations="_JSON [{\"fa_group\": 0, \"kind\": \"axis_angle\", \"angle_deg\": -27.579736, \"axis\": [0.22961142, 0.76331801, 0.60384121]}]" strain="_JSON [[0.04010509, -0.00574022, -0.00643031], [-0.00574022, 0.01597155, 0.01514511], [-0.00643031, 0.01514511, -0.01115838]]" rattle_target=all rattle_sigma_A=0.097325 distortion_label=combined_strain_rattle_fa_rotation minimum_distance_A=0.6547657619764132 minimum_pair_indices="_JSON [8, 24]" minimum_pair_symbols="_JSON [\"N\", \"H\"]" pbc="T T T"
C        4.65247133       0.45917989       3.20584860       0.00000000       0.00000000       0.00000000
C       -0.06363426       4.32423713       9.63601594       0.00000000       0.00000000       0.00000000
C        9.07652468       4.88789921       3.05629261       0.00000000       0.00000000       0.00000000
C        4.55523091       8.48814840       9.63739235       0.00000000       0.00000000       0.00000000
N        5.12953391       8.06250461       2.84020469       0.00000000       0.00000000       0.00000000
N        0.63673490       5.13223201       8.85313492       0.00000000       0.00000000       0.00000000
N        1.13544528       5.36471958       3.15833584       0.00000000       0.00000000       0.00000000
N        5.75578574       8.12197084       9.46463583       0.00000000       0.00000000       0.00000000
N        3.65213390       1.05938461       2.41648973       0.00000000       0.00000000       0.00000000
N        7.94229162       3.80424859       9.30840000       0.00000000       0.00000000       0.00000000
N        8.67916724       3.82239018       2.36392048       0.00000000       0.00000000       0.00000000
N        4.01754951       0.89425847       8.71023223       0.00000000       0.00000000       0.00000000
H        4.95054294       0.94985439       4.08575549       0.00000000       0.00000000       0.00000000
H        0.59940812       3.67347596      10.29565613       0.00000000       0.00000000       0.00000000
H        8.49758869       5.28680170       3.93495485       0.00000000       0.00000000       0.00000000
H        3.93152528       8.08163491      10.33498428       0.00000000       0.00000000       0.00000000
H        5.87535520       7.62402614       3.26588719       0.00000000       0.00000000       0.00000000
H        1.54944839       5.32911918       8.87827313       0.00000000       0.00000000       0.00000000
H        1.53733109       6.05147231       3.71824324       0.00000000       0.00000000       0.00000000
H        6.34697490       7.52316862      10.09571547       0.00000000       0.00000000       0.00000000
H        4.72890880       7.60589649       2.04015433       0.00000000       0.00000000       0.00000000
H        0.12114252       5.68783684       8.04114703       0.00000000       0.00000000       0.00000000
H        2.05854835       4.90256952       2.35627796       0.00000000       0.00000000       0.00000000
H        6.60306044       8.70735355       8.65650611       0.00000000       0.00000000       0.00000000
H        3.32041489       0.67638519       2.00177037       0.00000000       0.00000000       0.00000000
H        7.24629637       4.33470961       8.71106899       0.00000000       0.00000000       0.00000000
H        9.13233293       3.40338040       1.65546521       0.00000000       0.00000000       0.00000000
H        4.42496716       1.23338263       8.09262113       0.00000000       0.00000000       0.00000000
H        3.12087155       2.00974183       2.91699801       0.00000000       0.00000000       0.00000000
H        7.67889688       3.17526267       9.94684701       0.00000000       0.00000000       0.00000000
H        7.56861197       3.84070845       2.68835936       0.00000000       0.00000000       0.00000000
H        2.96410133       0.85171078       8.81164713       0.00000000       0.00000000       0.00000000
Pb       4.72036706       4.55762475      12.42164335       0.00000000       0.00000000       0.00000000
Pb       0.06955220       0.19589076       6.14127695       0.00000000       0.00000000       0.00000000
Pb      -0.05887695       8.99010253      12.50116604       0.00000000       0.00000000       0.00000000
Pb       4.40326873       4.52869374       6.15392194       0.00000000       0.00000000       0.00000000
I        7.34419189       6.41670461       6.47050608       0.00000000       0.00000000       0.00000000
I        9.09749156       0.03934672       2.93848169       0.00000000       0.00000000       0.00000000
I        6.53375009       1.88145089      12.16682608       0.00000000       0.00000000       0.00000000
I        1.97941883       2.70017564       0.09079952       0.00000000       0.00000000       0.00000000
I        1.89014970       2.78052157       5.83912385       0.00000000       0.00000000       0.00000000
I        2.58301899       7.31014113       5.97322178       0.00000000       0.00000000       0.00000000
I        7.34124954       6.32427222      12.27919285       0.00000000       0.00000000       0.00000000
I        6.66449795       2.02335297       6.33190893       0.00000000       0.00000000       0.00000000
I        4.44346301       4.53514534       9.28085926       0.00000000       0.00000000       0.00000000
I        0.08525932       0.26251571       9.34868633       0.00000000       0.00000000       0.00000000
I        2.46701319       7.14670038      12.68718287       0.00000000       0.00000000       0.00000000
I        5.10414862       4.38448387       3.06939897       0.00000000       0.00000000       0.00000000
