C  N  H  Pb I                           
   1.0000000000000000     
     8.8866430203172335    0.0720809396282426    0.0634698882945525
     0.0701499496699400    8.8104404550847146    0.0587734117442546
     0.0900473920970529    0.0856795906704668   12.8838224213715797
  C               N               H               Pb              I             
     4     8    20     4    12
Direct
     0.5079545620594885    0.0406959883747646    0.2475946235704427
     0.0079545554343809    0.4593040156808073    0.7475946208954554
     0.9920454334685047    0.5406959860585872    0.2475946299923706
     0.4920454478785175    0.9593040127881096    0.7475946256013870
     0.5705946771768495    0.9354362274290722    0.1897252141182122
     0.0705946740239369    0.5645637727658510    0.6897252201605895
     0.1310336582348199    0.5838994807281068    0.2399588818968326
     0.6310336640152769    0.9161005167449332    0.7399588856927721
     0.3689663406760957    0.0838994856595292    0.2399588837149906
     0.8689663414621833    0.4161005194902572    0.7399588873068410
     0.9294053217315223    0.4354362199708675    0.1897252216917167
     0.4294053329446612    0.0645637684645806    0.6897252229388684
     0.5763163080256462    0.0964013618091926    0.3070350010383294
     0.0763163041439370    0.4035986538439502    0.8070350065760294
     0.9236836942065167    0.5964013535599975    0.3070350101048547
     0.4236837047439721    0.9035986570811900    0.8070350168177995
     0.6816203964682259    0.9153350004290033    0.1981420696355372
     0.1816203953774504    0.5846650008662735    0.6981420678013563
     0.1727440398663802    0.6618424652955213    0.2915835922463330
     0.6727440483713281    0.8381575300147404    0.7915835946568777
     0.5137159496301180    0.8799864858485265    0.1317994637689637
     0.0137159530701183    0.6200135182310191    0.6317994618654623
     0.2027680669080070    0.5368550561063330    0.1875867459194609
     0.7027680811919126    0.9631449364772280    0.6875867437071861
     0.2972319239003340    0.0368550498131768    0.1875867509889702
     0.7972319185576211    0.4631449498156996    0.6875867489999621
     0.9862840415021594    0.3799864786952014    0.1317994707683496
     0.4862840485959765    0.1200135117898071    0.6317994631872494
     0.3272559576570444    0.1618424731988952    0.2915835925839971
     0.8272559591671822    0.3381575261065066    0.7915835908767335
     0.8183796010724720    0.4153349919539693    0.1981420818729518
     0.3183796102733396    0.0846649986020438    0.6981420736952373
     0.5038378668860872    0.4821061859207632    0.9800419972183647
     0.0086769852153807    0.0071914837695459    0.4833361184800751
     0.9904042083683038    0.9875241757999902    0.9819660342783436
     0.5012211831114186    0.5142493986182401    0.4798306875479312
     0.7960295763323870    0.7122962897300980    0.5033962087455848
     0.9563947076104142    0.9954003503685556    0.2339046724697624
     0.7060013422330513    0.1911873289048316    0.9627445972960587
     0.1976342072460113    0.2873860441367526    0.0059341760258249
     0.2014757818853070    0.3056687902009472    0.4593104909579324
     0.2890330352038646    0.8072746858337965    0.4646429989048357
     0.7917878524237878    0.6971475070008992    0.9591067414296433
     0.7019088073369204    0.2020061745774626    0.5050540763391638
     0.4599577403870612    0.5022076022340514    0.7296014347309523
     0.0384483215083833    0.0061263929901969    0.7338665482101945
     0.2968024568051248    0.7902586558969773    0.0032709906419228
     0.5365919625393687    0.4908507301859331    0.2266032343481612

  0.00000000E+00  0.00000000E+00  0.00000000E+00
  0.00000000E+00  0.00000000E+00  0.00000000E+00
  0.00000000E+00  0.00000000E+00  0.00000000E+00
  0.00000000E+00  0.00000000E+00  0.00000000E+00
  0.00000000E+00  0.00000000E+00  0.00000000E+00
  0.00000000E+00  0.00000000E+00  0.00000000E+00
  0.00000000E+00  0.00000000E+00  0.00000000E+00
  0.00000000E+00  0.00000000E+00  0.00000000E+00
  0.00000000E+00  0.00000000E+00  0.00000000E+00
  0.00000000E+00  0.00000000E+00  0.00000000E+00
  0.00000000E+00  0.00000000E+00  0.00000000E+00
  0.00000000E+00  0.00000000E+00  0.00000000E+00
  0.00000000E+00  0.00000000E+00  0.00000000E+00
  0.00000000E+00  0.00000000E+00  0.00000000E+00
  0.00000000E+00  0.00000000E+00  0.00000000E+00
  0.00000000E+00  0.00000000E+00  0.00000000E+00
  0.00000000E+00  0.00000000E+00  0.00000000E+00
  0.00000000E+00  0.00000000E+00  0.00000000E+00
  0.00000000E+00  0.00000000E+00  0.00000000E+00
  0.00000000E+00  0.00000000E+00  0.00000000E+00
  0.00000000E+00  0.00000000E+00  0.00000000E+00
  0.00000000E+00  0.00000000E+00  0.00000000E+00
  0.00000000E+00  0.00000000E+00  0.00000000E+00
  0.00000000E+00  0.00000000E+00  0.00000000E+00
  0.00000000E+00  0.00000000E+00  0.00000000E+00
  0.00000000E+00  0.00000000E+00  0.00000000E+00
  0.00000000E+00  0.00000000E+00  0.00000000E+00
  0.00000000E+00  0.00000000E+00  0.00000000E+00
  0.00000000E+00  0.00000000E+00  0.00000000E+00
  0.00000000E+00  0.00000000E+00  0.00000000E+00
  0.00000000E+00  0.00000000E+00  0.00000000E+00
  0.00000000E+00  0.00000000E+00  0.00000000E+00
  0.00000000E+00  0.00000000E+00  0.00000000E+00
  0.00000000E+00  0.00000000E+00  0.00000000E+00
  0.00000000E+00  0.00000000E+00  0.00000000E+00
  0.00000000E+00  0.00000000E+00  0.00000000E+00
  0.00000000E+00  0.00000000E+00  0.00000000E+00
  0.00000000E+00  0.00000000E+00  0.00000000E+00
  0.00000000E+00  0.00000000E+00  0.00000000E+00
  0.00000000E+00  0.00000000E+00  0.00000000E+00
  0.00000000E+00  0.00000000E+00  0.00000000E+00
  0.00000000E+00  0.00000000E+00  0.00000000E+00
  0.00000000E+00  0.00000000E+00  0.00000000E+00
  0.00000000E+00  0.00000000E+00  0.00000000E+00
  0.00000000E+00  0.00000000E+00  0.00000000E+00
  0.00000000E+00  0.00000000E+00  0.00000000E+00
  0.00000000E+00  0.00000000E+00  0.00000000E+00
  0.00000000E+00  0.00000000E+00  0.00000000E+00
