C  N  H  Pb I 
 1.0000000000000000
     8.8866430203172335    0.0720809396282426    0.0634698882945525
     0.0701499496699400    8.8104404550847146    0.0587734117442546
     0.0900473920970529    0.0856795906704668   12.8838224213715797
 C   N   H   Pb  I  
   4   8  20   4  12
Direct
  0.5079545620594851  0.0406959883747638  0.2475946235704422
  0.0079545554343785  0.4593040156808087  0.7475946208954544
  0.9920454334685082  0.5406959860585879  0.2475946299923701
  0.4920454478785191  0.9593040127881088  0.7475946256013860
  0.5705946771768489  0.9354362274290706  0.1897252141182125
  0.0705946740239366  0.5645637727658528  0.6897252201605889
  0.1310336582348178  0.5838994807281046  0.2399588818968305
  0.6310336640152746  0.9161005167449354  0.7399588856927695
  0.3689663406760989  0.0838994856595276  0.2399588837149886
  0.8689663414621859  0.4161005194902585  0.7399588873068386
  0.9294053217315231  0.4354362199708707  0.1897252216917170
  0.4294053329446625  0.0645637684645837  0.6897252229388678
  0.5763163080256496  0.0964013618091920  0.3070350010383273
  0.0763163041439384  0.4035986538439505  0.8070350065760273
  0.9236836942065134  0.5964013535599979  0.3070350101048526
  0.4236837047439705  0.9035986570811895  0.8070350168177974
  0.6816203964682235  0.9153350004290041  0.1981420696355345
  0.1816203953774488  0.5846650008662728  0.6981420678013570
  0.1727440398663828  0.6618424652955209  0.2915835922463331
  0.6727440483713267  0.8381575300147407  0.7915835946568773
  0.5137159496301194  0.8799864858485240  0.1317994637689628
  0.0137159530701184  0.6200135182310214  0.6317994618654600
  0.2027680669080062  0.5368550561063357  0.1875867459194599
  0.7027680811919140  0.9631449364772253  0.6875867437071856
  0.2972319239003343  0.0368550498131778  0.1875867509889692
  0.7972319185576198  0.4631449498156999  0.6875867489999617
  0.9862840415021580  0.3799864786951984  0.1317994707683488
  0.4862840485959767  0.1200135117898101  0.6317994631872469
  0.3272559576570425  0.1618424731988939  0.2915835925839972
  0.8272559591671836  0.3381575261065086  0.7915835908767332
  0.8183796010724745  0.4153349919539673  0.1981420818729491
  0.3183796102733418  0.0846649986020452  0.6981420736952381
  0.5038378668860859  0.4821061859207635  0.9800419972183627
  0.0086769852153823  0.0071914837695473  0.4833361184800769
  0.9904042083683061  0.9875241757999927  0.9819660342783428
  0.5012211831114209  0.5142493986182390  0.4798306875479283
  0.7960295763323874  0.7122962897301005  0.5033962087455829
  0.9563947076104122  0.9954003503685545  0.2339046724697618
  0.7060013422330537  0.1911873289048348  0.9627445972960579
  0.1976342072460085  0.2873860441367551  0.0059341760258274
  0.2014757818853051  0.3056687902009483  0.4593104909579321
  0.2890330352038629  0.8072746858337965  0.4646429989048352
  0.7917878524237886  0.6971475070009024  0.9591067414296467
  0.7019088073369215  0.2020061745774621  0.5050540763391631
  0.4599577403870594  0.5022076022340521  0.7296014347309554
  0.0384483215083812  0.0061263929901978  0.7338665482101914
  0.2968024568051225  0.7902586558969783  0.0032709906419254
  0.5365919625393695  0.4908507301859353  0.2266032343481629
Cartesian
  0.0000000000000000  0.0000000000000000  0.0000000000000000
  0.0000000000000000  0.0000000000000000  0.0000000000000000
  0.0000000000000000  0.0000000000000000  0.0000000000000000
  0.0000000000000000  0.0000000000000000  0.0000000000000000
  0.0000000000000000  0.0000000000000000  0.0000000000000000
  0.0000000000000000  0.0000000000000000  0.0000000000000000
  0.0000000000000000  0.0000000000000000  0.0000000000000000
  0.0000000000000000  0.0000000000000000  0.0000000000000000
  0.0000000000000000  0.0000000000000000  0.0000000000000000
  0.0000000000000000  0.0000000000000000  0.0000000000000000
  0.0000000000000000  0.0000000000000000  0.0000000000000000
  0.0000000000000000  0.0000000000000000  0.0000000000000000
  0.0000000000000000  0.0000000000000000  0.0000000000000000
  0.0000000000000000  0.0000000000000000  0.0000000000000000
  0.0000000000000000  0.0000000000000000  0.0000000000000000
  0.0000000000000000  0.0000000000000000  0.0000000000000000
  0.0000000000000000  0.0000000000000000  0.0000000000000000
  0.0000000000000000  0.0000000000000000  0.0000000000000000
  0.0000000000000000  0.0000000000000000  0.0000000000000000
  0.0000000000000000  0.0000000000000000  0.0000000000000000
  0.0000000000000000  0.0000000000000000  0.0000000000000000
  0.0000000000000000  0.0000000000000000  0.0000000000000000
  0.0000000000000000  0.0000000000000000  0.0000000000000000
  0.0000000000000000  0.0000000000000000  0.0000000000000000
  0.0000000000000000  0.0000000000000000  0.0000000000000000
  0.0000000000000000  0.0000000000000000  0.0000000000000000
  0.0000000000000000  0.0000000000000000  0.0000000000000000
  0.0000000000000000  0.0000000000000000  0.0000000000000000
  0.0000000000000000  0.0000000000000000  0.0000000000000000
  0.0000000000000000  0.0000000000000000  0.0000000000000000
  0.0000000000000000  0.0000000000000000  0.0000000000000000
  0.0000000000000000  0.0000000000000000  0.0000000000000000
  0.0000000000000000  0.0000000000000000  0.0000000000000000
  0.0000000000000000  0.0000000000000000  0.0000000000000000
  0.0000000000000000  0.0000000000000000  0.0000000000000000
  0.0000000000000000  0.0000000000000000  0.0000000000000000
  0.0000000000000000  0.0000000000000000  0.0000000000000000
  0.0000000000000000  0.0000000000000000  0.0000000000000000
  0.0000000000000000  0.0000000000000000  0.0000000000000000
  0.0000000000000000  0.0000000000000000  0.0000000000000000
  0.0000000000000000  0.0000000000000000  0.0000000000000000
  0.0000000000000000  0.0000000000000000  0.0000000000000000
  0.0000000000000000  0.0000000000000000  0.0000000000000000
  0.0000000000000000  0.0000000000000000  0.0000000000000000
  0.0000000000000000  0.0000000000000000  0.0000000000000000
  0.0000000000000000  0.0000000000000000  0.0000000000000000
  0.0000000000000000  0.0000000000000000  0.0000000000000000
  0.0000000000000000  0.0000000000000000  0.0000000000000000
