C  N  H  Pb I 
 1.0000000000000000
     8.9515839677080429    0.0000000000000000    0.0000000000000000
     0.0000000000000000    8.9515839677080429    0.0000000000000000
     0.0000000000000000    0.0000000000000000    6.3289724258144924
 C   N   H   Pb  I  
   2   4  10   2   6
Direct
  0.5000018554397698  0.5000022537173052  0.5710180843918636
  0.0065653011887880  0.9617127915862764  0.5419432253768143
  0.5923581034953975  0.5923585163879728  0.4765803103999293
  0.4076407503633792  0.4076411399921032  0.4765811169345088
  0.0579785866142825  0.0886806676680408  0.6161709827952315
  0.9364921605087564  0.9435684628910412  0.3614815300829237
  0.5000002811686741  0.5000006754111794  0.7434031870421925
  0.6592043223742974  0.6592047228670137  0.5661117567204834
  0.6020540182598020  0.6020543629609088  0.3166118097023156
  0.3979460835827361  0.3979464056777410  0.3166130108747678
  0.3407963330843803  0.3407967026589521  0.5661133888189647
  0.0235952161860984  0.8623877649705211  0.6389017322514763
  0.1107855578534369  0.0896074043859128  0.7586915460190400
  0.0485506893015754  0.1884676098860097  0.5395618001776993
  0.9143122017563992  0.0281230693489161  0.2581385444002250
  0.9013745293228704  0.8394699850964490  0.3196739689268956
  0.9999996702832874  0.4999998411152120  0.9927896685767361
  0.4999997010236399  0.0000000324883942  0.9927896646371461
 -0.0000000897965151  0.4999996263576136  0.4921929684839212
  0.4999999142446682  0.0000003677771616  0.4921929568124041
  0.2185734085131937  0.2185737368091121  0.9905351307177016
  0.2814254933831534  0.7185740284663772  0.9905345394682984
  0.7185734566697085  0.2814260629724074  0.9905349485405626
  0.7814255204687662  0.7814258469398120  0.9905345050794724
Cartesian
  0.0000000000000000  0.0000000000000000  0.0000000000000000
  0.0000000000000000  0.0000000000000000  0.0000000000000000
  0.0000000000000000  0.0000000000000000  0.0000000000000000
  0.0000000000000000  0.0000000000000000  0.0000000000000000
  0.0000000000000000  0.0000000000000000  0.0000000000000000
  0.0000000000000000  0.0000000000000000  0.0000000000000000
  0.0000000000000000  0.0000000000000000  0.0000000000000000
  0.0000000000000000  0.0000000000000000  0.0000000000000000
  0.0000000000000000  0.0000000000000000  0.0000000000000000
  0.0000000000000000  0.0000000000000000  0.0000000000000000
  0.0000000000000000  0.0000000000000000  0.0000000000000000
  0.0000000000000000  0.0000000000000000  0.0000000000000000
  0.0000000000000000  0.0000000000000000  0.0000000000000000
  0.0000000000000000  0.0000000000000000  0.0000000000000000
  0.0000000000000000  0.0000000000000000  0.0000000000000000
  0.0000000000000000  0.0000000000000000  0.0000000000000000
  0.0000000000000000  0.0000000000000000  0.0000000000000000
  0.0000000000000000  0.0000000000000000  0.0000000000000000
  0.0000000000000000  0.0000000000000000  0.0000000000000000
  0.0000000000000000  0.0000000000000000  0.0000000000000000
  0.0000000000000000  0.0000000000000000  0.0000000000000000
  0.0000000000000000  0.0000000000000000  0.0000000000000000
  0.0000000000000000  0.0000000000000000  0.0000000000000000
  0.0000000000000000  0.0000000000000000  0.0000000000000000
