C  N  H  Pb I 
 1.0000000000000000
     9.0551157738856780   -0.0883953764209784    0.0280413119283551
    -0.0860273359222054    8.9523298976372896   -0.0832901571096647
     0.0397833851291823   -0.1214199815230659   12.8151018850016190
 C   N   H   Pb  I  
   4   8  20   4  12
Direct
  0.5079545620594851  0.0406959883747638  0.2475946235704422
  0.0079545554343785  0.4593040156808084  0.7475946208954543
  0.9920454334685080  0.5406959860585880  0.2475946299923701
  0.4920454478785190  0.9593040127881087  0.7475946256013859
  0.5705946771768486  0.9354362274290700  0.1897252141182125
  0.0705946740239366  0.5645637727658526  0.6897252201605890
  0.1310336582348178  0.5838994807281045  0.2399588818968306
  0.6310336640152745  0.9161005167449350  0.7399588856927696
  0.3689663406760989  0.0838994856595276  0.2399588837149887
  0.8689663414621857  0.4161005194902583  0.7399588873068386
  0.9294053217315231  0.4354362199708706  0.1897252216917170
  0.4294053329446624  0.0645637684645837  0.6897252229388681
  0.5763163080256495  0.0964013618091920  0.3070350010383273
  0.0763163041439384  0.4035986538439504  0.8070350065760271
  0.9236836942065133  0.5964013535599978  0.3070350101048526
  0.4236837047439704  0.9035986570811891  0.8070350168177974
  0.6816203964682234  0.9153350004290037  0.1981420696355345
  0.1816203953774488  0.5846650008662723  0.6981420678013569
  0.1727440398663828  0.6618424652955208  0.2915835922463331
  0.6727440483713265  0.8381575300147402  0.7915835946568773
  0.5137159496301192  0.8799864858485238  0.1317994637689628
  0.0137159530701184  0.6200135182310212  0.6317994618654600
  0.2027680669080061  0.5368550561063355  0.1875867459194598
  0.7027680811919138  0.9631449364772253  0.6875867437071856
  0.2972319239003342  0.0368550498131778  0.1875867509889692
  0.7972319185576197  0.4631449498156996  0.6875867489999620
  0.9862840415021579  0.3799864786951983  0.1317994707683488
  0.4862840485959765  0.1200135117898101  0.6317994631872471
  0.3272559576570425  0.1618424731988937  0.2915835925839972
  0.8272559591671835  0.3381575261065084  0.7915835908767332
  0.8183796010724744  0.4153349919539671  0.1981420818729491
  0.3183796102733418  0.0846649986020452  0.6981420736952380
  0.5005072992339924  0.4873982484911974  0.9833747087649997
  0.0031391719840092  0.0146834974205121  0.4787306377582362
  0.0006619709058127  0.9860444497176262  0.9842387660983898
  0.4991742320875944  0.5122994910980599  0.4806359955560737
  0.7922729793994651  0.7147459063956668  0.5041286336385721
  0.9625366405015768  0.9958533954844769  0.2317278026056939
  0.7084010910982653  0.1952651893320056  0.9591685080581717
  0.2056105587734782  0.2902901947258054  0.0009552372683264
  0.2064301011839144  0.3107863210182102  0.4668179711200273
  0.2937059975349556  0.8002170959207798  0.4646323136726517
  0.7926615741030100  0.6968749984572975  0.9622578798390786
  0.7043365735012110  0.2041388267051848  0.5016844748363162
  0.4615268813782660  0.5089021547072337  0.7297465025750847
  0.0416184569748056  0.0024435211460295  0.7314339270792674
  0.2944210924087793  0.7869546285964955  0.0019265699179601
  0.5412041055861365  0.4900223736053615  0.2320964858404989
Cartesian
  0.0000000000000000  0.0000000000000000  0.0000000000000000
  0.0000000000000000  0.0000000000000000  0.0000000000000000
  0.0000000000000000  0.0000000000000000  0.0000000000000000
  0.0000000000000000  0.0000000000000000  0.0000000000000000
  0.0000000000000000  0.0000000000000000  0.0000000000000000
  0.0000000000000000  0.0000000000000000  0.0000000000000000
  0.0000000000000000  0.0000000000000000  0.0000000000000000
  0.0000000000000000  0.0000000000000000  0.0000000000000000
  0.0000000000000000  0.0000000000000000  0.0000000000000000
  0.0000000000000000  0.0000000000000000  0.0000000000000000
  0.0000000000000000  0.0000000000000000  0.0000000000000000
  0.0000000000000000  0.0000000000000000  0.0000000000000000
  0.0000000000000000  0.0000000000000000  0.0000000000000000
  0.0000000000000000  0.0000000000000000  0.0000000000000000
  0.0000000000000000  0.0000000000000000  0.0000000000000000
  0.0000000000000000  0.0000000000000000  0.0000000000000000
  0.0000000000000000  0.0000000000000000  0.0000000000000000
  0.0000000000000000  0.0000000000000000  0.0000000000000000
  0.0000000000000000  0.0000000000000000  0.0000000000000000
  0.0000000000000000  0.0000000000000000  0.0000000000000000
  0.0000000000000000  0.0000000000000000  0.0000000000000000
  0.0000000000000000  0.0000000000000000  0.0000000000000000
  0.0000000000000000  0.0000000000000000  0.0000000000000000
  0.0000000000000000  0.0000000000000000  0.0000000000000000
  0.0000000000000000  0.0000000000000000  0.0000000000000000
  0.0000000000000000  0.0000000000000000  0.0000000000000000
  0.0000000000000000  0.0000000000000000  0.0000000000000000
  0.0000000000000000  0.0000000000000000  0.0000000000000000
  0.0000000000000000  0.0000000000000000  0.0000000000000000
  0.0000000000000000  0.0000000000000000  0.0000000000000000
  0.0000000000000000  0.0000000000000000  0.0000000000000000
  0.0000000000000000  0.0000000000000000  0.0000000000000000
  0.0000000000000000  0.0000000000000000  0.0000000000000000
  0.0000000000000000  0.0000000000000000  0.0000000000000000
  0.0000000000000000  0.0000000000000000  0.0000000000000000
  0.0000000000000000  0.0000000000000000  0.0000000000000000
  0.0000000000000000  0.0000000000000000  0.0000000000000000
  0.0000000000000000  0.0000000000000000  0.0000000000000000
  0.0000000000000000  0.0000000000000000  0.0000000000000000
  0.0000000000000000  0.0000000000000000  0.0000000000000000
  0.0000000000000000  0.0000000000000000  0.0000000000000000
  0.0000000000000000  0.0000000000000000  0.0000000000000000
  0.0000000000000000  0.0000000000000000  0.0000000000000000
  0.0000000000000000  0.0000000000000000  0.0000000000000000
  0.0000000000000000  0.0000000000000000  0.0000000000000000
  0.0000000000000000  0.0000000000000000  0.0000000000000000
  0.0000000000000000  0.0000000000000000  0.0000000000000000
  0.0000000000000000  0.0000000000000000  0.0000000000000000
