C  N  H  Pb I                           
   1.0000000000000000     
     8.8511178083098461    0.0301428350902172   -0.0234125077519529
     0.0301428350902172    8.8375774466239463   -0.0411120047412861
    -0.0165531727698486   -0.0290671176538352    6.2390345628827379
  C               N               H               Pb              I             
     2     4    10     2     6
Direct
     0.5185511938107012    0.5006013923082904    0.5784905959783160
     0.9881252522495956    0.0188363440053791    0.5719196703118357
     0.5427814410639158    0.6222315968362295    0.4656251772147257
     0.4497265212515629    0.3768258647129983    0.4857079946741791
     0.0909350788861403    0.9107730399365010    0.5681881345974986
     0.9195193783079247    0.0716541580752548    0.3922897243324854
     0.5330996738173681    0.5018379584259236    0.7367213067961131
     0.5829637711030458    0.7195754511335792    0.5539597893142840
     0.5237161819619018    0.6328561583950005    0.3058654338087905
     0.4285679599171388    0.3679887539263831    0.3352689912999978
     0.4400296588176786    0.2834359841501097    0.5834050973211333
     0.9475334584069657    0.0631740155035203    0.7169748955423074
     0.1373812343188661    0.8871695597878855    0.7164836013030396
     0.1296196539812158    0.8671070607077311    0.4442030244273880
     0.9474064813651992    0.0308478643924488    0.2371279596037041
     0.8443131290736687    0.1538880028974390    0.4069992124539681
     0.0044712468794685    0.4980553726359247    0.9905620815973961
     0.5050147085522596    0.9997847516375273    0.9984274414766716
     0.9991010900259525    0.4951033641049918    0.4902649417629235
     0.5011956964480504    0.9997473984544101    0.4984968939856600
     0.2183890092391607    0.2128441149984255    0.9904850414006034
     0.2837822832695309    0.7161535985796519    0.9968773804253956
     0.7181281296168223    0.2826854896750319    0.9881720665498932
     0.7807342309524543    0.7872640810904059    0.9895989811506425

  0.00000000E+00  0.00000000E+00  0.00000000E+00
  0.00000000E+00  0.00000000E+00  0.00000000E+00
  0.00000000E+00  0.00000000E+00  0.00000000E+00
  0.00000000E+00  0.00000000E+00  0.00000000E+00
  0.00000000E+00  0.00000000E+00  0.00000000E+00
  0.00000000E+00  0.00000000E+00  0.00000000E+00
  0.00000000E+00  0.00000000E+00  0.00000000E+00
  0.00000000E+00  0.00000000E+00  0.00000000E+00
  0.00000000E+00  0.00000000E+00  0.00000000E+00
  0.00000000E+00  0.00000000E+00  0.00000000E+00
  0.00000000E+00  0.00000000E+00  0.00000000E+00
  0.00000000E+00  0.00000000E+00  0.00000000E+00
  0.00000000E+00  0.00000000E+00  0.00000000E+00
  0.00000000E+00  0.00000000E+00  0.00000000E+00
  0.00000000E+00  0.00000000E+00  0.00000000E+00
  0.00000000E+00  0.00000000E+00  0.00000000E+00
  0.00000000E+00  0.00000000E+00  0.00000000E+00
  0.00000000E+00  0.00000000E+00  0.00000000E+00
  0.00000000E+00  0.00000000E+00  0.00000000E+00
  0.00000000E+00  0.00000000E+00  0.00000000E+00
  0.00000000E+00  0.00000000E+00  0.00000000E+00
  0.00000000E+00  0.00000000E+00  0.00000000E+00
  0.00000000E+00  0.00000000E+00  0.00000000E+00
  0.00000000E+00  0.00000000E+00  0.00000000E+00
