C  N  H  Pb I 
 1.0000000000000000
     8.8511178083098461    0.0301428350902172   -0.0234125077519529
     0.0301428350902172    8.8375774466239463   -0.0411120047412861
    -0.0165531727698486   -0.0290671176538352    6.2390345628827379
 C   N   H   Pb  I  
   2   4  10   2   6
Direct
  0.5185511938107021  0.5006013923082938  0.5784905959783158
  0.9881252522495945  0.0188363440053759  0.5719196703118324
  0.5427814410639131  0.6222315968362329  0.4656251772147268
  0.4497265212515654  0.3768258647130015  0.4857079946741771
  0.0909350788861389  0.9107730399364992  0.5681881345974967
  0.9195193783079263  0.0716541580752575  0.3922897243324856
  0.5330996738173658  0.5018379584259220  0.7367213067961150
  0.5829637711030435  0.7195754511335807  0.5539597893142841
  0.5237161819619045  0.6328561583949991  0.3058654338087920
  0.4285679599171390  0.3679887539263802  0.3352689912999947
  0.4400296588176799  0.2834359841501115  0.5834050973211347
  0.9475334584069658  0.0631740155035213  0.7169748955423093
  0.1373812343188641  0.8871695597878867  0.7164836013030410
  0.1296196539812142  0.8671070607077345  0.4442030244273864
  0.9474064813651981  0.0308478643924471  0.2371279596037011
  0.8443131290736665  0.1538880028974364  0.4069992124539661
  0.0044712468794708  0.4980553726359234  0.9905620815973956
  0.5050147085522603  0.9997847516375244  0.9984274414766704
  0.9991010900259535  0.4951033641049911  0.4902649417629218
  0.5011956964480525  0.9997473984544121  0.4984968939856631
  0.2183890092391609  0.2128441149984270  0.9904850414006033
  0.2837822832695316  0.7161535985796489  0.9968773804253955
  0.7181281296168238  0.2826854896750299  0.9881720665498920
  0.7807342309524552  0.7872640810904051  0.9895989811506450
Cartesian
  0.0000000000000000  0.0000000000000000  0.0000000000000000
  0.0000000000000000  0.0000000000000000  0.0000000000000000
  0.0000000000000000  0.0000000000000000  0.0000000000000000
  0.0000000000000000  0.0000000000000000  0.0000000000000000
  0.0000000000000000  0.0000000000000000  0.0000000000000000
  0.0000000000000000  0.0000000000000000  0.0000000000000000
  0.0000000000000000  0.0000000000000000  0.0000000000000000
  0.0000000000000000  0.0000000000000000  0.0000000000000000
  0.0000000000000000  0.0000000000000000  0.0000000000000000
  0.0000000000000000  0.0000000000000000  0.0000000000000000
  0.0000000000000000  0.0000000000000000  0.0000000000000000
  0.0000000000000000  0.0000000000000000  0.0000000000000000
  0.0000000000000000  0.0000000000000000  0.0000000000000000
  0.0000000000000000  0.0000000000000000  0.0000000000000000
  0.0000000000000000  0.0000000000000000  0.0000000000000000
  0.0000000000000000  0.0000000000000000  0.0000000000000000
  0.0000000000000000  0.0000000000000000  0.0000000000000000
  0.0000000000000000  0.0000000000000000  0.0000000000000000
  0.0000000000000000  0.0000000000000000  0.0000000000000000
  0.0000000000000000  0.0000000000000000  0.0000000000000000
  0.0000000000000000  0.0000000000000000  0.0000000000000000
  0.0000000000000000  0.0000000000000000  0.0000000000000000
  0.0000000000000000  0.0000000000000000  0.0000000000000000
  0.0000000000000000  0.0000000000000000  0.0000000000000000
