C  N  H  Pb I 
 1.0000000000000000
     9.0773444396293801   -0.0561665050777399    0.0372034478351518
    -0.0561665050777399    8.9315451325892266   -0.0095378109775241
     0.0263036794765374   -0.0067434481871744    6.3263781185515011
 C   N   H   Pb  I  
   2   4  10   2   6
Direct
  0.5000018554397698  0.5000022537173052  0.5710180843918637
  0.0000007410375673  0.9999987646105948  0.5710173459562401
  0.5923581034953975  0.5923585163879724  0.4765803103999294
  0.4076407503633792  0.4076411399921032  0.4765811169345089
  0.0923596624104001  0.9076399465760641  0.4765807909973082
  0.9076407520067941  0.0923588334847715  0.4765810251555298
  0.5000002811686741  0.5000006754111793  0.7434031870421927
  0.6592043223742974  0.6592047228670135  0.5661117567204836
  0.6020540182598019  0.6020543629609085  0.3166118097023156
  0.3979460835827361  0.3979464056777409  0.3166130108747679
  0.3407963330843803  0.3407967026589521  0.5661133888189648
  0.0000003891983269  0.9999991386351895  0.7434028011511010
  0.1592037642541199  0.8407958108961849  0.5661101690442601
  0.1020541224786791  0.8979456517450166  0.3166108718828011
  0.8979457520127502  0.1020539951781196  0.3166116306627342
  0.8407959940430518  0.1592035362748204  0.5661129987487663
  0.9991269987227359  0.5010727096954215  0.9941925989635471
  0.4973861907652034  0.9992551088169471  0.9946263458274023
  0.0001758528979262  0.5017647002931357  0.4939424020514027
  0.4997244938685796  0.9994420312550678  0.4934338939111135
  0.2197829528489746  0.2191291049617470  0.9888379886940286
  0.2808058418698445  0.7211844570882617  0.9884967139914018
  0.7181388980824740  0.2813109238455986  0.9931450127150367
  0.7813970229846214  0.7813446092579006  0.9874511848280282
Cartesian
  0.0000000000000000  0.0000000000000000  0.0000000000000000
  0.0000000000000000  0.0000000000000000  0.0000000000000000
  0.0000000000000000  0.0000000000000000  0.0000000000000000
  0.0000000000000000  0.0000000000000000  0.0000000000000000
  0.0000000000000000  0.0000000000000000  0.0000000000000000
  0.0000000000000000  0.0000000000000000  0.0000000000000000
  0.0000000000000000  0.0000000000000000  0.0000000000000000
  0.0000000000000000  0.0000000000000000  0.0000000000000000
  0.0000000000000000  0.0000000000000000  0.0000000000000000
  0.0000000000000000  0.0000000000000000  0.0000000000000000
  0.0000000000000000  0.0000000000000000  0.0000000000000000
  0.0000000000000000  0.0000000000000000  0.0000000000000000
  0.0000000000000000  0.0000000000000000  0.0000000000000000
  0.0000000000000000  0.0000000000000000  0.0000000000000000
  0.0000000000000000  0.0000000000000000  0.0000000000000000
  0.0000000000000000  0.0000000000000000  0.0000000000000000
  0.0000000000000000  0.0000000000000000  0.0000000000000000
  0.0000000000000000  0.0000000000000000  0.0000000000000000
  0.0000000000000000  0.0000000000000000  0.0000000000000000
  0.0000000000000000  0.0000000000000000  0.0000000000000000
  0.0000000000000000  0.0000000000000000  0.0000000000000000
  0.0000000000000000  0.0000000000000000  0.0000000000000000
  0.0000000000000000  0.0000000000000000  0.0000000000000000
  0.0000000000000000  0.0000000000000000  0.0000000000000000
