48
Lattice="9.12180007 -0.07751951 -0.00719722 -0.07544282 8.76928608 -0.0140327 -0.010211 -0.0204568 13.01348875" Properties=species:S:1:pos:R:3:forces:R:3 config_id=O-FAPI3_al_combined_01__combined_strain_rattle_fa_rotation__sev-0.407__seed-new phase=O-FAPI3 mode=active_learning seed=1899588555 source=O-FAPI3/CONTCAR energy=-219.77525742 stress="-0.006907238662909842 0.005656388211104272 -0.0025666334826098596 0.005656388211104272 -0.008619932896726488 -0.004589383819824117 -0.0025666334826098596 -0.004589383819824117 -0.004019316669834158" pbc="T T T"
C        4.35390941      -0.04198837       3.26924972       1.31440668       1.88323374       9.10894831
C        8.87095344       3.67734416       9.59932660      10.95163357       1.46310489       1.92886520
C        8.96425547       4.55666652       3.08536913       7.72625661      10.95312852       9.04531400
C        4.23914418       8.24922059       9.45504897       6.59285374       2.02369541       0.29361887
N        5.02968309       8.16180997       2.50876255       7.95931712      -4.18331688      -9.64140272
N        0.76067207       4.64280615       9.61915352       3.45865595      -0.03264097      -0.59382818
N        1.22581860       5.11259643       3.10149191      -6.07331341      -7.01498164      -5.50826205
N        5.61372072       7.92179892      10.01576891      -6.17023210       1.73411700      -3.64421845
N        3.42388006       0.73408213       3.00925395      -2.41096222       1.42597800      -5.29058497
N        7.77711178       4.09456175       9.32752803      -7.32695737      -9.69940662       4.77434706
N        8.45240869       3.75083840       2.39705376      -3.18852160      -7.20332826      -6.33888754
N        4.18230430       0.48912641       8.61276568       3.21739148      -1.37861979       1.92730262
H        4.73226516       0.03303962       4.37981861      -0.98869600      -0.65071652      -1.49020523
H        0.13338540       2.80309283       9.95938958      -1.03597108      -0.65169615       0.11344512
H        8.36902079       5.14405056       3.95088435       0.85060878      -1.44744212      -1.92837206
H        3.40001450       7.75992253       9.84971761      -1.10964299      -1.03660792       0.54956471
H        6.08349282       7.84836230       2.66574716      -2.58880114       0.67152191       0.48004325
H        1.91944861       4.43500596       9.66554814      -3.22928360      -0.14496832       0.05997153
H        1.52428867       5.74741732       3.70417970       1.77016566       3.50978435       3.42551030
H        5.49165782       7.29038279      10.76320664       0.80488428      -0.83431326       1.22612433
H        4.98349673       8.35299619       1.36696861      -0.34209601      -0.69846115       3.16575811
H        0.68614718       5.57510537       9.18240961      -0.60557116      -0.31829682       0.30124320
H        1.76962983       4.55616232       2.40845236       0.35501962       1.15080931       0.94159967
H        6.41064522       8.51594490       9.77606512      -0.13389099      -0.37549322       0.37169881
H        3.16188667       0.87492566       2.00512522      -0.25437508       0.14919099       0.98875922
H        7.46896179       4.70730291       8.76238140      -2.76978712       6.33278103      -5.22152224
H        8.93780892       3.19009671       1.63301668      -0.50882915       0.59882970       0.74146767
H        5.05932869       1.06468908       8.25150541      -1.65244967      -1.05340372       0.37686456
H        2.87900501       1.06905114       3.70514417      -2.40957666       1.66779442       2.67770979
H        7.16322746       3.17007127       9.51892755       0.07861900       3.00726474      -0.99291673
H        7.48354000       3.57994740       2.62343406      -1.05526985      -0.53976301      -0.39323443
H        3.28474836       0.72747777       8.32718955      -2.15507666       0.68977950      -0.93897221
Pb       4.49453398       4.27122059      12.70081906       0.04684823       0.08580260       0.27699428
Pb       9.10191867       0.00281640       6.24746857       0.16927750       0.22218036      -0.12500409
Pb       8.92263319       8.58704923      12.65772613       0.05969699      -0.13071589       0.16832533
Pb       4.61320182       4.58394586       6.29658042      -0.54395491      -0.32210794      -0.30300016
I        7.17826210       6.06776509       6.72295159       0.41443503       0.53372387      -0.34447330
I        8.74516516       8.68195955       2.91985101      -0.18238916      -0.04744762      -0.07139356
I        6.34577272       1.57953851      12.46054578       0.23551736      -0.11494225       0.08712641
I        1.82645712       2.60647163      12.99255555      -0.31593104      -0.33710117       0.08441752
I        1.90394882       2.72598738       6.05604946      -0.21246656      -0.36147448       0.05265367
I        2.53567392       7.08440815       5.99562367       0.08952743      -0.17432595       0.07822673
I        7.18348180       5.87268685      12.42335010       0.33441572       0.20920581       0.20039656
I        6.40704880       1.71098348       6.62319578       0.30805621       0.37206068      -0.38724535
I        4.06288236       4.38739376       9.62809040       0.56068149      -0.10349022      -0.17939529
I        0.39370175       0.05182415       9.42262164       0.01688347      -0.14553516       0.13589717
I        2.74505721       6.79333795       0.04442805      -0.20989463       0.35172534      -0.16569480
I        4.92167253       4.31272000       3.17100989       0.15878827      -0.03511513      -0.02358063
48
Lattice="8.7393663 -0.09734117 0.08683376 -0.09473348 8.65293653 0.08157804 0.12319469 0.11892407 13.13910908" Properties=species:S:1:pos:R:3:forces:R:3 config_id=O-FAPI3_al_combined_02__combined_strain_rattle_fa_rotation__sev-0.422__seed-new phase=O-FAPI3 mode=active_learning seed=1974325161 source=O-FAPI3/CONTCAR energy=-217.61888807 stress="-0.04466282693868654 0.007310700766655452 -0.004427958882871248 0.007310700766655452 -0.012883931104732295 0.012608529320514724 -0.004427958882871248 0.012608529320514724 0.0029652669426843757" pbc="T T T"
C        4.37065297       0.37983103       3.41091197      20.40611046      -7.71654174       0.87365188
C        0.13018435       3.99949927       9.83701766      -5.28514814       2.69160951      -4.40993693
C        8.71246764       4.49741497       3.36382701      -1.65641490       7.24306112       5.92000452
C        4.19553952       8.30851421       9.86127951       5.89591684      -2.86807173       2.42922973
N        4.95623000       8.08145673       2.69477367      -2.78152933      -0.67088420      -2.24845878
N        0.60264977       4.93045065       9.00682407       5.67873799      -2.93645997       5.49992566
N        1.14642896       5.13726698       3.22553078       3.29720372      -3.60524018      -3.73759611
N        5.51651606       7.98449105       9.93319510      -2.18101264       0.38407225      -0.44456501
N        3.32170381       0.76679040       3.27750779     -17.36303061       2.73772971      -5.43771431
N        7.51597577       3.61821764       9.78383601       9.96496438      -5.22669754       7.88612411
N        8.00493179       3.80802896       2.61303128      24.78033932      -1.94979933      -5.20633183
N        3.85181013       0.55139079       9.08143283       3.91956539       5.03139815      -6.76702226
H        5.23653195       0.67146339       4.17974733      -2.31935244       0.23342991      -0.80514055
H        0.70496237       3.54678945      10.57145019       1.27626081      -0.92387066       1.36547295
H        8.10014842       5.16838000       4.14214754       0.61571967      -1.72709197      -1.10761188
H        3.53202395       7.92239122      10.54906178      -1.29789282      -1.55654438       1.70737733
H        5.98371630       7.93251146       2.69339255      -0.75874896       0.49517614       0.62196948
H        1.61734644       5.17276787       9.29435848      -1.42076448      -0.26977812      -0.91620467
H        1.62734051       5.74793783       3.86471167      -0.36256532       0.28157628       0.91933102
H        5.76108976       7.32834870      10.65595171       0.65663849      -0.32319996       0.10946760
H        4.46971405       7.56854721       1.75592913       1.11590320       1.86784944       3.04083348
H        0.24101243       5.51093390       8.35959820      -2.47567820       2.12684851      -2.82913660
H        1.82695427       4.58867249       2.56360496      -0.87142162       1.57349059       1.22259817
H        6.18911783       8.48059907       9.34255123       0.05253118      -0.39689163       0.40592279
H        2.52409907       0.21750214       2.37138846       2.25651590       1.87408894       2.80132527
H        7.04816008       4.07358303       9.20302060      -5.92665977       4.75559180      -6.35501568
H        8.51491485       3.16583396       1.94882341      -0.67069496       0.62758304       0.11241372
H        4.48799082       1.10708187       8.23951862      -1.75785052      -1.53196806       2.43790206
H        2.83737683       1.38720685       3.87395060      -0.85459683       1.13002653       1.06691469
H        7.30247708       2.92074073      10.48236551      -1.56601310      -0.26517992      -0.11321596
H        7.23567387       3.72722945       2.65268479     -24.79545886      -2.51554041       1.82656443
H        2.94187866       0.73439373       9.19465764      -4.77432905       1.38390184      -0.02822628
Pb       4.51179958       4.19350804      13.07550439      -0.09120307       0.22571479      -0.12027802
Pb       8.73729163       0.14351298       6.38583251       0.16236330      -0.35382438       0.09421460
Pb       8.72770123       8.49953602      13.07842474       0.46602986       0.23662296      -0.10486082
Pb       4.37841512       4.50746375       6.41801026      -0.18751817       0.03784912       0.04739432
I        6.96982744       6.10242442       6.73447769       0.05865578       0.05335792      -0.02806558
I        8.41828000       8.52109842       3.17720385       0.23295058       0.04650207       0.14891723
I        6.40166048       1.75421154      12.77552054      -0.14398752      -0.01296450      -0.05243813
I        1.77446822       2.46440429       0.13604073      -0.08344625       0.05599992       0.09372462
I        1.75803245       2.67363622       6.04360021       0.14697648       0.25815835      -0.05167804
I        2.58204683       7.03978649       6.26881384      -0.04341776       0.01962969      -0.09647477
I        7.08228873       6.07585261      12.87463009      -0.23737642      -0.47555273      -0.11933915
I        6.22515461       1.91056880       6.69344054      -0.23732333      -0.10084557       0.08366917
I        4.10680828       4.42237916       9.78251296      -0.14796894      -0.02725735      -0.17990375
I        0.58854796       0.14018743       9.63473402      -0.47334714      -0.02921380      -0.03009344
I        2.68736616       6.87234065      13.12683917       0.09723999       0.08047061       0.19327707
I        4.74302518       4.28356220       3.09079580      -0.31587218       0.03167892       0.28108263
48
Lattice="8.7498612 -0.09913922 0.04008463 -0.09648336 8.8866065 -0.06810517 0.05686974 -0.09928338 12.58563599" Properties=species:S:1:pos:R:3:forces:R:3 config_id=O-FAPI3_al_combined_03__combined_strain_rattle_fa_rotation__sev-0.438__seed-parity phase=O-FAPI3 mode=active_learning seed=3663235565 source=O-FAPI3/CONTCAR energy=-214.57902894 stress="-0.03772543231832933 -0.022908873568304164 -0.0009144287221395462 -0.022908873568304164 -0.027932683006979504 0.006890725920396604 -0.0009144287221395462 0.006890725920396604 -0.03255243229298781" pbc="T T T"
C        4.35944561       0.09685446       3.24225178       1.09315570       1.88746413      -1.96619163
C        0.00814486       4.27870121       9.31953162       7.64466873       3.35782261       7.63811053
C        0.07468278       4.51907587       3.11515974      -8.49153964      -5.07288920       5.80409773
C        4.14947588       8.43849713       9.38217583      10.49851658      -4.51801913       0.16535256
N        4.83678104       8.28422002       2.22922274       6.65852335       3.34690553       9.82426158
N        0.66673794       4.56396082       8.28834374      -1.64267243      -0.59447982      -0.72502460
N        0.51721465       5.71181482       3.11910565       1.17195977      -1.56639914      -2.34499285
N        5.52418209       7.91869155       9.32282617      -9.15884086       3.38111550      -1.07749193
N        3.23972562       0.69883220       3.04621879       0.67267275       2.05977130       3.75509215
N        7.68326479       3.69684474       9.57083615      -9.58562645      -3.38051629       1.82035640
N        8.58356644       3.35076464       2.33611820      26.70929236      26.15861797      -5.56680795
N        3.99055664       0.43310231       8.66541728     -10.27978803       3.60363442       0.44603063
H        4.97125658       0.70056051       3.88409138       0.91822530      -0.68534160       1.22406148
H        0.47925191       4.50039491      10.45440423      -0.11694173      -0.23819438      -3.01150800
H        7.96605008       4.26948743       4.17211015       2.68308474       0.38243378      -2.32147069
H        3.74418167       7.93403106      10.13227612      -3.48395191      -1.44138447       3.08976727
H        5.81733109       7.96354228       2.40718455      -0.67619784       0.50047629       0.22909619
H        1.53462191       4.94618406       8.35858407       3.20483402       1.37424617      -0.15953902
H        0.57221511       6.25184060       3.95219926       0.36660637       0.62272987       0.85865672
H        5.82563675       7.30726844       9.92318116       2.35342625      -4.29658161       4.16865807
H        4.54522930       7.87446177       1.53137262      -5.09363466      -5.01564188      -9.22725373
H        0.14074499       4.43555125       7.48742050      -0.45810796       0.03368524      -2.97946977
H        1.12053124       5.75558281       2.33273305       1.60591757       2.10447354      -1.02301459
H        5.99699609       8.41024661       8.70575478       3.82067278       2.32229785      -3.46042246
H        2.60150912       0.38978501       2.45532816      -3.71112415      -1.84251869      -3.88751751
H        7.03953423       3.56162794       8.80532448      -0.67854089      -0.51385880      -0.51455752
H        0.42270300       3.77651458       1.42753758      -1.82410690      -2.57132582       0.47385653
H        4.31630302       0.89731212       7.90393592       2.38019216       1.38170101      -2.85606859
H        2.85806937       1.37949270       3.71497167       0.31717817      -0.09392463       0.19886971
H        7.16427002       3.62394977      10.54232709       1.56621133      -0.03451360      -1.96240157
H        8.02894053       2.86603906       2.46031298     -22.97152543     -20.28008019       4.92112559
H        2.75932384       0.67510882       8.77325540       3.21738244      -0.49673562      -0.44431544
Pb       4.45330086       4.23931394      12.45634330      -0.38182232      -0.41739395      -0.35422219
Pb       0.06116653      -0.00049885       6.00353856       0.02065543       0.15458925       0.41826958
Pb       8.68349914       8.48818230      12.35974322       0.27616227       0.90531320      -0.20798722
Pb       4.40325243       4.49032152       6.15159235      -0.45045539      -0.44650124      -0.22892787
I        6.83642271       6.06663014       6.35929584       0.84084972       0.55755568      -0.06108597
I        8.32045960       8.62728852       2.94957136      -0.24461841       0.38802776      -0.33512375
I        6.17902565       1.62626540      12.06978778      -0.00150173       0.04127525       0.10192993
I        1.74744932       2.55043846       0.09820227       0.82770432      -0.21682102      -0.93114030
I        1.75694555       2.67500647       5.78698121      -0.04245785      -0.44443486      -0.26382326
I        2.54412879       6.97700232       5.81643539      -0.03096261       0.21712586      -0.01158678
I        6.92409720       6.16133366      12.09861632      -0.17714688      -0.56467311       0.11818541
I        6.23644054       1.77673427       6.43568668       0.09157477       0.06781069      -0.18167730
I        4.02750019       4.40852387       9.21507887       0.01605170      -0.02033921      -0.05945369
I        0.34117523      -0.04285942       9.14639513       0.48203890       0.12526067       0.21342220
I        2.44227836       7.00419938       0.11572245      -0.03499848      -0.22180246      -0.14682978
I        4.76723758       4.36950298       2.75720787       0.09900507       0.00003711       0.84070570
48
Lattice="9.17267529 0.07287122 0.09962527 0.07091906 8.87186682 -0.02801096 0.14134255 -0.04083423 12.59948115" Properties=species:S:1:pos:R:3:forces:R:3 config_id=O-FAPI3_al_combined_04__combined_strain_rattle_fa_rotation__sev-0.453__seed-new phase=O-FAPI3 mode=active_learning seed=3854395481 source=O-FAPI3/CONTCAR energy=-215.0582821 stress="-0.020871089077122554 0.0059091046811510185 -0.011746909876017586 0.0059091046811510185 -8.461655115920164e-05 0.002624267440565065 -0.011746909876017586 0.002624267440565065 -0.00726005855346457" pbc="T T T"
C        4.49441350       0.15973675       3.31725552       4.55751099      -3.34532097      -8.33312421
C        0.16684956       4.04881712       9.44296757      -0.67261862       2.32350185       0.52074616
C        0.20537726       4.86298494       2.93538587     -30.87975500       4.60194051       4.15353009
C        4.72517929       8.42614472       9.25653133       0.39792041      -3.59486273       1.98078159
N        5.49532881       8.45771590       2.34335267       1.25215271       1.05180921      21.16484356
N        0.55900888       5.34736955       9.11493854      -3.28067018      -7.34437936       0.68406227
N        1.26953372       4.80609044       3.00479063      31.59348243      -2.06129824       1.70554611
N        6.00449597       8.20691779       9.58515007      -6.46784410      16.15970051      -5.43129372
N        3.43544450       0.60577130       2.88412160      -9.04397058       3.41814652      -2.97791371
N        8.45407896       3.43428046       8.87815093      -2.62065900      -2.45278393      -0.71866274
N        8.38027301       4.26227364       2.49555237      -1.04067340      -1.99993353      -3.93730379
N        4.04974763       0.54768654       8.79390000       5.01190438       5.94871378      -1.76420765
H        4.68934223       0.35663612       4.25176897       1.86849046       0.33320967       5.24086354
H        0.43237397       3.68904060      10.47727530       0.18781481       0.19053084      -1.03752216
H        8.63357967       5.59918661       3.98012818       2.44910154      -0.76234753      -1.93499879
H        4.03525467       7.65781134       9.53418522      -0.34011809      -1.12033681       0.23161205
H        6.43819150       8.31764691       2.96544665      -2.13718628       0.10473221      -2.78790434
H        1.14892099       5.64500602       9.75324418       3.90475419       2.83617155       3.24254181
H        2.04695641       5.31429881       3.83378435      -2.63859270      -1.14515586      -2.49958754
H        6.34289987       7.46373062       9.76461830       5.63956045     -13.07679666       3.30236176
H        5.47398050       8.43842656       1.50454612      -0.69591981      -0.11889075     -14.11602006
H        0.31804112       5.68267896       8.26545117      -0.62572058       1.94174566      -3.29343223
H        1.90453051       4.11338538       2.32013907      -1.46301987       1.60946757       1.46904219
H        6.50135940       0.10646842       9.17188189       0.27119022      -1.34065934       0.97121249
H        2.96235561       0.60269367       1.85598543       1.99667279      -0.39908685       2.27003882
H        7.96052808       3.78933564       7.92795006       1.33833320      -0.93861559       2.43788251
H        8.82887822       3.68872679       1.70458519      -1.71734023       0.30979482       0.73191232
H        4.69842441       1.47182025       8.44217452      -2.13331869      -2.67581435       1.00702600
H        2.65831802       1.07299311       3.49481233       1.96492325      -0.97042175      -0.55798199
H        7.99244496       2.38375263       9.35587416       1.89109862       3.75401418      -1.62691486
H        7.26145743       4.53035642       2.36838510       3.56047161      -0.39972252       0.66669676
H        3.13059678       0.58495890       8.48614687      -2.45428948      -0.26039359      -0.39353855
Pb       4.76032358       4.40481854      12.41802958       0.15391674       0.03358885      -0.36318143
Pb       9.21497519       0.17639426       6.08646376       0.12254487      -0.22861982      -0.26579443
Pb       0.21951101       8.71655939      12.23064192      -0.24206588      -0.05585334       0.29293559
Pb       4.70007798       4.46784788       6.04032023      -0.08947047       0.27259750       0.20695022
I        7.29387670       6.34030889       6.32479520       0.09204582       0.01142705       0.00186573
I        8.84945076       8.90094162       2.88188505       0.32473926       0.09036238       0.31568205
I        6.64094133       1.84710488      12.21483966       0.12963539      -0.00854320      -0.16472391
I        2.01017721       2.68367519       0.10162432      -0.29424214      -0.36236190      -0.01122176
I        2.02565173       2.57233724       5.98353188       0.01118420      -0.00816616      -0.09820411
I        2.86363692       7.16287363       5.79697971      -0.16998984      -0.32017457      -0.08121226
I        7.38008287       6.18637070      12.21631635       0.30034280       0.29323965      -0.02417112
I        6.64261174       1.99128691       6.35080396      -0.20923584      -0.21058144      -0.04007636
I        4.43366823       4.41662889       9.33295868      -0.05116720      -0.01253261      -0.49084188
I        0.47209825       0.08117404       9.15170969      -0.01789326      -0.10443786      -0.06824065
I        2.64702723       7.04530950       0.10876752       0.02968919       0.04828742      -0.14805125
I        4.75815616       4.34724040       2.86791984       0.23628091      -0.01489047       0.56799188
48
Lattice="9.16537402 0.09512653 0.06778256 0.09257816 8.69963305 0.03920591 0.09616596 0.05715418 12.48755857" Properties=species:S:1:pos:R:3:forces:R:3 config_id=O-FAPI3_al_combined_05__combined_strain_rattle_fa_rotation__sev-0.468__seed-new phase=O-FAPI3 mode=active_learning seed=2205849989 source=O-FAPI3/CONTCAR energy=-214.33408925 stress="-0.017597379124108112 0.009754915205413538 -0.001597722951868953 0.009754915205413538 -0.015089281478797623 0.009555083023465874 -0.001597722951868953 0.009555083023465874 -0.033946799506313206" pbc="T T T"
C        4.46295399       0.35670305       3.32485865      -4.94092947       0.72177207      -7.83030761
C        0.20156693       4.09308483       9.46063526     -11.59147034       3.73210712      -7.24919270
C        0.10897670       4.74253185       3.08240797     -17.63263146      -6.86364570       1.57549304
C        4.61291280       8.42165660       9.46772456       3.47847037      -0.58413267      -1.65555288
N        5.48255202       8.32867432       3.08049666       7.76543510      -6.87796735      -2.68167656
N        0.63421250       5.02166195       8.66805896       7.84800695      -3.28942860      11.57823399
N        1.19242940       5.03844272       2.89590888      16.91846156       7.57961089       1.04152781
N        5.84521228       7.94007537       9.41785334      -1.70979284       8.84645264     -12.37604510
N        3.61533971       0.57242651       2.24837731      -2.09966901       6.54979767      15.76690491
N        7.99191280       3.79278022       9.44833109       7.59249662       7.58321905      -4.35874603
N        8.63262885       3.84889554       2.35534409     -12.56432810      11.39828718      18.39281755
N        4.12874980       0.53762141       8.50245017      -5.65519021       3.93438967      -1.02925092
H        4.24712391       0.65935485       4.22839005      -1.20343637       2.04094385       4.72708354
H        0.77994918       3.59973043       9.96940014       6.11777956      -4.99102613       6.22624006
H        8.52427782       5.22735415       4.08851507       2.18006022      -0.59300657      -2.46471205
H        4.11316402       7.87931503      10.22527411      -1.99640391       0.19008312       0.89046075
H        6.19302606       7.91325191       3.72471476      -0.65872204       0.78450797      -0.19643906
H        1.74487640       5.16991785       8.77410976      -2.21162262      -0.39095735       0.09402957
H        1.55576620       5.84114069       3.65685615      -0.37378397      -2.03158802      -2.14198896
H        6.21396141       7.52312305      10.05824716       5.30536408      -6.66972253       9.95912000
H        5.61184613       7.84406209       2.06942446      -0.45415966       1.55957365       2.61886638
H        0.46524328       5.30388063       7.88231495      -4.16348749       4.03907120     -11.34793318
H        2.00673150       4.69648851       2.30864565      -1.50684515       0.10729925       0.26583740
H        6.70044546       8.47813464       8.70565346      -3.16603876      -1.89728092       2.44729737
H        3.54362565       0.37472697       1.40753930       0.05346331      -2.93804015     -10.32009480
H        7.39738250       4.21220869       8.76168983      -0.49269295       0.27303624      -0.38317032
H        9.05083130       3.49013098       1.77167096       9.56324479      -9.21602259     -14.54937255
H        4.49202333       1.21408893       7.73705553       1.13092804      -1.85216121       1.39908328
H        2.82337345       1.23535883       2.64177039       1.57129632      -1.61660934      -1.69412581
H        7.73523671       3.12309804       9.96084350      -2.93164430      -7.03534956       5.29240927
H        7.55641756       3.74162310       2.71185164       3.24310438      -0.28577645      -1.81967105
H        3.08742202       0.97860946       8.57620536       2.46256182      -1.82898396       0.30760256
Pb       4.81756321       4.38942914      12.34607318      -0.26583936      -0.21150304      -0.38054394
Pb       0.16850286       8.66746499       6.03562160      -0.15869557       0.49497700      -0.22128940
Pb       9.28932536       8.60474989      12.28551953       0.42220376       0.41293262       0.76404913
Pb       4.67134567       4.59231323       5.95005612      -0.26500806      -0.91458171       0.36937988
I        7.11087246       6.20826171       6.36194708       0.75504612       0.47450470       0.01407904
I        8.86260400       8.65915029       3.04047954       0.22219888      -0.00780548       0.26664537
I        6.69326234       1.70551469      12.10342708      -0.42738729       0.27314830       0.12873025
I        1.82964897       2.58993787       0.10270239       0.37489371       0.13115503      -0.29802322
I        2.01719297       2.60819254       5.73893467      -0.15159873      -0.30675878       0.04638284
I        2.78839781       6.93566209       5.83469359      -0.31777353       0.26499695      -0.15158735
I        7.46067547       6.27041320      12.20894282      -0.37248260      -0.54430849       0.06942639
I        6.55319994       1.87861307       6.30812155       0.08246467       0.00936520      -0.05673383
I        4.22654338       4.53071293       9.18960807      -0.11846838      -0.07784866      -0.05398762
I        0.39541653       8.68111139       9.30062018       0.18721879       0.10151247      -0.88740087
I        2.85538978       6.93217163       0.08477701       0.09201322      -0.41548040      -0.14084015
I        5.05016449       4.56814119       2.90664358       0.06338991      -0.06275817       0.04698558
48
Lattice="8.90777087 0.00439719 0.00151788 0.00427939 9.03539105 -0.1013503 0.00215348 -0.14774796 13.04028405" Properties=species:S:1:pos:R:3:forces:R:3 config_id=O-FAPI3_al_combined_06__combined_strain_rattle_fa_rotation__sev-0.482__seed-new phase=O-FAPI3 mode=active_learning seed=2035766449 source=O-FAPI3/CONTCAR energy=-219.74111315 stress="-0.014500987817684677 0.008706801652763201 0.004057825308144704 0.008706801652763201 0.008938257738931052 -0.0017484615451455227 0.004057825308144704 -0.0017484615451455227 0.012082228506326736" pbc="T T T"
C        4.45919922       0.04855337       3.15267427       5.78317816      -3.52529061       2.97871772
C        8.74412533       3.83621694       9.55215589       1.44449910      -1.76927450       4.60662871
C        8.87752313       4.83983543       3.04861981      -2.34781592       0.86175435       0.40824133
C        4.47501187       8.41453576       9.59323449     -11.04060560       5.84058172       5.18881324
N        5.08070380       8.67034494       1.90125242      -8.80760737       4.87728593       0.91600824
N        0.90796115       4.62261948       9.59524114      -1.38168278       0.28471560      -1.25191954
N        1.14692346       5.15475790       3.57157564       1.54061424      -0.89723793      -1.71479864
N        5.46158572       7.95976643       9.13558222       9.84266527       2.08547204      -7.10497103
N        3.34664341       0.62081716       3.44035239      -0.88466474       1.27309307       0.22386585
N        7.64899217       4.06895181       9.03125509      -5.98462856       2.36900733      -4.95656936
N        8.32073050       4.04062907       2.14312415       6.18766907      -1.42635872      -0.91634399
N        3.78226786       0.61159830       9.50774742       7.71764038      -5.74965150      -2.30779917
H        5.09634030       8.77234282       4.18882299      -1.53274488       0.73889996      -3.54759002
H        8.57943451       2.97267158      10.34361714       1.52560477       1.29217939      -1.25554863
H        8.00953308       5.33691424       3.36340812      -0.82553318       1.70699552       1.92644886
H        3.97784192       7.86269459      10.35357338      -0.72763975      -0.87573484       0.79703775
H        5.89115740       8.21987137       1.84189783       4.37462661      -2.35361042      -0.07389145
H        1.64661097       4.18916601      10.05602563       2.02154612      -0.39762417       0.88939188
H        1.26631173       6.00391857       4.40587091       0.06365684      -2.41505549      -2.49657288
H        6.08104939       7.21763178       9.33970357       0.08149242      -1.57652277       0.98970802
H        4.45665843       8.89135789       1.04057207       1.78614622      -0.87412619       1.08743202
H        1.10686392       5.46595466       9.02084575      -0.43155279      -0.83939119       0.42317697
H        2.01455826       4.64836521       3.00483240      -1.94178332       1.91776349       2.28974740
H        6.05265049       8.71322296       8.50512367      -1.33660302      -2.04916209       1.10161146
H        2.87641859       1.12890746       2.69669975      -0.75542876       0.11914733       0.03481697
H        7.58656690       4.96068834       8.11225721      -0.18029939      -2.24260989       2.46923309
H        0.17359032       3.53264691       1.56715539      -1.78200034       0.13782098       0.31307043
H        4.13651899       1.25186646       8.87853979       1.41766146       1.60574276      -1.93148883
H        3.13874127       0.86733966       4.46475386       0.14969914      -0.14904629      -1.71659899
H        6.68982157       3.52772106       9.23675946       2.67798040       1.27188421      -0.53313326
H        7.35606056       3.93512237       1.91374708      -0.96673600       0.35018283       0.21541093
H        3.02152612       0.94858717       9.87314180      -5.70754647       1.05505316       3.43173332
Pb       4.51032405       4.17413662      12.82157801       0.35807661       0.30954894      -0.09878685
Pb       0.02616191       0.24128762       6.24146597      -0.06585977      -0.10525588       0.06417341
Pb       0.19862885       8.87789149      12.76506761      -0.41259763      -0.60542095      -0.13792140
Pb       4.44672777       4.73316072       6.23560529       0.07355697      -0.30054815      -0.04322318
I        7.12185593       6.41575117       6.61633052       0.05584749      -0.02994491      -0.42550107
I        8.43034480       0.00705829       3.11284091       0.15740137      -0.04731827      -0.00393028
I        6.19640834       1.56843461      12.42508935       0.13073074       0.17919832      -0.09914348
I        1.73320985       2.61274653       0.08217351       0.55679607       0.13180453      -0.15978803
I        1.81941368       2.67139336       5.92507235       0.22378657       0.15028365       0.18156256
I        2.68773891       7.24202014       5.83546544      -0.02713072      -0.05852929       0.26052838
I        7.03975437       6.23926970      12.31645170      -0.10146564      -0.04905338       0.07804879
I        6.31232886       1.79444292       6.57740897      -0.33122318      -0.02738849       0.03513961
I        4.19942669       4.49521884       9.61307506       0.28664680      -0.10272213      -0.31128539
I        0.45527874      -0.04490025       9.58635811      -0.36473920      -0.12423021       0.03100890
I        2.70124126       7.12534182      -0.06024740      -0.24942074       0.03131243      -0.09096321
I        4.97620990       4.51181562       2.97435092      -0.27021306       0.00138072       0.23621280
48
Lattice="8.9427493 -0.07303559 0.09028796 -0.07107903 8.88772229 0.01525081 0.12809531 0.02223256 12.5766827" Properties=species:S:1:pos:R:3:forces:R:3 config_id=O-FAPI3_al_combined_07__combined_strain_rattle_fa_rotation__sev-0.497__seed-new phase=O-FAPI3 mode=active_learning seed=2861091372 source=O-FAPI3/CONTCAR energy=-212.19185501 stress="-0.049669043391898184 -0.004802520527454697 -0.007720369171173965 -0.004802520527454697 0.0021155253709217027 -0.0045244292082981825 -0.007720369171173965 -0.0045244292082981825 -0.017074629004597695" pbc="T T T"
C        4.33150010       0.21771584       3.22332872      -0.01022697       1.87058555       1.69924243
C        8.91472036       3.94259810       9.63005265      46.72275405       4.48574309       4.15523214
C        8.90661387       4.92842448       3.06948589      -2.02410487      -5.93467175      -0.46553203
C        4.48530349       8.38228195       9.38896366      -1.46860735       4.12862100       1.13715313
N        5.50943732       8.54111011       3.06231261     -12.44391654       3.47430403      -7.10947503
N        0.92641303       4.74344748       8.75473840     -18.92436974       4.76611333      -2.95078224
N        1.01985636       5.27725394       2.27246578      -1.00522804      -0.55135057       1.16457495
N        5.64977823       8.29124828       8.88148211       2.76459319      -7.04966080       3.24954457
N        3.26620625       0.32866231       2.34061338       1.18467363       4.03677567       9.23466812
N        7.93429380       3.87744427       9.42198992     -48.77161682      -3.72075713      -5.38619330
N        8.32016874       3.57796720       3.04837522      -3.13307552       8.05362521       4.67252758
N        3.81745699       0.67494835       9.21105051      -3.56501856      -8.96750351       8.74357118
H        4.26786045       0.81730930       4.24905233      -0.43639834      -1.25459392      -2.09885304
H        0.62664193       3.38991814      10.06800924       0.22285246      -1.42952714       2.05384216
H        8.31517576       5.59051325       3.66742895       0.10266244       0.96801919       0.18731346
H        4.42029533       7.69967469      10.22803724      -1.39180308      -0.12191742       0.24017392
H        6.12759411       8.37879105       3.65332441       6.87112339      -1.79284348       7.17005950
H        1.74427566       4.61218723       8.87362595      14.01804222      -1.65815513       1.81162673
H        1.47307520       6.14631918       2.25083233       0.24548643       2.12621788       0.43750062
H        6.26826959       7.28970904       9.07068135      -2.29720231       3.18960862      -0.19768824
H        5.38398643       8.09151643       2.20918801       1.55323231      -1.80265833      -2.01436855
H        0.38011958       5.55055691       8.06386651       2.78430879      -2.81585196       2.16345046
H        1.62285823       4.63727465       1.79543363      -0.05717385      -1.37592788      -0.34754085
H        6.05788906       8.60751042       8.11096025       1.51594748       2.90177001      -4.39718134
H        3.18149399       0.03282718       1.48047444       0.18968166      -2.32029234      -5.82733027
H        7.19846924       4.46703213       8.88008085       1.74072081      -0.82786570       0.30143701
H        8.82259729       2.92128408       2.64420967       2.88221270      -4.39050058      -2.38184408
H        4.11163538       1.17884512       8.53263597       1.67598633       5.18532552      -5.96871797
H        2.40874756       0.99482587       2.60873570       2.42155144      -1.73835801      -0.23492093
H        7.23986045       3.25190932      10.19566982       1.56562722       1.06053357      -1.91259390
H        7.51557528       3.32692537       3.81069351       2.49269400       0.78534583      -2.41810550
H        2.83243934       0.63309230       9.82665528       2.72875873       0.77502238      -2.64463277
Pb       4.54081200       4.31861853      12.31852282       0.19499104      -0.19158711       0.67986015
Pb       8.86259201       0.05254216       6.23520835       0.67438774       0.41339531      -0.30036665
Pb       0.06704885       8.74036742      12.32491116      -0.30307891      -0.04938791       0.13014481
Pb       4.55978665       4.58778677       6.15468131      -0.81124331      -0.45273462      -0.47526012
I        7.03836794       6.23547515       6.47121008       0.65888332       0.11481760       0.04859683
I        8.57195473      -0.05740606       3.07593849       0.92285881      -0.06315381      -0.01937133
I        6.44297308       1.59812562      12.16483828      -0.06997073       0.35905116      -0.25677169
I        1.63514738       2.42961424       0.22492493       0.28209814       0.36051562      -0.31605424
I        1.78057616       2.73798742       5.96809472      -0.04837357      -0.38778130      -0.15333774
I        2.70531943       6.93031823       5.85783306      -0.30880369       0.45623875       0.02483319
I        7.08193027       6.18987321      12.30901577      -0.11540818      -0.17567845      -0.12843336
I        6.27502802       1.82290364       6.23693128       0.17243522      -0.17417283       0.03404598
I        4.18892867       4.40367531       9.33586063       0.48216275       0.01358190      -0.12415355
I        0.43649125       0.05829200       9.25351368      -0.11117987      -0.05802573       0.07878378
I        2.64254546       6.96140166       0.25164840       0.30882390      -0.22990074      -1.23327824
I        4.77843323       4.30772253       3.02916519      -0.08274995       0.00964694      -0.05539573
48
Lattice="9.23925131 0.11259301 -0.11907405 0.10957674 8.7062927 -0.02939311 -0.16893534 -0.04284913 13.17071226" Properties=species:S:1:pos:R:3:forces:R:3 config_id=O-FAPI3_al_combined_08__combined_strain_rattle_fa_rotation__sev-0.512__seed-parity phase=O-FAPI3 mode=active_learning seed=4222874943 source=O-FAPI3/CONTCAR energy=-215.94156851 stress="-0.002166464118211155 0.008451669294262118 -0.0020601786389517138 0.008451669294262118 -0.0021238948601689646 -0.0009807223308597663 -0.0020601786389517138 -0.0009807223308597663 0.0016287283724668367" pbc="T T T"
C        4.61888755       0.54147705       3.17437672      -9.30316965       2.51428111       0.86095095
C        9.07979124       4.20225710       9.61993466      10.21534206       1.12006744       6.86939676
C        9.14459859       4.83012974       3.24069435       2.57260181      -1.45022084      -4.03545839
C        4.68579540       8.38790039       9.75382082      -9.96559838       3.15665284      -1.33174830
N        5.55813934       8.46347242       2.72736827       3.60714702      -6.39905104      -5.23027455
N        0.70056010       4.95048300       9.10870448      -5.88031436      -5.75377880       4.70897545
N        1.23551520       5.15191290       3.29108225      -5.18900636      -9.68660133      -9.15060717
N        5.78260104       7.89970019       9.73007309       6.85463490       4.73588550      -8.95929217
N        3.17103723       0.49329970       2.84940417       3.63299308       4.11118702       4.35788757
N        7.94255300       3.75315272       9.56459827      -6.14130006      -1.04529325      -3.22611629
N        8.69253186       3.83400703       2.28049727     -14.21297362      13.81877781      21.88683461
N        3.92586092       0.51827630       8.89660951      -1.29344120      -2.26906789       3.40684128
H        4.78526907       1.24718539       3.96525654       0.57891986       0.36976704       0.43089945
H        0.46715079       3.69651995      11.00986883      -1.49660494       0.75083390      -3.34979840
H        8.37259779       5.34642200       3.91055540       1.08249544      -0.88694341      -0.59458917
H        3.99106504       7.94154136      10.44450870      -0.53096796      -0.01538242       0.77498191
H        6.55472237       8.35760997       3.01205685      -0.11206805       0.63061226       0.20347945
H        1.57495848       5.20998414       9.22725578       5.39405881       0.95362690       1.57542969
H        1.56577537       5.74565437       3.84810571       3.67005959       6.59972984       6.09980140
H        6.13512930       7.37356869      10.37216075       3.06646394      -4.41690761       5.23169717
H        5.36295689       7.73492175       1.85144713       0.15818745       2.17714505       2.67478831
H        0.22200349       5.22284464       8.41258610      -3.50379086       3.77038448      -7.64615118
H        1.94330004       4.67506883       2.39625558      -2.44646197       1.76787238       3.38240173
H        6.48562800       8.43096612       8.93488074      -1.49630657      -2.28059660       2.59111927
H        2.90831506       8.69133640       2.04112700      -0.37726197      -0.21566597      -0.65058730
H        7.30228947       3.97251492       8.72248914       0.78231394      -0.39754182       1.23072695
H        9.09829092       3.48700098       1.69874347      11.51134859      -9.69398051     -16.24449554
H        4.39963135       1.06116258       8.25190323       1.35826664       1.33444986      -1.90227217
H        2.64523519       1.38172333       3.43802108       1.39072168      -3.30776257      -2.50365099
H        7.53115327       3.06178506      10.23705680       0.49014778       0.53591863      -0.14990212
H        7.58227471       3.77185029       2.52980100       2.78567051      -0.55246807      -1.52076267
H        2.86807406       0.66981315       8.99463398       1.91799825      -0.32023629       0.12943207
Pb       4.58999169       4.41314493      12.68856611      -0.29809610      -0.04913011       0.31758638
Pb       0.05451368       0.17769501       6.37323433      -0.45361541      -0.50734562      -0.14760023
Pb       9.05737161       8.73690016      12.66756651       0.38457758       0.11270758       0.25551752
Pb       4.45592006       4.45482895       6.32816501       0.38591394       0.16539860      -0.17865483
I        7.19741658       6.39859400       6.42701667      -0.05479876      -0.18535428       0.10771469
I        8.83027332       8.79278752       2.86997338       0.46904844       0.01677102       0.06464338
I        6.43812993       1.83790274      12.37342373      -0.03550003       0.00863683      -0.07470579
I        2.00032952       2.46893405       0.13090302      -0.00822773       0.28096715      -0.25736887
I        1.91239832       2.48667810       6.05775808       0.21657427       0.40022733      -0.11500811
I        2.71247581       6.98382042       5.92396250      -0.17491398       0.27040666       0.17576708
I        7.29255674       6.12518539      12.57106642      -0.14323044      -0.07988244       0.02237829
I        6.34896400       1.95006926       6.43057941       0.29503049      -0.17287593       0.16993059
I        4.13887683       4.28442571       9.55079226       0.12293643       0.08037197       0.00304101
I        0.20804255      -0.02598506       9.62799020       0.04304328       0.06722381      -0.09949756
I        2.79474616       6.95322475      -0.02176960       0.10354564      -0.13164780      -0.08108483
I        5.07257628       4.29619498       2.97397814       0.02760699       0.06783161      -0.08259631
48
Lattice="9.14845101 0.07302163 0.1013336 0.07106544 9.01965523 -0.03344404 0.14376623 -0.04875456 13.17759203" Properties=species:S:1:pos:R:3:forces:R:3 config_id=O-FAPI3_al_combined_09__combined_strain_rattle_fa_rotation__sev-0.527__seed-new phase=O-FAPI3 mode=active_learning seed=1735771584 source=O-FAPI3/CONTCAR energy=-215.25818407 stress="0.004947370000969122 0.005451069137208571 -0.0006961057635725052 0.005451069137208571 0.00943165733653926 -0.0016823154357689652 -0.0006961057635725052 -0.0016823154357689652 0.008527145573487575" pbc="T T T"
C        4.63909877       0.34242572       3.37518360       3.73529181       1.57974689       2.10696394
C        0.34145313       4.19444333       9.88667679      -9.92539161       5.48008614     -10.86097974
C        0.12014007       4.88717959       3.11959648     -11.52103468       1.96217984       3.31318480
C        4.67216129       8.65303236       9.97017375       4.12295262       3.23861536      -8.29974264
N        5.12164385       8.21224648       2.98264745      -3.93248100      -3.01498620      -3.13798121
N        0.82296965       5.27847877       9.08855591      -9.61289485      -5.53269608       0.07200423
N        1.07055884       5.50645679       2.73170235       8.04621301      -8.02747564      -4.68036347
N        6.03271582       8.50411137      10.18386512      -3.50877499       3.27708228      -7.22358977
N        3.67644623       0.94141075       2.84327449      -4.91459166       4.94141599      -0.35428774
N        8.08925897       3.77248634       9.74184797      10.78538747      -4.87218167      12.23139231
N        8.74119579       3.75532383       3.09471867      -6.80319683       5.03499864       3.66410713
N        3.96514492       0.23580232       8.68373924       0.40684438      -3.00866355       7.79072834
H        5.31654726       0.97382531       4.08396395      -1.08735644      -1.17027643      -0.82000184
H        0.79359361       3.77911042      10.58747341       4.57607577      -3.53765115       6.36095936
H        8.43785186       5.92927936       3.52577716       1.34849330      -2.96039880      -0.08143799
H        4.01059010       8.49076427      10.68299239      -3.09470773      -1.08008772       3.47668231
H        5.96923339       7.87898122       3.24674177       3.19342823      -1.40256922       1.09680111
H        1.64683872       5.40544381       9.43089874       7.31462755       2.52245755       1.46007606
H        1.56094867       6.25564003       2.92113410       2.27285107       5.43711891       1.61916875
H        6.31307794       8.14145940      11.01773756       1.46452823      -1.42199903       3.20504962
H        4.50497153       7.59605849       2.28373738       1.71046292       1.47366386       1.62788658
H        9.28113742       5.73943724       8.40863273       1.94650809      -0.39443255       1.48616653
H        1.93047642       4.55755511       2.50482727      -1.71550471       3.31805597       0.01285572
H        6.76222967       8.89958257       9.35892795      -2.06715575      -1.53259111       2.92087053
H        2.98915845       0.52811269       2.12706918       1.22984661       0.82966730       1.25280472
H        7.63501149       4.06847671       9.04991948      -5.33188413       2.86072480      -7.40395254
H        0.11815678       2.99513469       2.73450430       3.93314357      -5.94880094      -2.08092923
H        4.56262783       0.40774005       7.92733791       0.91638597       0.41728000      -1.63488098
H        3.50097992       2.00212319       3.29963156       0.09409323      -3.25035607      -1.78065617
H        7.87180987       2.82479924      10.55875988       0.01320569       3.38458999      -3.26905267
H        7.58999396       3.50830625       3.53177823       4.21947328       1.12492302      -1.68285072
H        2.89772945       0.23645900       8.71103406       1.71877247       0.04202928      -0.26631318
Pb       4.66042042       4.42095237      12.91103953       0.29261724      -0.01568631      -0.17190371
Pb       0.14277680       0.08349416       6.39397938      -0.00250153       0.23559181      -0.21875377
Pb       9.31136029       8.94337059      13.02045398      -0.25429893      -0.11451091       0.14287183
Pb       4.73090111       4.71520177       6.42129913      -0.20131618      -0.20306889       0.16214766
I        7.48878794       6.44786277       6.76877595      -0.02750352      -0.02529573       0.02907320
I        8.72484355       8.94000794       3.18402639       0.17022550       0.03104619      -0.18814935
I        6.60991930       1.64475735      12.81207613       0.17692772       0.34728120      -0.02601673
I        2.07009335       2.60654666       0.06113730      -0.20981827      -0.02336645       0.03872772
I        1.99980017       2.78218922       6.13952234       0.04835283      -0.05581862      -0.10523847
I        2.73691148       7.26604928       6.15334018       0.04774777      -0.17893284      -0.26063066
I        7.45873842       6.41220824      12.81724123       0.11254685       0.02865661       0.05738068
I        6.44050916       1.93512405       6.66958771       0.13144098       0.05772106      -0.08354481
I        4.32787526       4.52966362       9.65570248       0.04186611       0.04699524       0.09683878
I        0.42223949      -0.00493225       9.54439824      -0.03748928       0.05927107       0.28631327
I        2.73504996       7.06767639       0.09631857       0.13566676       0.14504182      -0.00477914
I        4.92944475       4.44926884       3.05362808       0.04192505      -0.10439492       0.12498133
48
Lattice="8.68866928 0.05118402 -0.06021786 0.04981284 8.93441584 0.07112325 -0.0854336 0.10368313 12.65609081" Properties=species:S:1:pos:R:3:forces:R:3 config_id=O-FAPI3_al_combined_10__combined_strain_rattle_fa_rotation__sev-0.542__seed-new phase=O-FAPI3 mode=active_learning seed=4198872199 source=O-FAPI3/CONTCAR energy=-210.4309889 stress="-0.08685638413604793 -0.0018765318510881618 -0.012477233078097354 -0.0018765318510881618 -0.016976378937809553 0.007182548628286663 -0.012477233078097354 0.007182548628286663 -0.01060892386602974" pbc="T T T"
C        4.46423069       0.27625138       3.00795149      -2.56566147       7.22292292       3.17022567
C        8.60097552       4.19800047       9.24503395      44.29751781      13.96381761       3.15773788
C        8.54985622       4.98829578       3.10274584       3.74671090      -4.03486503      -4.90232414
C        4.31130526       8.73025191       9.40089906      -3.35064826      -2.68256304       5.24201356
N        4.99697160       8.14956842       2.58083519     -36.44808609      12.98621150      -8.25012183
N        0.50202555       5.17045168       8.63945924      10.45869086     -11.90976887      15.86705854
N        1.19670797       5.28343648       3.11416646      -4.40365204      -8.68239048      -7.18478364
N        5.49487547       8.35188978       9.36802991       4.44089792      -0.80165825      -1.68021248
N        3.24725679       1.05602299       2.73328564       8.72083249       1.38088839       5.12085103
N        7.65234689       3.85538069       9.29071625     -42.60886354     -16.19447409       2.39279763
N        8.02431828       3.93083064       2.23580441       7.86418025       5.82619123       3.31435774
N        3.63783603       0.74203396       8.81150159       5.12817746       3.77933810      -4.93385012
H        4.99659433       0.95325633       3.81025584      -0.09740234      -1.86772737      -1.35020556
H        0.65495093       3.67361148      10.29541213      -1.09054419       1.26654374      -2.74852133
H        8.04440463       5.52537711       3.82163199      -1.99641464       0.93569819       1.48045458
H        3.81725953       8.22693124      10.23748274      -0.80696717      -0.13276995      -0.04616040
H        5.65225991       7.86728374       2.68426990      34.75090506     -14.57831184       5.94980410
H        1.52226575       5.28513297       8.83672215      -0.98140859      -0.08563197      -0.35500362
H        1.52148208       5.92836233       3.62355411       3.02189769       6.75867973       5.50200699
H        5.83495311       7.69144961      10.08356736       0.14251372       0.02546503      -0.51330702
H        4.35784378       7.69523086       1.81518503       1.11781048       0.33698352       1.02980752
H        0.15788609       5.59344848       8.06169341      -9.16070097      11.07757708     -15.30956705
H        1.95836670       4.82153152       2.45187463      -2.12857279       0.91897017       1.50061464
H        6.07328938       8.64536425       8.57388564       0.54863629      -0.17996378       0.47048691
H        2.65885197       0.56663946       2.27839063      -6.19582199      -3.89737757      -4.31792045
H        7.02212007       4.23525681       8.62118258      -2.19685899       0.26281596      -0.96315465
H        0.02128568       3.42805140       1.68687682      -0.23433159      -0.28120227      -0.25138495
H        4.21746770       1.20325133       8.00610144      -1.31236828      -0.29231374       1.25748914
H        2.92834897       1.82997289       3.42126776       0.80397995      -1.74100160      -1.08135161
H        7.11020065       3.16244155      10.02087303       1.48848203       1.31866423      -1.54338020
H        7.13365930       3.74631878       2.35050870      -5.74386278      -1.56065742       0.46632898
H        2.71514501       0.84923349       8.71478722      -4.81374247       0.25797836       0.13298981
Pb       4.46038172       4.47678773      12.48799089      -0.57040965      -0.30531741      -0.39074695
Pb       8.57213784       0.14367250       6.08372185       0.47914667       0.01569549      -0.32350718
Pb       0.02375907       8.82698887      12.48408387       0.01415928       0.18947809       0.15880960
Pb       4.23808050       4.57483266       5.99006596       0.66797838       0.58454586       0.51565475
I        7.06030284       6.53341014       6.41136250      -0.54014082      -0.13460085      -0.30022320
I        8.41564294       8.94101743       2.99960274       0.00160562      -0.01792579      -0.36396782
I        6.08950588       1.85766213      12.16941585       0.13991306      -0.11207347      -0.22225337
I        1.77118285       2.57107248       0.09213100      -0.11756098      -0.03946684      -0.29348792
I        1.98281431       2.82354694       5.80914401      -0.87848105      -0.67915313      -0.09249369
I        2.62813684       7.14711200       5.78103258      -0.00975911       0.40279106       0.08832413
I        6.85518483       6.20951529      12.05424687       0.56155336       0.46123992      -0.06620274
I        6.08985920       1.92890358       6.23389848      -0.07795772       0.03871410       0.13326072
I        3.99485263       4.68561253       9.21268572       0.11554061      -0.04697756       0.13307733
I        0.19127795       0.20489777       9.19901436       0.11215765       0.03447847       0.47409126
I        2.80871039       7.03519116       0.08854379      -0.20024645       0.12604969      -0.03289468
I        4.74251633       4.45475665       2.91964834      -0.09282355       0.08645388      -0.04121588
48
Lattice="9.35350996 0.00699365 0.01195768 0.00680629 8.96677459 0.05353946 0.01696487 0.07804956 12.84105978" Properties=species:S:1:pos:R:3:forces:R:3 config_id=O-FAPI3_al_combined_11__combined_strain_rattle_fa_rotation__sev-0.557__seed-new phase=O-FAPI3 mode=active_learning seed=1922154077 source=O-FAPI3/CONTCAR energy=-214.98782984 stress="0.016939106311792712 -0.006603842830209896 0.004570529949652852 -0.006603842830209896 -0.003506426936372882 0.007904639385935048 0.004570529949652852 0.007904639385935048 -0.015646309591936844" pbc="T T T"
C        4.73308243       0.38887508       3.33473399      -7.92009339      -5.14192367     -15.82492734
C        0.13872216       4.22948862       9.60502793     -11.33117921     -11.40909167      10.17157175
C        9.23898353       4.66413163       3.22292893       4.98071651       5.55284980       7.97894532
C        4.54021977       8.62828424       9.42392047      -3.76782535      -5.18200031       2.68996303
N        5.42373072       8.42596154       2.78202176       3.82309207      -1.57034080      -1.66770282
N        0.70020968       4.90310102       8.90568255       3.66393352      15.05107099     -14.56727220
N        1.13001540       5.54988357       3.20131211     -11.02177196      -2.03333872       6.73560222
N        5.47752815       8.64377262      10.21000726      11.63408649      -1.50166760       6.66658783
N        3.46781516       0.80869774       2.67116603       2.84457118       3.43183214       7.62878443
N        8.15905640       3.82306707       9.71808090       0.32134803       5.01400751      -6.74102382
N        8.81449160       3.95677751       2.31305225      -0.91234723      -2.23380851      -5.23953860
N        4.38370104       0.48726053       8.50314185      -5.03480964       2.42280283      -5.93579290
H        4.93954344       0.69589884       4.13459733       3.16621207       5.15188721      11.88733105
H        0.72254676       3.72810633      10.25869443       1.85096110      -2.07233374       2.93573345
H        8.80036949       4.67985147       4.43063446       0.68672230      -0.13252288      -3.66433535
H        3.72046729       7.92275992       9.63991782       0.16334846      -0.14530021      -0.24256167
H        6.59826385       8.23188610       3.04244627      -3.55483680       0.75006113      -0.56816929
H        1.53612951       5.40808270       8.77287088       2.32091008      -0.57416450       1.03244554
H        1.35243275       5.94378841       4.13023638       0.15000383      -0.30787765      -0.71660283
H        5.86369675       7.83754829      10.98146420      -2.03690506       1.92213753      -2.31007000
H        5.15389496       8.03261458       1.76578359       0.39073208       1.11209958       2.72709686
H        0.06691812       5.71407842       8.22469594       0.70462820      -2.68329530       1.32562855
H        1.71492627       5.42231813       2.55476057       6.33202363      -1.03330482      -6.72385117
H        6.58952335       0.20098964       9.98714478      -4.21177078      -1.20740295      -0.03920749
H        2.90700335       0.34241270       2.00050567      -0.27974375      -1.07507901      -0.93383620
H        7.35695553       4.15952930       8.82731616       3.00282886      -1.16152492       3.46346577
H        9.30459860       3.99428872       1.35101545      -0.63320936      -0.31844359       1.27240329
H        4.94750864       1.20197610       8.27555267       3.14725393       3.17858796      -0.62147534
H        2.89739404       1.53050607       3.48178472       1.61349282      -2.58742586      -3.11488313
H        7.81528129       3.18562524      10.34544892      -0.61412463      -2.04640144       2.13207087
H        7.94815194       3.38703398       2.32762167       0.36867614       0.44976298       0.34009679
H        3.62584123       0.42909956       7.82729849      -0.33419581      -0.21719385       0.17477990
Pb       4.68129853       4.46588758      12.72852037      -0.20095768       0.41702297      -0.13554038
Pb       0.02233180       0.06249081       6.08519442      -0.05035582       0.12115198       0.64709229
Pb       9.22601292       0.19831835      12.64701657       0.24503971      -0.31346713      -0.34166934
Pb       4.62278942       4.58055889       6.21070149       0.08520738      -0.18316715       0.12430303
I        7.42828478       6.46991428       6.81868719       0.08627539      -0.01973151      -0.14185242
I        9.01372292       8.98643640       3.14997559      -0.29187037       0.00827395      -0.49906474
I        6.45760790       2.00641292      12.27307390       0.42137645      -0.28520034       0.43356621
I        1.97253143       2.73798424      12.84158006      -0.24850792      -0.04252817      -0.00945285
I        1.85326594       2.81613665       5.90941985       0.19173279      -0.11614878      -0.09949944
I        2.77496101       7.28797691       6.00278204      -0.14644035       0.01860615       0.06379319
I        7.52419285       6.30807014      12.37610264      -0.13901830       0.40435753       0.06426293
I        6.47745898       1.91657018       6.62325331       0.60142223       0.49308590      -0.66157137
I        4.28879273       4.63210163       9.50291040       0.01794575       0.02185650      -0.28407059
I        0.32156071       0.17944171       9.35898435      -0.09501220      -0.05697761       0.32450104
I        2.70012266       7.10671702       0.12254398      -0.07868044       0.15121199      -0.02783726
I        5.10953720       4.47406946       2.98146312       0.08911506      -0.02100393       0.29178324
48
Lattice="9.01647769 -0.07453405 0.13444426 -0.07253734 8.82842965 -0.0914026 0.19074171 -0.13324627 12.48452032" Properties=species:S:1:pos:R:3:forces:R:3 config_id=O-FAPI3_al_combined_12__combined_strain_rattle_fa_rotation__sev-0.573__seed-new phase=O-FAPI3 mode=active_learning seed=1728452832 source=O-FAPI3/CONTCAR energy=-211.13105876 stress="-0.041152338608634875 -0.009382497282037484 3.3087113687584777e-06 -0.009382497282037484 -0.026017674162032062 -0.028207443469892884 3.3087113687584777e-06 -0.028207443469892884 -0.026295567831319092" pbc="T T T"
C        4.52031297       0.35854130       3.13492831      11.87956554      -4.52265988       0.44757763
C        0.14049034       3.95224012       9.43231177       4.94582727       3.57763211      -3.68612027
C        8.88545550       4.57187296       3.08648134      17.10097902      35.22274978      23.58199857
C        4.53899968       8.25001417       9.38803039      -1.78504905       3.28696967      -2.79069874
N        4.93517773       8.06097966       2.31115058       9.66015426       6.06851363      13.79582778
N        0.80434000       4.74583145       8.61158926      -1.90374516       2.33195342      -2.58317192
N        1.12489303       5.03992556       2.89091597     -23.92643798      20.01503934      24.60301314
N        5.77307345       8.01913721       9.15184513       5.03487472      -4.11496925       2.48027447
N        3.37540293       0.65055810       3.11132270      -8.26907136       2.20372874      -0.89783445
N        7.98383687       3.65237396       9.39170246     -11.01836134      -3.13226976       1.99136978
N        8.47928600       3.79087088       2.60007157     -21.97097324     -37.66121104     -25.44121145
N        4.03995463       0.35053881       8.57624561      -2.81141082      -3.20698618       5.38944986
H        5.25620339       0.86694387       3.88646506      -1.09412312      -0.95520874      -1.15478558
H        0.68301129       3.49106115      10.11229449       2.45006387      -2.35373092       3.64371246
H        8.23310764       5.15822189       3.84544352       0.98002746      -0.40261030      -0.66561913
H        4.02753756       7.77992497      10.29922587       0.13199335       0.60155276      -1.36075921
H        6.17884092       8.00398197       2.47481229      -4.48721185       0.05376013      -1.03894427
H        1.78900066       4.81394962       8.46326221       0.96799427      -0.24029419       0.63607062
H        1.57069961       5.91741656       3.47035768      -1.95619748      -2.58950979      -1.43619519
H        6.31917452       7.16677393       9.81466511      -1.78791260       2.91573149      -2.01679645
H        4.58335677       7.85480833       1.56109371      -4.91813740      -3.23276550     -10.99824609
H        0.24523940       5.29487282       7.83128745       1.10147311      -1.36677043       1.75027167
H        1.63076672       4.75072437       2.47531496      27.56030443     -16.44815821     -23.22795742
H        6.45489472       8.49214290       8.49954986      -1.31864907      -0.38375173       0.50145891
H        2.89088961       0.14887913       2.38631412      -1.69128189      -0.01416908      -0.21395577
H        7.27609243       4.10084586       8.75010642       1.34039603      -0.32278503       0.39840809
H        8.79923025       3.25207672       1.66635253       0.28760403       0.98813635       2.28889827
H        4.45912089       0.83202311       7.85132369       1.85359467       0.96215342      -1.93614919
H        2.94012516       1.27286357       3.79094565      -0.47974782       0.52164275       0.05983045
H        7.37649726       3.08344329      10.24633908       1.92275251       1.29358471      -2.37638506
H        7.39168148       3.50798385       2.65563823       1.89774606       0.79613186       0.22372912
H        3.04654033       0.59159963       8.75132880       0.68462592      -0.17461243      -0.10833664
Pb       4.57789683       4.07682930      12.24111988       0.30686534       0.43054409       0.31678429
Pb       0.05906592       8.75956356       5.89731396      -0.02271722       0.45206705       0.16205325
Pb       9.04546991       8.51122885      12.15832372       0.02223119      -0.32874884       0.88269761
Pb       4.42190736       4.51270039       6.06538931       0.53334490      -0.42766009      -0.29257142
I        7.38766070       6.23919407       6.13660671      -0.34230146      -0.48786147       0.33480430
I        8.89123194      -0.09126448       3.14135509      -0.34071617      -0.01913167      -0.40631156
I        6.54930064       1.50660819      12.00418106      -0.03916038       0.18931676       0.04514644
I        1.94765412       2.52833393       0.04050168      -0.64192722      -0.44496856       0.07741355
I        2.10763151       2.51495037       5.77622566      -0.14608808       0.11676159       0.08811806
I        2.80479692       6.96551263       5.67514873      -0.40935631       0.48751299      -0.02692315
I        7.35010520       5.73599801      12.10390824       0.15123142       0.54946975      -0.05451106
I        6.35220173       1.74744187       6.21237892       0.40516245      -0.03928710       0.10022980
I        4.28821503       4.37112934       9.17300105       0.12269894       0.00982852      -0.02577803
I        0.43116812       8.69334138       9.18568246       0.11285535       0.02899962      -0.83224506
I        2.61650602       6.95071391       0.06495586      -0.19380072      -0.04533118      -0.22152758
I        4.99730039       4.40313524       2.91406027       0.10001158      -0.18832916      -0.00610344
48
Lattice="8.71850037 0.03276277 0.13015333 0.03188508 8.73755336 0.03122335 0.18465399 0.04551724 12.70342949" Properties=species:S:1:pos:R:3:forces:R:3 config_id=O-FAPI3_al_combined_13__combined_strain_rattle_fa_rotation__sev-0.588__seed-parity phase=O-FAPI3 mode=active_learning seed=502609238 source=O-FAPI3/CONTCAR energy=-215.27365683 stress="-0.050557435315436106 -0.0016179281087659722 -0.00041173790794089214 -0.0016179281087659722 -0.02468405608131565 -0.00034583138513364086 -0.00041173790794089214 -0.00034583138513364086 -0.030382342138842427" pbc="T T T"
C        4.52217024       0.43857440       3.29340753      -3.77857503      -6.43219068      -9.98600187
C        0.39449689       4.32694872       9.58296380      -8.34073783      -0.63398824       2.37200021
C        8.72684265       4.83959771       3.14900694       1.61740569       5.42489917       5.37543700
C        4.32371562       8.36358456       9.51143596       6.99501851      -7.22080783       7.39052116
N        5.09716615       8.20889539       2.46619274      -1.13183885       6.72567899       6.91669594
N        0.89156686       4.60739474       8.48907151      -8.89786525      -1.67880109      -1.44469819
N        1.26592180       4.82235258       2.86651730       4.33766193      -0.12602324       0.08638963
N        5.62426876       8.18660235       9.65863393       2.84531721      -4.58394682       2.16931954
N        3.24608715       0.74744308       3.16665676       1.82123529      -2.40905106      -2.34617091
N        7.72893579       4.07179235       9.64899000       1.13375622      -0.37893390       5.94398788
N        7.96125304       4.11669055       2.48230937      -6.61747031      14.27275465      12.28998215
N        4.04831118       0.47563199       8.72894695     -12.25428359       9.94796923      -6.62434127
H        4.88638789       0.70150844       4.10704091       4.66801601       2.84916699       7.05323131
H        0.77077402       4.65930803      10.53992400       0.41675813      -0.29654167       0.29831974
H        8.44537382       5.68527011       4.10789923      -0.38573035      -2.57040035      -2.84903869
H        3.99746848       7.83608984      10.39701083      -2.70855915       0.07125443      -0.06967672
H        5.99132083       7.93873616       2.42094638       4.71083395      -0.64620809       0.86815382
H        1.70361843       4.78601645       8.44315567      14.90741351       3.78580228      -0.41751247
H        1.91019694       5.40855916       3.49136952      -1.03971645      -1.17617641      -1.28014992
H        5.99288641       7.26512657      10.04222892      -1.13757028       1.09365997       0.42814339
H        4.64767297       7.72840506       1.84976806      -4.79029263      -3.18892875      -5.03650085
H        0.63530624       4.23776551       7.64068671      -1.90584996      -1.04635741      -2.65500917
H        1.63141068       4.06888760       2.22874572       0.50784106       0.98271258       0.48016564
H        6.30404016       8.29951160       8.97501044       1.27709791       1.56451025      -2.30205989
H        2.62723163       0.32675952       2.45918610       0.13741959       0.46598121       0.23188537
H        7.10607552       3.73581918       8.92247858       0.57981862      -0.00730483      -0.75960667
H        8.19277907       3.54786662       1.98841161       6.02388363     -16.17834409     -14.17419991
H        4.35222366       1.07470330       7.99587839       2.04639897       0.10292453      -0.79479360
H        2.97241041       1.42355145       3.77760470      -1.83400190       2.43099305       2.14339930
H        7.22058430       3.94382491      10.69610858       1.77849589       0.22661017      -3.39597339
H        7.10876005       4.26353283       2.90369658      -3.66007265      -0.77679096       0.05715278
H        2.91756339       0.80456486       8.80705254       2.62984091      -1.01965716      -0.26427395
Pb       4.41776585       4.30554529      12.54378183       0.48611796       0.18769250       0.12557207
Pb       0.17690851       0.16148877       5.97200642      -1.00859910      -0.61988505       0.38766153
Pb       8.76817418       8.66534878      12.58342513       0.21687042       0.04050789      -0.13550302
Pb       4.32229063       4.57795874       6.20219966       0.88135786      -0.26987054      -0.03088999
I        6.94521700       6.25838180       6.57057977       0.02996932      -0.02343086      -0.03926721
I        8.41404764       8.70995701       3.12816709       0.26899566       0.07068450      -0.13216201
I        6.29532222       1.72830420      12.36983697      -0.10220773       0.23144146       0.02311305
I        1.92007055       2.49128513       0.09971056      -0.84184980      -0.52918452       0.10840112
I        1.85083546       2.54693046       5.97439303       0.44899840       0.58132460      -0.15684448
I        2.56233543       6.96619269       6.13844648       0.08315614       0.08403827      -0.22604495
I        6.95899689       6.17956970      12.29919890       0.34042183       0.10987242       0.29338324
I        6.27960835       1.91421272       6.32186520      -0.14282429       0.19605086       0.16748699
I        4.13152809       4.35050686       9.45532804       0.17525262      -0.03010182      -0.23004749
I        0.43527305       8.76589435       9.36677528       0.29099537       0.10641964      -0.15250821
I        2.60548873       6.87445994       0.12809597      -0.14225761       0.18436063       0.00397374
I        4.86293429       4.32348345       3.05745291      -0.93604583       0.10561510       0.28889826
48
Lattice="8.94107363 -0.12190486 0.04497041 -0.11863913 8.86910438 0.04134088 0.0638014 0.06026653 13.08895834" Properties=species:S:1:pos:R:3:forces:R:3 config_id=O-FAPI3_al_combined_14__combined_strain_rattle_fa_rotation__sev-0.603__seed-new phase=O-FAPI3 mode=active_learning seed=288956641 source=O-FAPI3/CONTCAR energy=-212.14779809 stress="-0.0530275576219418 0.0013686965104415536 0.006214717422994368 0.0013686965104415536 -0.00198109602823634 -0.009310592132190475 0.006214717422994368 -0.009310592132190475 -0.003098554526105341" pbc="T T T"
C        4.35118685       0.32161564       3.29477771     -14.42311832       3.71943894       5.97107569
C        8.84826563       3.86495422       9.85947370      27.91605341       3.04389567       3.34507152
C        8.73665084       4.64099287       3.41897803       6.70373578      -3.45874248      -9.02135151
C        4.31870260       8.52024976       9.84878390      -0.04038756       1.16019945      -0.76030170
N        5.27112457       0.26252058       2.60231438      14.19970279      -4.65263369     -10.28486511
N        0.73618860       4.87884280       9.21912683     -14.20796003       1.33044725      -2.31718304
N        1.04032159       5.24539115       3.09962103      -1.93469023       0.97708412       3.39788550
N        5.63731821       8.15496520       9.99916754      -5.46411894      10.07938217     -13.87573707
N        2.83876267       8.78117547       2.99961936       8.97275478       8.11056021       2.37482388
N        7.78389437       3.77265047       9.69736904     -27.81347566      -2.50558791      -2.53217717
N        8.22897784       3.82007723       2.46291132       2.46055675      -0.28642241       0.95710658
N        3.75850785       0.53977047       8.91009811      31.61372250      -5.86508761      -4.40626356
H        4.29750357       1.25695512       3.89345961       0.18784593      -0.72915907       0.79183991
H        0.50448675       3.40068334      10.50657043      -0.18220822      -0.72821720       0.35834420
H        8.21697967       5.19472088       3.97868728      -4.57879806       3.65479428       5.17777589
H        3.62523887       8.11073012      10.59830060       0.19235367       0.00401078       0.03947362
H        6.28669847       0.68200399       2.70561415      -2.03921884      -0.40718472       0.51741024
H        1.58521787       4.93366427       9.23071683      12.58731159       0.04262128       0.97048785
H        1.49342952       5.89322025       3.77148694      -0.50006730      -0.23582107      -0.12809689
H        5.98318178       7.65224359      10.60784483       4.15198260      -6.88978683       8.26130887
H        5.42091153       8.28044675       1.81353839      -1.62428809       2.55501361       2.39667879
H        0.31537945       5.57492350       8.50686689       0.53532043      -1.34914305       1.31025672
H        1.68749733       4.86376367       2.48338848       1.11771835      -1.25911210      -1.68026613
H        6.42908043       8.54590128       9.05026548      -2.43225363      -1.45993667       3.67725863
H        2.95649471       8.07978583       2.50787848      -0.39248521      -9.24986147      -6.24367379
H        7.24785034       4.50000007       9.14738378       0.05779668      -1.00037347       0.19714173
H        0.01700164       3.41358010       1.70110933      -2.29298937       1.24125603       1.88443853
H        4.44031572       0.99371912       8.04143186      -2.47388892      -1.16143323       2.64668595
H        2.35578763       0.13108039       3.60110921      -4.41734294       0.86485471       4.46262682
H        7.16412204       3.11223837      10.31094535       0.90331076       1.16644416      -1.30073784
H        7.30770462       3.51963544       2.74898411      -0.66769881      -0.76392167      -0.73999221
H        3.00925415       0.65594178       9.04159230     -25.50743756       4.06982510       4.11619018
Pb       4.51038598       4.40220676      12.87820808       0.09352817       0.28885700      -0.35391556
Pb       0.09013217       0.13026499       6.28194544      -0.31072088      -0.14689245       0.29343258
Pb       8.98105222       0.05816470      12.98366323      -0.12609753      -0.58556954      -0.44001365
Pb       4.34292402       4.42773298       6.15827254       0.42656271       0.32264003       0.53778637
I        7.11337460       6.22495403       6.73196573      -0.00125618       0.06424033      -0.00254569
I        8.57573321       8.56546915       2.97795273      -0.58940119       0.15466707       0.40593137
I        6.17375850       1.57782818      12.57660878       0.13381005       0.39884808       0.01897707
I        1.92809539       2.48746164      12.99915683       0.12455423       0.67066062       0.23626124
I        1.90014639       2.73044717       6.19835580      -0.36486957      -0.19532391      -0.13341341
I        2.43835101       7.23543491       5.97612710       0.34898079      -0.52167319       0.28792417
I        7.19126262       6.19171594      12.66981265      -0.21092330      -0.27941067       0.10806071
I        6.38289272       1.82905648       6.61055975      -0.34745345       0.11873100      -0.00337571
I        4.18784940       4.32955790       9.58198104       0.19328037       0.04253865       0.27748100
I        0.13032960       8.87594104       9.65055258       0.07045357       0.09100352      -0.32635178
I        2.73600917       7.21991061      13.10867620       0.05999745      -0.45525625      -0.14139668
I        4.81949139       4.30069444       3.14163875      -0.10818360       0.01453660      -0.32807710
48
Lattice="8.7983547 -0.10492902 -0.03511906 -0.10211806 8.71573671 0.07481225 -0.04982489 0.10906093 12.49142774" Properties=species:S:1:pos:R:3:forces:R:3 config_id=O-FAPI3_al_combined_15__combined_strain_rattle_fa_rotation__sev-0.618__seed-new phase=O-FAPI3 mode=active_learning seed=3566607901 source=O-FAPI3/CONTCAR energy=-191.50096325 stress="-0.1079071512375922 -0.03230441938052777 -0.020149947603080143 -0.03230441938052777 -0.030502291748333073 -0.004684886012287517 -0.020149947603080143 -0.004684886012287517 -0.06901159122818228" pbc="T T T"
C        4.60772597       0.28185961       3.22230408      -9.25331921      -4.23398123     -10.19762162
C        8.57408971       4.06261349       9.43048455      13.27176214       1.62004702       0.05523391
C        0.00400420       4.68278021       3.12328247     -45.12340292     -16.88669115       3.61201285
C        4.37321862       8.37119366       9.45956228       1.09792411       0.43961352       0.74900144
N        4.81854650       7.98067082       2.26711843      24.98381345      26.66575684      52.05951675
N        0.68921545       5.07781499       8.75315699     -33.78550235      -4.31510069      -0.37943831
N        0.92931250       5.03997991       2.99870459      45.37104342      16.69595563      -4.87014300
N        5.71900860       0.04902113       9.30440010      -8.82479250      -3.63311528      -5.62295738
N        3.11160076       0.58414043       2.82257871      39.86083878      21.19439660      37.19707024
N        7.43155024       3.60690467       9.22311879      18.32494658      -6.34071642       9.37787057
N        8.28197359       3.59156354       2.24200398     -13.15817300       9.45464297      20.49725208
N        3.43372861       8.47750122       8.60484404      10.27605493       4.42849963      -7.27422509
H        5.09913742       0.95053930       3.93341093       0.59551313      -0.49629922       0.19098435
H        0.62239510       3.57302867      10.07180723      -2.77670041       0.64530502      -0.08146393
H        8.13547942       5.16272338       3.81944779      -0.13242017      -1.59479985      -0.65042928
H        4.21470248       7.97625506      10.40262818      -1.36189569      -1.04452362       2.00506956
H        5.88532200       7.79579271       2.67786463      -2.49801307      -0.41371770      -2.44030480
H        1.45980825       5.17454634       8.70592061      24.13453230       2.36357088      -0.67239741
H        1.34002676       5.69807969       3.67126759       0.82081857       0.52804537      -0.20834476
H        6.16762321       0.11820101      10.02308053       6.95104411       0.80813715      10.32989838
H        4.59077079       7.68151748       1.70475230     -19.14289182     -22.79761801     -43.81812116
H       -0.08953169       5.34660275       7.91729472       3.35557910       0.44018562       1.59678294
H        1.57015838       4.59116657       2.33255156       0.87315593       0.51994579      -0.16371195
H        5.93925679       0.40014366       8.50428389       2.73783271       3.13525754      -6.10721550
H        2.61936234       0.34781623       2.40186332     -33.78670169     -17.45708929     -29.81832321
H        6.91160141       3.95823555       8.79477750     -19.69157074      12.57221908     -15.94647321
H        8.58395715       3.26146335       1.57263016       7.32145449      -7.67197794     -16.02257150
H        3.68394735       0.22430660       7.41514810      -0.21579914      -1.54255532       3.90832381
H        2.89888999       1.36081197       3.67309154      -0.60761095      -2.30751690      -3.21077031
H        7.26191004       2.98048368       9.81798665      -2.87463285      -6.92587654       6.09678133
H        7.12828864       3.60528124       2.56224144       3.73462523      -0.81916294      -2.06304914
H        2.60732223       8.27929573       8.76075989     -10.54553529      -2.85745507       2.30932103
Pb       4.39123941       4.25430104      12.27680739      -0.81123082       0.68620844      -0.30117729
Pb       0.00574821       0.12484546       6.02657559       0.16311683       0.12864518       0.13760275
Pb       8.59999910       8.49954587      12.27340711       0.56321108       0.42866232       0.41465055
Pb       4.49555652       4.37978246       5.96868488      -0.54418328      -0.04845611       0.10586181
I        6.88277699       6.08066436       6.58590289       0.43782331       0.37880842      -0.07956468
I        8.30691342       8.61420539       3.06494364      -0.25859391      -0.17128993      -0.08867571
I        6.08397126       1.96358202      12.09594570       0.86647646      -1.12718256       0.19863035
I        1.80923808       2.45955846       0.04949483       0.02494722      -0.06538063      -0.03764897
I        1.83117645       2.76676869       5.79184743      -0.34727033      -0.40285597      -0.03112680
I        2.45047985       6.97703178       5.79007069      -0.01815366      -0.17630269      -0.23693873
I        6.89930032       6.11564870      12.10329203      -0.15626950      -0.28658794      -0.09397883
I        5.99242625       1.65354928       6.33699757       0.10301055       0.11025561      -0.31242912
I        3.93427087       4.34302302       9.30274198       0.13159719      -0.02223499      -0.88404922
I        0.18578925       8.77387747       9.34456331      -0.07945111       0.22295162      -0.39279806
I        2.44574234       6.88559011      12.51283850      -0.33327680       0.17806029       0.00975961
I        4.51654799       4.27334879       2.76990745       0.32626958      -0.00668254       1.15432467
48
Lattice="9.17796726 -0.11060038 -0.06527958 -0.10763748 9.11006057 0.00338677 -0.09261488 0.00493721 12.78902757" Properties=species:S:1:pos:R:3:forces:R:3 config_id=O-FAPI3_al_combined_16__combined_strain_rattle_fa_rotation__sev-0.632__seed-new phase=O-FAPI3 mode=active_learning seed=3156114134 source=O-FAPI3/CONTCAR energy=-213.94395607 stress="-0.009043601611640745 -0.011935550844857267 -0.009158141617790858 -0.011935550844857267 0.005892388977244025 0.003939205882837459 -0.009158141617790858 0.003939205882837459 -0.0012501360361880022" pbc="T T T"
C        4.68190888       0.43790862       3.09193801      -1.08556110      -4.01545929      -3.28430127
C        0.12906377       4.50112453       9.34630038       2.65991036      -8.14934316       4.32681301
C        9.08395397       4.76574841       3.00991543      -3.45925207       4.74530551       6.94408383
C        4.10767908       8.77878502       9.31087848       1.83503866      -6.39351724       4.98616943
N        5.24629421       8.35790706       2.84230408     -23.17703144       2.65297171      -6.74610089
N       -0.11023730       5.46412512       8.61238746      -2.15722847       3.52676116      -2.18482052
N        1.08836298       5.28506790       3.17777579       6.32597197       1.23373232      -0.50042878
N        5.30114545       7.88496303       9.67726660      -6.40835080       7.31401504      -3.93171122
N        3.37315534       0.55742064       2.57601583      33.38484080      22.43412625      12.48439206
N        8.40707426       3.31726307       9.56283133       8.05049717       0.58020186       0.71433104
N        8.60081221       3.86919410       2.33914686      -5.19818591      -4.81430362      -4.48613312
N        4.31022046       0.70659316       8.62224092       1.38975624       3.49383683      -2.19329322
H        5.34031775       1.28650165       3.48107921      -1.47285844      -0.76926826      -0.32655105
H        1.29517117       4.11540140       9.76594249      -2.98068475       1.69985260      -1.26479893
H        8.32183189       5.26642707       3.86699756       1.71728556      -1.04465002      -2.15342171
H        3.07982550       8.45100128       9.89462703       2.46049490       0.71323880      -1.59545530
H        5.99924208       8.25324617       3.09200213      19.14758441      -2.86042422       6.19805232
H        0.60937637       6.21825581       8.33716528      -1.44262474      -1.32545655       0.49212654
H        1.45103206       5.80459571       4.05061884      -0.74328729      -0.52492827      -1.48649639
H        5.26681122       7.15463017      10.23157268      -1.29363162      -4.49425521       3.58983124
H        4.60661226       7.47463268       2.37753028       2.44066952       2.95493979       1.50033911
H        7.96368905       5.38527966       8.20709333       2.90585769       0.78228292       0.28865025
H        1.86455575       4.96585684       2.47227945      -1.65900738       0.57938082       1.58325079
H        6.17833365       8.04105639       9.34973573       3.11123385       1.20307888      -1.58752450
H        2.73950422       0.23626963       2.40271409     -29.68793695     -17.34671466      -8.43580066
H        7.49487848       3.36863118       9.62653408      -6.27308239       1.05062264      -0.15041468
H        0.01969912       3.46739572       1.74425960      -0.16050164      -0.24558721      -0.37528245
H        5.26554792       1.11734626       8.11649995      -1.87956523      -1.02564354       0.88429654
H        3.11065032       1.62536140       2.94102820       0.31711869      -3.05803183      -1.43485494
H        8.71925284       2.55391277      10.25087877       0.04324391       1.63339638      -1.26585097
H        7.47997486       3.75908498       2.23799504       3.06206655       0.20586775       0.34621988
H        3.51074078       1.35656070       8.47989071       0.32779695      -0.64044576       0.18691150
Pb       4.62867979       4.46831313      12.65839917      -0.27366453      -0.26100311      -0.94036153
Pb       0.12373236       0.21090139       6.14167169      -0.00715362       0.31821172       0.05289222
Pb      -0.15786195       8.95975097      12.63585059      -0.01814528       0.10732861      -0.26480722
Pb       4.62861413       4.76129563       5.96488283      -0.27363941      -0.24660495       0.91249420
I        7.15856269       6.43523543       6.48155917      -0.76118087       0.48591885      -1.00838352
I        8.82844814      -0.09115654       2.78862805       0.06459101      -0.00169838       0.32862891
I        6.36740837       1.70197597      12.30517597       0.07745407       0.04838781       0.07875299
I        1.74832396       2.73839816      12.76883645      -0.08857691      -0.17220903      -0.00006154
I        1.68612104       2.91602470       5.86846400       0.10169120      -0.22817090       0.03169982
I        2.48097295       7.36590859       5.86546584       0.09097045      -0.14838858      -0.00136505
I        7.11453539       6.19647674      12.14393423       0.39549832       0.13566447       0.15959206
I        6.28105774       1.85721837       6.37904619       0.47995897       0.40185036      -0.56489991
I        4.07927146       4.59759084       9.35574323       0.02225088      -0.30367724      -0.17296320
I        0.31453857       0.09299898       9.29719140       0.06373358      -0.19676460      -0.10823717
I        2.67066432       7.17303782      12.62273486      -0.07208824       0.00444851       0.26447142
I        4.96883854       4.41603629       2.93286938       0.09772339      -0.03887599       0.11032059
48
Lattice="9.31217927 -0.02831332 -0.03806253 -0.02755483 8.48182866 -0.09937714 -0.05400091 -0.1448715 12.83238011" Properties=species:S:1:pos:R:3:forces:R:3 config_id=O-FAPI3_al_combined_17__combined_strain_rattle_fa_rotation__sev-0.647__seed-new phase=O-FAPI3 mode=active_learning seed=516255582 source=O-FAPI3/CONTCAR energy=-206.32579703 stress="-0.012448907967487925 0.0036782729528641997 -0.017004030876693717 0.0036782729528641997 -0.04080157278625046 0.005766129551551624 -0.017004030876693717 0.005766129551551624 -0.015682433193572664" pbc="T T T"
C        4.70181132       0.21521431       3.07149972      -2.91416475       2.90500782       1.08260827
C        0.21645493       3.87862634       9.32985870      -3.82953709     -14.77493975       1.41795435
C        9.01306417       4.58557630       2.95248653       3.43436484       2.55293418       0.24129316
C        4.46359908       8.08983957       9.31855078      17.15950248     -32.10274931      23.79711671
N        5.29323022       7.84380975       2.24172061      -0.21137392      -0.46955980      -0.19858938
N        0.47754355       5.01783923       9.25937891      -2.33267227      10.99560494      -1.15490288
N        1.12361334       4.86725866       3.42354652      -9.80649805      -0.11078912      -2.27617619
N        5.72311281       7.79257049       9.34500033       3.60712914      -5.71684686       4.57330022
N        3.38440014       0.63220973       2.78212879      40.51772308      15.47124571      35.59950751
N        8.13836440       3.18227808       9.31812804      15.59572029      -7.22261335       0.45183454
N        8.76301259       3.69211864       2.01222221      10.47659869      -0.16226433       2.93829469
N        4.05186200       0.39564670       8.94072756     -23.23518052      31.31281359     -22.27326364
H        5.32853748       0.68725653       3.95048863      -1.64395736      -0.43527311      -1.45728685
H        1.08592158       3.07764849       9.46313160      -1.73232812       1.54786182      -0.34956398
H        8.05372199       5.34091185       3.15550031       2.93768869      -1.63158587       0.21758527
H        4.00921550       7.38355358      10.29672575       0.03206893       1.74402382      -2.60905141
H        6.32316171       7.75875027       2.43470180      -0.79320409      -0.64313780      -0.69812873
H        1.20211090       5.66365289       9.17776712       3.12790831       0.08708049       0.09844044
H        1.19480821       5.61380227       4.01270237       0.53454782       2.46988475       2.11824405
H        6.38371841       7.13787524      10.12660684      -3.74550497       1.42025169      -1.80881573
H        4.58134627       7.40520961       1.61657681       1.49876784      -0.66312696      -0.67168706
H        9.00091721       5.68168595       9.06951173      -0.00329946      -0.78843764       0.15544313
H        1.87443432       4.32966077       3.24384026       3.04254589      -2.66907833      -1.08740753
H        6.52143662       8.10664232       8.97798673       2.88555413       2.99701585      -3.38737759
H        2.85549154       0.46343074       2.38505595     -38.29484263     -13.63785583     -30.36318820
H        7.50407445       3.76974740       9.29102308      -8.95773299       6.50081181      -0.35190402
H        0.23657488       2.91014292       2.03330370      -2.24217433       1.68203161      -0.90266007
H        4.36526108       0.89162390       8.03716046       0.38194561      -0.17835928       1.36940391
H        2.91203783       1.36755805       3.71602284       1.78077292      -2.48079135      -3.05734531
H        8.37170631       2.04736441       9.40635986      -1.68817312       3.47014455      -0.25684566
H        7.88921203       3.54118152       1.97148659      -8.62723152      -2.29721140      -1.25160742
H        2.88363697       0.40989951       8.87694283       2.73088855       0.35792671       0.45631840
Pb       4.55316251       3.88281512      12.34922685      -0.40135100       0.06619331       0.35791113
Pb       0.15204235       0.00947705       6.15316397      -0.48391839      -0.15542083      -0.03718579
Pb       8.99341100       8.11480098      12.48277910       0.83706363       0.91307306       0.24495117
Pb       4.69015257       4.24509408       6.01855468       0.34076694       0.00658855       0.37479317
I        7.45682422       5.83610468       6.42627389       0.03996240       0.00344119      -0.00054322
I        8.81240319       8.30391216       2.96157951      -0.08512116       0.15571459      -0.31645282
I        6.51943376       1.45268876      12.21252040      -0.00883450      -0.06806026       0.13831967
I        1.87287333       2.35417067       0.09373884       0.37269113       0.15912114      -0.21136058
I        1.90610325       2.53115309       5.95671049       0.16758242       0.07216772      -0.07014524
I        2.78696046       6.92432122       5.79717993       0.18831583      -0.05606322       0.20559393
I        7.55949604       5.66259280      12.41251498      -0.83813366      -0.91701410      -0.39583588
I        6.52731840       1.60707412       6.54023419      -0.21578119       0.02850655      -0.22935001
I        4.18334312       4.20179900       9.39868812      -0.05406742      -0.03440212      -0.20192034
I        0.29082350      -0.06081420       9.37778714       0.20274417       0.22288145       0.16915154
I        2.61581630       6.47704705      12.72197737       0.10732365       0.05355730       0.01891313
I        4.93882696       4.12517536       3.04963633       0.14490513       0.01969640      -0.40838286
48
Lattice="9.29052782 0.14652307 -0.09177159 0.14259784 9.03781476 -0.10429298 -0.13020021 -0.15203779 13.32147177" Properties=species:S:1:pos:R:3:forces:R:3 config_id=O-FAPI3_al_combined_18__combined_strain_rattle_fa_rotation__sev-0.662__seed-parity phase=O-FAPI3 mode=active_learning seed=801589023 source=O-FAPI3/CONTCAR energy=-213.86547835 stress="0.001688913509828192 0.010179472392910355 -0.0003525833748079118 0.010179472392910355 0.017510400398922113 -0.012154736442400596 -0.0003525833748079118 -0.012154736442400596 0.02385021564034546" pbc="T T T"
C        4.70013716       0.40696997       3.23171766      -3.51085105      -0.41710649      -1.84934630
C        0.00930277       4.01712180       9.95749518       3.56947736       1.13704489      -2.49881795
C        9.18001979       5.06397452       3.15326391       5.85533503      -1.01925851      -3.51964886
C        4.80702392       8.62564949       9.84031739     -26.33975103       7.71436407       4.31979609
N        5.42868279       8.53716789       2.37272745      -5.01306674      -0.46688709      -1.91106954
N        0.85734173       5.02032135       9.03482437     -27.63874328      -4.94869319      -3.16107501
N        1.21759406       5.35638265       3.06183843      -0.57561278      -3.40890402      -3.15199469
N        5.80467099       8.33625307       9.51421874      23.35435840     -12.76657305       0.74139019
N        3.33328396       0.70213621       3.17767778       3.09998096       2.60735415       3.31282400
N        8.04303548       3.67084771       9.68166426      -0.24453063       3.29878495      -1.35191335
N        8.75922064       4.10835523       2.32040497      -5.77922689       0.26761519       3.37597052
N        4.09433706       0.54143008       9.15312532      -5.16667200       2.28264270      -0.05701756
H        5.31818519       0.96994135       3.87967376       0.44425617       0.63964616       1.14105513
H        0.73115112       3.46976736      10.72590751      -1.67589837       1.13658105      -1.23139383
H        8.70104233       5.56674303       3.94813538      -1.38518014       0.13124317       0.83957983
H        3.88966625       8.05450345      10.65105871       3.05608741       1.48190743      -2.02067674
H        6.34042836       8.24347191       2.35964977       3.20540889      -0.25501082       0.57949591
H        1.64386715       5.10560869       9.19292913      18.80305616       2.24377598       3.64482333
H        1.72690834       5.90462467       3.70176830       0.23749350       1.15166401       1.43398674
H        6.12725069       7.49123987      10.41674902       0.43400313       2.18568709      -3.03338857
H        4.83483203       7.99711166       1.61998662       0.85516556       1.13959049       1.50356535
H        0.01055113       5.50144986       8.12337707       3.43475961      -1.25922801       2.83148940
H        1.99067066       4.83307809       2.32395548      -3.10057306       1.50667287       2.34704678
H        6.57907221       8.76663726       9.08891303       1.21489086       0.80041113      -1.18788831
H        2.62162535       0.52123771       2.51734581      -0.39146906      -1.10004191      -1.42234943
H        7.25044589       4.24723454       8.96072101       2.67776773      -2.16192221       2.56931657
H        9.17752888       3.59494598       1.57750880       1.50468925      -0.11485870      -0.79795806
H        4.59922485       1.04988006       8.34442425      -0.71656785      -1.08975800       1.53787823
H        2.95126725       1.53172835       3.84056470       1.30056665      -2.02635863      -1.20765722
H        7.63945663       3.08396680      10.46945935       0.36705753       0.62982399      -0.94166109
H        7.67073059       3.71968930       2.50021371       3.19883604       1.48656200      -0.44376514
H        2.90852113       0.75926641       9.21753870       4.21606562      -0.79560193      -0.05707939
Pb       4.69565202       4.32417433      13.14776101      -0.00082028      -0.04352294      -0.17270562
Pb       0.11880072       8.80574922       6.20815599       0.10904951       0.70178723       0.22029882
Pb       0.09074984       8.71562010      13.13845846       0.02171704       0.10198879      -0.23824019
Pb       4.71686845       4.67733204       6.23892821      -0.44733827      -0.40862697       0.36195553
I        7.43646484       6.51920369       6.37234807       0.08949811      -0.29452256       0.30886053
I        8.89883049       0.19523241       2.99335706      -0.03404607      -0.02842483      -0.06185230
I        6.38483074       1.73061838      12.71658715       0.17939444       0.00697126      -0.03925072
I        1.85535812       2.62329646       0.14581954       0.15582767      -0.03410156      -0.12338302
I        1.84064797       2.69696833       5.97360461       0.25310328       0.02316175      -0.07732509
I        2.79627623       7.37529707       5.98821357       0.34659434      -0.38722903      -0.03706374
I        7.37126247       6.26087097      12.82924349      -0.26820406       0.05880638      -0.21977636
I        6.61143908       1.90279442       6.48598072      -0.19615905       0.22206642       0.05553678
I        4.13101348       4.46044534       9.52473442       0.63630190       0.06995083       0.02622958
I        0.29019862      -0.09862930       9.78942367      -0.03238526       0.01939586      -0.00005863
I        2.98422375       7.21501887       0.01984268      -0.10117237       0.02647800      -0.09618754
I        5.13700713       4.51852400       3.03159170      -0.00247389      -0.04534737      -0.24055506
48
Lattice="9.19951278 0.1285624 -0.08315782 0.12511831 9.04510495 0.14708083 -0.11797949 0.21441371 13.19352661" Properties=species:S:1:pos:R:3:forces:R:3 config_id=O-FAPI3_al_combined_19__combined_strain_rattle_fa_rotation__sev-0.677__seed-new phase=O-FAPI3 mode=active_learning seed=3053778016 source=O-FAPI3/CONTCAR energy=-208.879953 stress="-0.013545910150132684 0.007201034474113829 0.011109094939303711 0.007201034474113829 0.019438609255482155 0.009894300087892034 0.011109094939303711 0.009894300087892034 0.003659667507239162" pbc="T T T"
C        4.55840042       0.56833471       3.18767633       9.39775691      -2.81131597       1.67852627
C        0.25149936       4.47063508       9.81007515      -9.48141199      -1.68143853      -2.21176553
C        0.24131760       4.90701720       3.43190807     -10.51129967      -1.71676207       5.71107875
C        4.70850068       9.06649705       9.91074567      -1.63039998      -6.96194691       4.81929818
N        5.48177958       8.55466645       2.64702149     -42.74853481       6.41483016       0.64072702
N        9.06750929       5.79561240       9.23246135       8.33561651      -0.67964445       1.91658156
N        1.17583473       5.26688324       2.83834034      15.53913723       4.22827125      -9.29685311
N        5.96417878       8.46902125       9.71823450     -18.03510530      -8.32745889      18.66089142
N        3.34149456       0.93021363       3.15301789      -1.36122165      -5.21541886      -5.32077682
N        8.25582136       3.49347527       9.70625993      16.47034957      -1.85907155       4.73413739
N        8.51113318       4.17562288       2.93817648      -2.71252302      -1.21847082       1.86308940
N        3.83446506       0.87860007       9.19230680       0.15855553       2.05522687      -3.94110159
H        5.34993941       1.01427179       4.09671440      -2.43059467      -0.58507854      -2.41315917
H        1.16430806       4.05326669      10.07960936       1.96254975      -0.14167198       0.70765205
H        9.12849191       5.69965528       4.16426276      -0.08462499      -0.52614987       0.73485061
H        3.98706405       8.28767645      10.77813173       2.26855573       2.40828745      -2.02359131
H        6.20715379       8.44859272       2.60793768      34.22090947      -4.31968816      -1.33596397
H        0.93767764       6.25696301       9.07793028      -3.91188369      -1.47036023       0.67222867
H        2.05275828       6.09156101       3.04014351      -3.66861526      -2.75352609       0.09796354
H        6.09110983       7.68934524      10.50693380       0.63995533       1.98432898      -2.33497714
H        4.62638670       7.93669202       1.79234343       3.00578688       1.65095901       2.26142424
H        8.37274789       5.97797407       8.52073660      -1.34678251       0.08882520      -0.80643025
H        1.64864717       4.70471674       1.84031817      -1.89792102       1.08399812       2.70835343
H        6.42856490       8.77721250       9.17118499      15.05612352       8.68061766     -16.38501867
H        2.70566493       0.22690486       2.43250233       1.21711194       2.84989244       2.49487919
H        7.44450254       3.73264801       9.54271407     -10.85898330       3.57391046      -1.95698724
H        8.48201301       3.65589509       2.10624836       1.13266238      -0.60698340      -1.79881734
H        4.42819183       1.11438903       8.35389042      -1.09464576       1.21196563      -0.08937626
H        3.04532944       1.54889432       3.82986772      -1.64432422       1.85905601       1.89824343
H        8.45769292       2.67753444      10.46936312      -0.87471339       2.48200841      -2.46017562
H        7.54490980       3.89166437       3.37734557       2.29451532       1.49698499       0.07278208
H        2.70994875       1.07299341       9.01530036       2.61292229      -1.14762424       1.37805864
Pb       4.50921609       4.65863523      12.93940681      -0.05359813       0.05871950      -0.25219449
Pb       9.05882882       0.38974269       6.18645557       0.02989083      -0.30057893      -0.01164369
Pb       9.02642010       9.26313432      12.97219602       0.16185795      -0.38534331       0.04586844
Pb       4.48029276       4.73951608       6.13220276       0.23009472       0.32859183       0.21698201
I        7.48615651       6.61684695       6.65068901      -0.31923825       0.42658059      -0.74356967
I        8.73573550       0.26734234       3.07650043       0.22569061      -0.02650369      -0.22880948
I        6.53663034       1.98421896      12.77881266      -0.40329080       0.33262724      -0.05998688
I        1.94184795       2.89593110       0.31175348       0.06550597      -0.03720476      -0.20565113
I        2.03624990       3.02075605       6.14565464      -0.34718399      -0.34184641      -0.01945034
I        2.73374754       7.45851441       6.23520289       0.00153399      -0.08672171      -0.04546441
I        7.36204425       6.58267680      12.68294368       0.01927563       0.19464098      -0.01296558
I        6.37278688       2.00247604       6.63259035      -0.09403062       0.04302408      -0.02025287
I        4.07457697       4.80792550       9.73479045       0.06291101       0.04026985       0.24630275
I        0.32916557       0.33826110       9.56054625       0.30695971      -0.39419080       0.20296405
I        2.86909833       7.19977732       0.24227540       0.34602188       0.05524097       0.22369770
I        5.08140667       4.48062527       3.08267335      -0.25132364       0.04614250      -0.01159825
48
Lattice="9.38111347 -0.0517733 -0.05799746 -0.05038634 8.91796244 0.13294024 -0.08228343 0.19379963 12.65340209" Properties=species:S:1:pos:R:3:forces:R:3 config_id=O-FAPI3_al_combined_20__combined_strain_rattle_fa_rotation__sev-0.693__seed-new phase=O-FAPI3 mode=active_learning seed=1516533322 source=O-FAPI3/CONTCAR energy=-209.437472 stress="0.01688909911598181 -0.022011987999419447 -0.008566697155490037 -0.022011987999419447 0.007261344273136956 -0.010004389673341064 -0.008566697155490037 -0.010004389673341064 -0.01743060952047566" pbc="T T T"
C        4.65247132       0.45917992       3.20584860      -1.84057039      -4.19756093      -6.17888253
C       -0.06363424       4.32423716       9.63601596      -2.04678215      -2.45304175      -2.01066370
C        9.07652467       4.88789919       3.05629257       6.84059280       0.26074697       0.86359459
C        4.55523091       8.48814838       9.63739236      -0.21965422       6.58008192      -5.15065712
N        5.12953394       8.06250464       2.84020475      -3.43970144       6.44998223       1.62997129
N        0.63673487       5.13223200       8.85313497      -7.35586011       0.57659835      -2.05112026
N        1.13544525       5.36471954       3.15833588      -2.18423260      -4.96390049      -4.88410425
N        5.75578578       8.12197085       9.46463584       4.66200906       1.58452461      -2.48196443
N        3.65213386       1.05938459       2.41648971      32.56179620      37.31978477      44.51682461
N        7.94229160       3.80424855       9.30840001       5.89697011       5.67981426      -2.63797458
N        8.67916727       3.82239015       2.36392050      -5.64257420       4.74349266       6.15620566
N        4.01754953       0.89425845       8.71023228      -9.18823851     -12.76833029      17.74567672
H        4.95054293       0.94985439       4.08575554       1.05107385       0.40402251       1.25733703
H        0.59940814       3.67347596      10.29565609      -1.25514427       0.78544397      -0.10298100
H        8.49758869       5.28680168       3.93495485       0.11750126      -0.07651693      -1.04603879
H        3.93152523       8.08163494      10.33498427      -1.96978458      -1.10508160       1.94805723
H        5.87535516       7.62402615       3.26588724       2.04494275      -0.89309755       1.48532964
H        1.54944843       5.32911921       8.87827317       4.75639134       0.53466922       0.88539665
H        1.53733111       6.05147228       3.71824322       0.14084915       1.89770134       1.60787332
H        6.34697486       7.52316864      10.09571550      -0.99446810       0.00114620      -0.10782255
H        4.72890877       7.60589647       2.04015430      -0.47421459       0.05831596      -0.58996398
H        0.12114249       5.68783680       8.04114700       0.83894844      -1.26840831       1.75800689
H        2.05854838       4.90256953       2.35627794      -3.80996695       1.48963026       2.68557118
H        6.60306045       8.70735354       8.65650609      -3.04007831      -1.67496673       2.42842420
H        3.32041491       0.67638520       2.00177034     -31.69459740     -35.83371399     -39.95118131
H        7.24629637       4.33470963       8.71106900       1.10848743      -0.67353008       0.86983742
H        9.13233290       3.40338037       1.65546523       1.93097852      -2.09554359      -3.42625643
H        4.42496720       1.23338265       8.09262116       9.04331819       7.08440969     -13.80800274
H        3.12087155       2.00974181       2.91699807       1.89256008      -3.51225776      -1.90825218
H        7.67889689       3.17526264       9.94684696      -1.85495835      -3.11951483       3.20232333
H        7.56861201       3.84070845       2.68835937       2.40669946      -1.30908760      -1.92233256
H        2.96410130       0.85171080       8.81164718       1.69324584       0.38364204      -0.58079120
Pb       4.72036705       4.55762474      12.42164335      -0.01401346      -0.33529282      -0.03303582
Pb       0.06955221       0.19589072       6.14127699      -0.30958683      -0.10780407      -0.38804630
Pb      -0.05887698       8.99010251      12.50116602      -0.14757159       0.12993687       0.58131451
Pb       4.40326870       4.52869375       6.15392196       0.28652698       0.11313383       0.08394000
I        7.34419189       6.41670463       6.47050607       0.10018391       0.09352512      -0.02187613
I        9.09749154       0.03934676       2.93848174      -0.05517654       0.01521638       0.01812875
I        6.53375013       1.88145086      12.16682608      -0.08798198       0.13779891       0.11338254
I        1.97941880       2.70017564       0.09079949      -0.16545100      -0.02056894      -0.16338558
I        1.89014971       2.78052157       5.83912384       0.03715426       0.01374649      -0.06288330
I        2.58301897       7.31014109       5.97322177       0.19833799      -0.17347150       0.08629323
I        7.34124959       6.32427219      12.27919283       0.08604374       0.20252435      -0.06878667
I        6.66449797       2.02335294       6.33190898      -0.10214927      -0.04566002       0.00917930
I        4.44346302       4.53514530       9.28085927      -0.25441504       0.09501404       0.14495948
I        0.08525936       0.26251574       9.34868631       0.06867427      -0.00019373      -0.27840543
I        2.46701317       7.14670042      12.68718288       0.27088012      -0.05142886       0.03306322
I        5.10414861       4.38448384       3.06939896       0.11300613       0.04406943      -0.25528196
48
Lattice="9.01938999 0.0 0.0 0.0 8.77776784 0.0 0.0 0.0 12.79618681" Properties=species:S:1:pos:R:3:forces:R:3 config_id=O-FAPI3_al_global_rattle_01__global_rattle__sev-0.207__seed-new phase=O-FAPI3 mode=active_learning seed=3286072468 source=O-FAPI3/CONTCAR energy=-221.16976452 stress="0.0015650411992330579 0.0012748289567352052 -0.00046763584006480596 0.0012748289567352052 -0.0058591114912865914 0.0028019735725256195 -0.00046763584006480596 0.0028019735725256195 -0.0067720688213402744" pbc="T T T"
C        4.46474118       0.37701751       3.26910698      14.60312485      -4.73075975      -0.59554458
C        0.20177016       4.02034135       9.56547748     -11.93782359       3.28712621      -7.59139144
C        0.01228603       4.66768663       3.19508500       1.61701268       5.31929180       3.61261623
C        4.32492251       8.36712060       9.63728648      11.49351036       5.21681161     -10.66851484
N        5.19780491       8.29895535       2.43930574      -3.23661804      -1.04882739      -0.95544393
N        0.60552044       4.98472530       8.82882109       1.35538746       1.90432380      -1.43023524
N        1.29684496       5.12316070       3.13938742      -5.07259067      -0.36777433       2.19112193
N        5.75510499       7.97954642       9.33623482      -6.21496523       0.53954490       2.04017375
N        3.35834470       0.73178986       3.08507900      -7.69200671       1.10251787      -2.13251049
N        7.86583905       3.62297101       9.37731109      -0.00569614       0.13818250       0.92634732
N        8.41525970       3.86944046       2.43498421      -0.91445963      -1.22087714      -0.29238287
N        3.86361318       0.53846690       8.85647545      -2.68353137       1.64296466      -0.35193309
H        5.22229535       0.84088154       3.94207431      -1.15334151       0.14878246       0.32196067
H        0.69404567       3.58203027      10.20430829       5.36846863      -4.58606560       6.65211820
H        8.43716555       5.32608856       4.02360419       0.87336788      -1.94276374      -1.74402918
H        3.83523349       7.93905291      10.27904954      -5.29359993      -4.78861184       7.08301701
H        6.14775061       7.89288185       2.61562133      -1.01516534       0.85069816       0.32059816
H        1.59972825       5.13964474       9.01545719       0.25448701       0.74376468      -0.72085491
H        1.54075651       5.88927831       3.74178583       0.35885018       0.34447711       0.41225111
H        6.03562462       7.30994617      10.04255874       1.11716037      -0.04648851      -0.12301168
H        4.61150443       7.74709963       1.64414609       1.57640176       1.40060517       1.97668640
H        0.03813082       5.54810930       8.04175068       1.03600041      -1.46942063       1.84717407
H        1.87650826       4.81621068       2.47245042       3.08393690      -1.35377144      -3.11993954
H        6.31962861       8.55952918       8.71806600       0.06770151      -0.15563474       0.33548444
H        2.73485808       0.23518458       2.50787616      -1.28845019      -0.57683813      -1.18565963
H        7.03947064       4.06998832       8.81476397       2.61052167      -0.18971947       0.72473997
H        8.87946281       3.30707670       1.76038076       0.61940676      -0.70687810      -1.14253741
H        4.36792579       1.12390724       8.04252689      -0.65909262      -1.75277485       2.07101657
H        3.01996118       1.42816591       3.63188169      -1.94634692       2.87980050       2.20669082
H        7.35039147       3.03776539      10.08344358       1.31376743       0.17763929      -0.27651951
H        7.45159137       3.65280383       2.64848949      -0.65109356      -0.08959513      -0.02306995
H        2.79480518       0.80347956       9.01472883       2.21804648      -0.55524682      -0.43235775
Pb       4.48651724       4.33494594      12.54023505       0.61849630      -0.45872619      -0.10113711
Pb       0.07433989       0.08994561       6.26135041      -0.03298239       0.04829842       0.09553895
Pb       0.15639225       8.67179280      12.71609906      -0.52131202      -0.06286938      -0.62975955
Pb       4.56530657       4.54315521       6.08376544      -0.10338147      -0.12237626       0.24641096
I        7.24282559       6.21986827       6.54173444      -0.04148997      -0.05994496      -0.20292743
I        8.64892504       8.72611998       2.84022972       0.15517704       0.02368723       0.74590381
I        6.41229869       1.65220229      12.26992507       0.03039050       0.10514152       0.06720904
I        1.86604423       2.53223943      12.74557175      -0.06192185       0.02019829       0.16887494
I        1.74872722       2.62502211       5.93034185       0.28488648       0.24587269      -0.02905262
I        2.74374308       7.11096339       5.90701862      -0.03965206       0.03074645       0.01056321
I        7.10285476       6.10422873      12.38248353       0.13436759       0.05487316      -0.00945540
I        6.37864248       1.86056218       6.45060230      -0.11038929      -0.06256893      -0.00358534
I        4.20826833       4.45155420       9.37696905      -0.08300534      -0.04397419      -0.00918392
I        0.29038566       0.19779330       9.42027313       0.18241102      -0.10870309      -0.27718734
I        2.82506578       6.87750197      12.78218791      -0.28984001       0.31932098       0.15572449
I        4.88136809       4.30859166       3.03959803       0.07587454      -0.04345884      -0.16399730
48
Lattice="9.01938999 0.0 0.0 0.0 8.77776784 0.0 0.0 0.0 12.79618681" Properties=species:S:1:pos:R:3:forces:R:3 config_id=O-FAPI3_al_global_rattle_02__global_rattle__sev-0.220__seed-new phase=O-FAPI3 mode=active_learning seed=59990964 source=O-FAPI3/CONTCAR energy=-217.6884345 stress="-0.02189551781905517 0.0059062653499930545 0.0033604463204010824 0.0059062653499930545 -0.006014997606935497 -0.0031850231577165208 0.0033604463204010824 -0.0031850231577165208 -0.00171299367645847" pbc="T T T"
C        4.57227414       0.46393602       3.13881364       6.47769034      -4.80981456      -1.95672279
C        0.03789695       4.09670100       9.45776302      -1.64186694      -5.05354034       4.93534035
C        8.95801638       4.81409049       3.22328601       2.67476208      -6.40070270      -7.39274814
C        4.32354254       8.47748927       9.59229355       4.86673487      -4.41788851       1.67091984
N        5.15948125       8.25541666       2.36913414      -4.28839130       1.31873254      -0.73019094
N        0.60244041       4.88590922       8.72710766       5.54097530       3.98432540      -1.92431321
N        1.14531650       5.13904715       3.12564675       2.34468319      -0.24380205      -1.20914371
N        5.70165933       7.98752919       9.48427915      -1.42530653       4.17063394      -3.08946771
N        3.36647324       0.61406165       3.09839663     -10.55071826       4.95109894       0.12647957
N        7.80186407       3.75997836       9.39469995       1.08914879      -4.63932580       6.06315981
N        8.58092524       3.85207040       2.34407332     -12.55031004       9.31963503      11.64891181
N        3.74461099       0.54608126       8.83373854      23.83235322      -3.37757406      -5.41884251
H        5.21048175       0.87022457       3.89911815       0.23706816       0.75580411       0.43612575
H        0.75111577       3.62755739      10.23677043      -1.58365717       0.21818767      -0.74006452
H        8.31816705       5.24318869       3.77824588      -4.74685099       3.09175050       4.36339147
H        3.77251121       7.83773799      10.35011585       0.21824445       1.12811343      -0.61503437
H        6.10364868       8.06442384       2.56430350       1.63102287      -0.65931361      -0.28448759
H        1.57899069       5.08239394       9.06684041      -0.67452653       0.34229158      -1.26403029
H        1.57387877       5.77272649       3.68238837       1.65169941       2.82656507       2.57393444
H        6.15744014       7.38190912      10.19764890      -0.65279262       0.44435482      -0.19749213
H        4.47238142       7.78480796       1.60586412       2.34601657       0.91263941       1.91247760
H        0.10795398       5.47293614       8.11439872      -0.60065314       1.28565034      -1.56110995
H        1.74928110       4.72479400       2.43808818       0.28975410      -0.42163387      -0.41866749
H        6.48161433       8.58447244       8.70699014      -2.89036490      -2.23169474       2.99290894
H        2.56498581       0.30485451       2.33342612       2.77392956       0.48868931       2.09712029
H        7.16225791       4.03762205       8.76208066      -2.62215819       1.42656000      -2.77115763
H        8.91169297       3.30245143       1.78944500       5.93216208      -7.99200022      -8.31169852
H        4.39666662       1.00458068       7.94694731      -2.02027181      -1.18132364       2.66811492
H        2.93530347       1.54143221       3.70712634       1.13859296      -2.91286204      -1.55327949
H        7.46096351       2.99128395      10.20102850       0.67112253       2.26206553      -2.45174051
H        7.33639337       3.73980661       2.53425665       3.89477365      -0.03476220      -1.08577914
H        2.98412371       0.74677193       8.89938963     -21.41903941       5.59789252       1.76524706
Pb       4.54540222       4.26052214      12.63087159       0.17168545      -0.45577266      -0.17045784
Pb       0.01646706       0.22084688       6.05139710       0.43312210      -0.43107007      -0.01779008
Pb       0.13365293       8.51322295      12.47937076      -0.50263065       0.55083409      -0.08260576
Pb       4.66124609       4.38355301       6.30338332      -0.43018084       0.62920305      -0.45354706
I        7.17670525       6.21887410       6.55636944       0.01921505       0.10882412      -0.20988879
I        8.61780661       8.74811636       2.87114352       0.15476099       0.00091924       0.00835072
I        6.23786829       1.62154426      12.19633599       0.12728050       0.30879754      -0.06288578
I        1.77593133       2.53851431       0.16511329       0.32573623      -0.07260772      -0.28971294
I        1.82765699       2.71276503       5.83136411       0.08184759      -0.03479692      -0.11100137
I        2.66750651       7.02582650       5.80452411      -0.07549919       0.06519182       0.11207633
I        7.10610129       6.17689802      12.36893096      -0.00956565      -0.15699239      -0.06060247
I        6.33514061       1.83965275       6.40104433      -0.05504700      -0.35049269       0.18091749
I        4.20842599       4.49642457       9.25140377      -0.24761367      -0.05170270       0.50228348
I        0.48210119       0.11620343       9.21764910      -0.41331546      -0.08687404       0.22471038
I        2.61716749       6.87168082       0.07821516       0.26440939      -0.13401723       0.04837377
I        4.91104694       4.26230535       2.89318943       0.21196885      -0.03819523       0.10361872
48
Lattice="9.01938999 0.0 0.0 0.0 8.77776784 0.0 0.0 0.0 12.79618681" Properties=species:S:1:pos:R:3:forces:R:3 config_id=O-FAPI3_al_global_rattle_03__global_rattle__sev-0.233__seed-parity phase=O-FAPI3 mode=active_learning seed=1508704073 source=O-FAPI3/CONTCAR energy=-222.6347432 stress="-0.0062720971705243845 0.0028723419067881086 0.006439659651785627 0.0028723419067881086 -0.0064136627926008995 -0.007676272690746781 0.006439659651785627 -0.007676272690746781 -0.012688309956644701" pbc="T T T"
C        4.67194038       0.31868397       3.17722818      -5.54962862       2.95309413       1.17825836
C        0.10099805       4.04876157       9.51603340      -2.42367737      -2.59875923       2.16303487
C        8.95632984       4.70552372       3.27699979       4.53468241       2.48748293      -0.99279262
C        4.44761778       8.26740524       9.58911728      -4.70383476       5.37402199      -1.86383614
N        5.12787722       8.24432138       2.34628655       1.22706010      -0.33956908       0.36589390
N        0.64940826       4.94996226       8.79776257      -3.54330620       0.38334072      -1.36655568
N        1.26312237       5.09772185       3.06038428      -9.92721716       5.29716566      11.41987480
N        5.68746615       8.05650594       9.56118282      -1.01676509      -1.06752189       1.32647364
N        3.34218601       0.67045679       3.08066304       6.39168502      -3.95751365      -1.55503905
N        7.82483799       3.58702781       9.41147921       2.60843120       0.66047628       0.69781772
N        8.28481732       3.93786430       2.54222458       2.50880752      -3.70511912      -4.75492649
N        3.82559348       0.56631981       8.90107016       0.88633276      -0.53678489      -0.72018177
H        5.07141737       0.92517963       4.04372491       0.98509653      -1.15116804      -0.99762178
H        0.77668583       3.67185203      10.32803117      -0.84817156      -0.25748386      -0.48333609
H        8.35179350       5.25001762       3.91182489      -0.61861638       1.33768593       2.29958711
H        3.80141637       7.85366130      10.30540047      -0.71464555      -1.03977423       1.08609684
H        6.08994380       8.05899418       2.49184266       1.54366824      -0.81036220      -0.38738516
H        1.57968257       5.07451888       8.85132191       4.36669768       0.79105682       0.34879120
H        1.65440262       5.88504040       3.67348708      -0.71128710      -1.47276873      -0.85987242
H        6.12673894       7.40339797      10.12451038       1.02781959      -1.99159245       1.69468014
H        4.57388311       7.79304809       1.61957344      -0.22737369      -0.10951574      -0.27650862
H        0.15615937       5.40444620       8.04887316      -0.33380595       0.40251161      -0.66614164
H        1.75067262       4.79238246       2.43911457       7.45374787      -4.95979918      -9.68363779
H        6.18326860       8.40167077       8.86068539       3.25551720       2.24757777      -3.92413594
H        2.69746982       0.34788427       2.46639898      -1.88958292      -2.01464480      -3.00368285
H        7.24317239       4.02851512       8.69730022      -0.26990378      -0.33147373       0.21224790
H        8.86341019       3.43593784       1.67030277      -1.82618212       1.05473418       2.22058376
H        4.33779643       1.09951435       8.07337568      -0.88829064      -1.37802116       2.06411711
H        2.93257673       1.31097894       3.56375824      -2.39990104       5.43464602       4.73548589
H        7.42676180       2.90306027      10.11388135       0.51232941       0.95896709      -0.87620345
H        7.31012070       3.75402300       2.66654606      -1.12024653      -0.11730793       0.18851973
H        2.76278419       0.86675296       8.99541926       2.33497781      -1.46045193       0.06933660
Pb       4.55310027       4.23929373      12.53305652      -0.17124197       0.16291523      -0.04931703
Pb       0.03236392       0.04979162       6.07092831       0.20110786       0.09168000       0.30615790
Pb       0.03127095       8.63306748      12.59243722       0.03529242       0.10093076      -0.17227186
Pb       4.58049540       4.43481210       6.14716581      -0.35343489       0.00480091      -0.07802890
I        7.07503030       6.26011012       6.28866643       0.13491435       0.07066149       0.18935076
I        8.64337198       8.73218305       3.01923571      -0.03179336      -0.01063178      -0.32347218
I        6.25792327       1.76631028      12.39799021       0.30448874      -0.28392957      -0.10749599
I        1.74224995       2.57143936       0.10265869      -0.05915157       0.13473813       0.03744514
I        1.89092314       2.57163239       5.87459654      -0.02827264       0.06327928       0.09123687
I        2.64870424       6.98442510       6.01222631      -0.08450227       0.03447750      -0.08963746
I        7.11268157       6.19369683      12.20031817       0.03829185      -0.19178927       0.14671115
I        6.40206340       1.91635297       6.45867337       0.03097142      -0.22468966      -0.04324314
I        4.27628157       4.46768651       9.32233892      -0.15723315      -0.00504351      -0.06512818
I        0.42153472       8.74112162       9.32663192      -0.22333539       0.02245131       0.23758573
I        2.74832123       7.05277978       0.02675043      -0.17223103      -0.06397388      -0.00298213
I        4.87057946       4.39973228       2.84156053      -0.08828725       0.01099379       0.26414722
48
Lattice="9.01938999 0.0 0.0 0.0 8.77776784 0.0 0.0 0.0 12.79618681" Properties=species:S:1:pos:R:3:forces:R:3 config_id=O-FAPI3_al_global_rattle_04__global_rattle__sev-0.247__seed-new phase=O-FAPI3 mode=active_learning seed=1347997030 source=O-FAPI3/CONTCAR energy=-218.98749716 stress="-0.013557841537566393 -0.0004945873942439194 0.00257812724663121 -0.0004945873942439194 -0.003495435732424838 0.009216289270671649 0.00257812724663121 0.009216289270671649 -0.00500511032672285" pbc="T T T"
C        4.40814199       0.44934491       3.14427135      11.69768038      -4.37547444       0.57166786
C        9.01097679       4.18796863       9.56326335      -1.89588117     -10.01652980       9.74336167
C        8.97843664       4.69996555       3.15675287      -3.83650636      -0.09216290       0.20788833
C        4.46901935       8.48596956       9.75185816       1.10737222       0.91574004      -5.03278113
N        5.10245030       8.22727083       2.52302006      -4.43182019      -1.58119146      -4.57650888
N        0.68733281       4.78782653       8.84908961       6.11535145      11.54410513     -10.44871125
N        1.19891531       5.11543951       3.15510703      -0.34533673      -4.21971689      -3.89103250
N        5.67783777       8.02788278       9.54173543      -6.23709316       8.68789457      -9.93296804
N        3.23535107       0.74959917       3.00419520      -2.42643924       1.83943347       0.54589907
N        7.87022203       3.61164716       9.38794357      -4.92790199       0.62479857      -1.36145585
N        8.30823400       3.74626705       2.31910054      15.06749382       3.82756665       0.98622929
N        3.92289456       0.45175809       8.77509669      -4.16841894       2.92294058       1.60641790
H        5.33604889       0.73297776       3.84985539      -3.03855643       1.26457582      -0.27175316
H        0.64904658       3.61071373      10.31566455      -1.12424706       0.76250214       0.11467292
H        8.26759876       5.24556667       3.91055525       1.10164215      -1.05899837      -1.20531014
H        3.83417543       7.91852751      10.34496347      -1.28607825      -0.51335040       1.95498329
H        6.10400133       8.00845662       2.38939831      -0.35488819       0.93440129       0.92800099
H        1.69783703       5.23663372       8.92256929      -1.94619310      -1.66238807       0.62592718
H        1.63666527       5.81335448       3.68456333       0.47603694       1.43834345       1.50162124
H        6.09276678       7.57388338      10.09179411       7.67002388      -9.25224259      11.09935380
H        4.49922204       7.74949737       1.57704314       1.79163660       1.21747041       2.96982750
H        0.12723311       5.39180657       8.10939913       1.31469223      -1.23990308       0.72269616
H        1.79555265       4.55629096       2.46610467      -0.22332258       1.23928197       1.06953245
H        6.29801346       8.38180203       8.81439416      -0.35842427       0.34880253      -0.22729312
H        2.49605882       0.40110668       2.50624643      -1.95449547      -1.79740752      -2.25846948
H        7.18570904       4.10727399       8.69139606       1.23696864      -1.35326696       1.34204334
H        8.93082797       3.38850796       1.57845046      -1.04259572      -0.40872435      -0.08260151
H        4.33924981       1.17500052       8.05654089      -0.14275023      -1.91876927       1.68088491
H        2.93671464       1.41794297       3.62424825      -1.29504973       2.50132831       2.17746126
H        7.39162379       2.92517735      10.05899723       1.12087630       1.35912527      -0.73454243
H        7.45911787       3.72988484       2.47698207     -11.09155194      -0.80875154       1.31441346
H        2.80296800       0.79271249       9.10429484       3.38508381      -1.20169292      -1.38233697
Pb       4.49746497       4.33204471      12.56174147       0.05029987       0.11331259      -0.09228079
Pb       0.06211347       0.06351716       6.11512237      -0.00994608       0.20260946       0.09437762
Pb       8.89619450       8.75178099      12.55847589       0.16028419      -0.24607178      -0.11487815
Pb       4.54930157       4.52035355       6.13333057      -0.14275046      -0.38839113      -0.07052755
I        7.01069707       6.25676413       6.43640903       0.52101321       0.28553792       0.10003604
I        8.69936219       8.77272940       2.91320510      -0.00957166      -0.06942813       0.05733490
I        6.35707144       1.66449265      12.32754528      -0.14300975       0.15620444      -0.07266777
I        1.96717342       2.48644169       0.04869691      -0.30871908      -0.06686106       0.04016034
I        1.94877378       2.62751534       5.96146192      -0.18120253      -0.21863519      -0.05848793
I        2.63458474       6.92112019       5.95061229      -0.14446086       0.26800637      -0.02543909
I        7.12675073       6.03586308      12.30983113       0.28451542       0.24606596      -0.00330601
I        6.44391382       1.86093717       6.33784781      -0.02412489      -0.05676068       0.02080367
I        4.11828468       4.40181858       9.31156901       0.05430732       0.02380695      -0.01588848
I        0.35268999       0.14633241       9.31298901       0.06311465      -0.06206388       0.06912392
I        2.68036888       6.95240749      12.78880072      -0.02215184      -0.05212630       0.05497639
I        4.88987410       4.46742572       2.85356975      -0.10490519      -0.06294520       0.25954473
48
Lattice="9.01938999 0.0 0.0 0.0 8.77776784 0.0 0.0 0.0 12.79618681" Properties=species:S:1:pos:R:3:forces:R:3 config_id=O-FAPI3_al_global_rattle_05__global_rattle__sev-0.260__seed-new phase=O-FAPI3 mode=active_learning seed=4204536852 source=O-FAPI3/CONTCAR energy=-220.28934343 stress="-0.001396577387880456 -0.00026782728222918284 0.0054722844511500696 -0.00026782728222918284 -0.0002949812547907577 0.006800579529465071 0.0054722844511500696 0.006800579529465071 -0.004412824203157915" pbc="T T T"
C        4.62024412       0.38825893       3.17283653       0.27436390       1.17218768       1.34385160
C        0.08124657       4.02423578       9.60580530      -1.00662745      -2.88777339       0.14826546
C        8.94978736       4.71043146       3.34993934       0.01377034      -2.17688131      -5.59513735
C        4.36033327       8.40797286       9.58111672      11.06554154       2.87717805      -6.71662496
N        5.29837138       8.27436031       2.48443508      -5.44622860      -1.37337029      -2.20994190
N        0.64695200       4.91492888       8.87377755      -0.69503795       1.86575735      -1.88385078
N        1.17713664       5.03955817       2.99046643       0.41663044       4.57756790       6.51080613
N        5.76537546       8.12612979       9.39192945     -11.86826160      -7.83109910      14.05392766
N        3.35585003       0.82141412       3.12631497       0.46276828      -6.87227591      -6.89805382
N        7.80306897       3.61887425       9.48567227       6.42258206      -1.69545950       5.42446668
N        8.39238851       3.86471416       2.44960181       1.28328920       0.12858559       0.74630209
N        3.83979586       0.53149779       8.85812142       7.58823021       1.90335581      -4.74352264
H        5.21103960       0.85872122       3.94075118       0.33617255       0.61131799       0.46265757
H        0.83062845       3.38003689      10.18795669      -1.42930383       0.93276731      -0.00531687
H        8.16927424       5.18947709       3.96230073       1.16187421       0.33638513       0.75687446
H        3.85672985       7.92609438      10.19848603      -4.35001980      -4.46389295       5.93125909
H        6.25747311       8.00151165       2.57698721       0.88385997       0.09009876       0.39815265
H        1.63581727       5.06989440       8.88741957       1.06641534      -0.15797305       0.42361202
H        1.57985051       5.74545757       3.82103185      -0.58820902      -1.87565318      -2.60175539
H        6.14226880       7.22881036      10.04169256      -1.10359257       2.97994471      -2.00466061
H        4.57927012       7.68615656       1.86081662       2.36063995       0.97835631       0.89918763
H        0.19173924       5.45002810       8.09490092      -0.20309035      -0.48942866       0.76629630
H        1.93050230       4.70581971       2.41077984      -0.31609673      -0.91523513      -0.58081289
H        6.29345497       8.38153475       8.79178138       8.36395409       4.80613860     -10.39764983
H        2.54960612       0.17526604       2.33617027       2.60087258       2.49916417       2.92053388
H        7.25618583       3.92388492       8.83286405      -4.23939389       2.61364880      -4.95524571
H        8.97619577       3.44863199       1.67223794      -0.76328202       0.36796513       0.84329982
H        4.35342207       1.11444673       7.95477410      -1.15631181      -2.00270653       2.96416788
H        2.97572323       1.42568400       3.73636959      -1.61779205       2.81221659       2.98381124
H        7.44546468       2.93491093      10.15266109       0.00416940      -0.12535349       0.06623594
H        7.40501623       3.72001134       2.48841047      -0.95473506      -0.43490604      -0.06540354
H        2.97101241       0.69876316       8.97090023      -8.24573965       1.77659219       0.84370132
Pb       4.53921275       4.23184895      12.56740762       0.17978858      -0.33199979       0.08320869
Pb       0.03174149       0.16138743       6.26412181       0.20110078      -0.30489888      -0.33141032
Pb       0.12653320       8.50635382      12.51213334      -0.39479316       0.36387257       0.19519349
Pb       4.50719852       4.47733319       6.22079456      -0.00999356       0.17898807      -0.23179368
I        7.21532358       6.20483898       6.43279398       0.00599059       0.02897171       0.05345600
I        8.74285522       8.67976819       2.93247078       0.15257025      -0.01316746      -0.00251329
I        6.41975313       1.61001826      12.29975298      -0.13345459       0.27970612       0.01693727
I        1.78402758       2.54741488       0.05130042       0.15064660       0.03497989      -0.06022373
I        1.80776202       2.72491328       5.93343558       0.07020985       0.05673328       0.04765055
I        2.75748836       7.14037698       5.93756171       0.00411973      -0.22971904      -0.06214212
I        7.13464495       6.13423088      12.32100284      -0.06268007      -0.14377769      -0.08526624
I        6.47285100       1.81028032       6.39389562      -0.51068002       0.20242739       0.14984510
I        4.17527757       4.52286259       9.30199324      -0.01979965      -0.05301791       0.30744890
I        0.37085666       0.13249786       9.33821080       0.00803623      -0.07942084       0.14623684
I        2.73699062       6.93378958       0.09462486       0.25379950      -0.10625432       0.08535816
I        4.96402422       4.30733389       2.99869297      -0.21627277       0.08935735      -0.14141877
48
Lattice="9.01938999 0.0 0.0 0.0 8.77776784 0.0 0.0 0.0 12.79618681" Properties=species:S:1:pos:R:3:forces:R:3 config_id=O-FAPI3_al_global_rattle_06__global_rattle__sev-0.273__seed-new phase=O-FAPI3 mode=active_learning seed=4267185352 source=O-FAPI3/CONTCAR energy=-220.86096974 stress="-0.015111322644260622 0.004773083467028457 -0.008112154977963838 0.004773083467028457 -0.006056688896854985 0.00995190783150891 -0.008112154977963838 0.00995190783150891 -0.00414968929373108" pbc="T T T"
C        4.47160593       0.41962145       3.27888262      19.70057605      -8.24649535       0.95895510
C        0.04123232       3.96899606       9.59557923       4.30702987       5.03331143      -3.74480489
C        8.83708611       4.75732204       3.10887684       2.95275258       2.43576480       2.94069373
C        4.34578436       8.41303070       9.52600585       6.81868702      -3.50526985       1.79806789
N        5.05306914       8.16478673       2.49087143       1.11700286       1.91673514       2.52657241
N        0.62260281       4.96032082       8.71672125       3.26036405      -4.99092428       6.79036785
N        1.06630737       5.10510957       2.98636154       3.45151444       2.97451850       2.08824522
N        5.75861498       7.93593487       9.49783197     -10.00860772       8.30882551      -8.49449870
N        3.43258519       0.75289548       3.05749004     -22.80718016       5.74804530      -4.08162349
N        7.88008464       3.59914385       9.44809435      -3.82071181       0.68446111      -2.10956676
N        8.37390382       3.80432689       2.46804982      -2.23939452      -5.33159371      -5.59408839
N        3.86005864       0.50558328       8.78541732       0.26523063       3.44973045      -3.58121764
H        5.14380402       0.90032204       4.07191440      -0.72561637      -0.66923101      -0.85746410
H        0.67637425       3.58925113      10.35032776       0.69429855      -0.59257144       0.87591412
H        8.39379888       5.17720577       3.99648344      -1.16032483       0.49950785       0.08393201
H        3.70681677       8.03902923      10.25241582      -0.95029056      -1.26612209       1.67635305
H        6.08280297       8.09769693       2.53966444      -0.59645227      -0.06881639       0.09441705
H        1.67609768       5.15178544       8.98600050      -2.46507268      -0.08010999      -1.11320127
H        1.65017325       5.77598296       3.67643839      -2.26183098      -1.47418150      -1.29095123
H        6.19568785       7.46578429      10.08251355       4.51229140      -5.91089216       7.57654679
H        4.62563763       7.66624068       1.71844894      -0.62852993       0.30769061      -0.10479219
H        0.05983057       5.40396553       8.09529581      -1.89810082       2.00643544      -2.65703687
H        1.76758415       4.66043725       2.42714181      -0.00902045      -0.71020947      -0.99614448
H        6.28458107       8.37711786       8.74609899       0.21093838      -0.15535413       0.14092598
H        2.58954407       0.30535467       2.35879930       3.08188240       0.92103961       1.60454024
H        7.18039743       4.04367942       8.80905035       0.92191714      -0.17158184       0.16274607
H        8.99992651       3.29202897       1.60507882      -1.82360522       1.62100148       2.58406995
H        4.44002354       1.04124305       8.06412878      -0.44726940      -0.72611121       0.69130589
H        2.87565139       1.38977626       3.66885205       0.67314886       0.06548600      -0.04839465
H        7.41655122       3.03669652      10.08476504      -0.88971062      -1.89021045       1.97791051
H        7.32766513       3.65293243       2.41673301       1.18666530       0.00719831       0.21571951
H        2.89100447       0.81121190       8.84878084      -0.51186741      -0.25293918       0.26307539
Pb       4.44538683       4.24666977      12.65310420       0.50587021       0.41227865      -0.40704673
Pb       0.05980577       0.08616406       6.02806825      -0.27592663      -0.30034060       0.20926765
Pb       8.93141874       8.64755396      12.48731821       0.10000529      -0.19209310      -0.09360903
Pb       4.39523280       4.38213434       6.12085608       0.36361644       0.06952998       0.21297641
I        7.19939416       6.18980275       6.54276389      -0.21835458      -0.03900330      -0.24768947
I        8.57756101       8.70164958       2.89764058       0.29632768       0.08524411      -0.06964422
I        6.40379720       1.62747180      12.40736482      -0.17325184       0.29479310      -0.08129016
I        2.01302006       2.60398864       0.04727410      -0.81076440      -0.49740255       0.12061653
I        1.76952513       2.66445474       5.91463056       0.08464629       0.04470270      -0.17158651
I        2.63600448       6.92910261       5.90411734      -0.06261360       0.19059090      -0.12149293
I        7.13613730       6.14194513      12.38541053       0.20540103      -0.01439948      -0.00619363
I        6.27365137       1.68889678       6.60956383       0.12555664       0.18375851      -0.27666027
I        4.17151089       4.36599571       9.34851340      -0.04147815      -0.02387982      -0.10077675
I        0.39521930       0.16246419       9.20366619      -0.01720536      -0.04169756       0.26464752
I        2.70198781       6.96667075      12.76298762      -0.05373134      -0.05382187       0.01762933
I        4.79983254       4.38599182       2.88855504       0.06118856      -0.05539720       0.37427814
48
Lattice="9.01938999 0.0 0.0 0.0 8.77776784 0.0 0.0 0.0 12.79618681" Properties=species:S:1:pos:R:3:forces:R:3 config_id=O-FAPI3_al_global_rattle_07__global_rattle__sev-0.287__seed-new phase=O-FAPI3 mode=active_learning seed=1093906172 source=O-FAPI3/CONTCAR energy=-216.68565545 stress="-0.027197771178462074 0.011395582336536364 -0.007647997349931123 0.011395582336536364 -0.016138526386116642 -0.012717146933417543 -0.007647997349931123 -0.012717146933417543 -0.010658480368708175" pbc="T T T"
C        4.66328835       0.43708728       3.06432730     -14.94464733      13.93368959       7.46218186
C        0.07703849       4.08233109       9.65663137       9.32087749       3.93725437      -1.51266353
C        8.92271277       4.73500359       3.05384184      -0.50382118       3.62983414       5.55267186
C        4.28495263       8.47344482       9.63315997       4.72007935      -6.45988159       3.42366211
N        5.08067172       8.38268191       2.51102440      14.40797482     -24.71842456     -16.98805969
N        0.64455258       5.05372759       8.80910038       3.24186399      -9.67744565      11.27541363
N        1.10455707       5.21990873       3.09211422      -0.26316995      -6.12954604      -6.99793022
N        5.48122382       7.89767188       9.44230177       4.34170483       3.54699625      -3.21030757
N        3.34131961       0.67926230       2.99088473      -1.19505020       3.66231442       2.24119950
N        7.96640850       3.73330430       9.53510253     -11.43706057      -5.61369654      -0.66155689
N        8.39712369       3.79812101       2.37565009       3.53580981       0.40576525      -0.43307001
N        3.84941702       0.45610335       8.76529097      -4.30165192       6.04844363      -2.85457222
H        5.13148326       0.79042676       3.81225111       3.53444934       3.80408678       5.35383035
H        0.70757998       3.51370070      10.37360760       0.09974033       0.83025632      -0.12680023
H        8.37075109       5.23763701       3.99920404      -0.05380513      -1.28547819      -2.26734313
H        3.91832101       7.80975183      10.51293594      -1.35437845       1.89655466      -1.05832790
H        6.16477038       7.95459044       2.49389619      -2.51015449       2.09957707       0.93262174
H        1.56716366       5.14196409       8.95896318       4.14499225       1.03102095       0.07166836
H        1.57072018       5.78062692       3.65099305       2.08777101       3.86487564       4.17884309
H        6.02906130       7.33624884      10.07384106      -0.39694536      -0.40755216       0.98008686
H        4.69623880       7.60549335       1.70775094      -0.24223814       2.90680913       2.29462206
H        0.14389896       5.45299841       8.26315376      -7.75429113       6.78945018      -9.17847863
H        1.72658147       4.67465056       2.43167806      -0.07336626       1.09589901       0.68214973
H        6.35715117       8.55385418       8.80279941      -3.27848461      -2.39671917       1.91269863
H        2.60108772       0.28102629       2.42181143       0.55075480      -0.40617044      -0.33382428
H        7.30944019       3.92672242       8.71297747       1.06557548       0.28292844       1.24462371
H        8.65370225       3.25750338       1.60989172       2.12216377      -0.87612286      -1.91910805
H        4.46629459       1.06382298       7.98796382      -1.51002964      -1.87016350       2.08930213
H        2.99727281       1.47340381       3.61712935       0.40266758      -1.32500396      -1.00133386
H        7.52367307       2.86146893      10.14435534       1.25789061       2.35924108      -1.17783206
H        7.50375411       3.66357143       2.47199910      -6.94450426      -0.69685939       1.44297869
H        2.85132564       0.79971864       9.07065290       1.81542022      -0.21107445      -1.46852196
Pb       4.51551981       4.21900629      12.47511231      -0.26309052      -0.00412998       0.19090655
Pb       8.85470567       0.16726124       6.19405897       0.63478733      -0.15085501      -0.23973718
Pb       8.97296719       8.59410297      12.46270999       0.10134438       0.07187456       0.30646675
Pb       4.52141254       4.43928428       6.22388190      -0.51733690       0.64023123      -0.37328057
I        7.26618969       6.35204188       6.40127390      -0.35752110      -0.44577776      -0.04908985
I        8.69756887       8.73764185       2.89237700      -0.18978673      -0.02814007       0.10078478
I        6.38995325       1.74645102      12.19064847       0.08681212      -0.16922084      -0.06647689
I        1.67591802       2.64607795       0.07418717       0.18632117      -0.27962804      -0.21447140
I        1.87640742       2.55171045       5.92367056       0.18581017       0.29050100       0.01719446
I        2.71671810       7.07726439       5.88205224      -0.09497108      -0.03440339       0.02893472
I        7.02098684       6.06463687      12.15701894       0.19729284       0.16634739       0.22382618
I        6.32867190       1.96332886       6.45480956       0.05238022      -0.32304066       0.21921446
I        4.13990893       4.46690818       9.29159429       0.04603105      -0.15165184       0.38643158
I        0.27240308       8.73771998       9.39884681       0.04337500       0.15170037      -0.23062507
I        2.62555669       6.80770046       0.04162612       0.08007682       0.14748926       0.02261561
I        4.92049276       4.30461033       3.02251844      -0.07766185       0.06784536      -0.27151820
48
Lattice="9.01938999 0.0 0.0 0.0 8.77776784 0.0 0.0 0.0 12.79618681" Properties=species:S:1:pos:R:3:forces:R:3 config_id=O-FAPI3_al_global_rattle_08__global_rattle__sev-0.300__seed-parity phase=O-FAPI3 mode=active_learning seed=629855035 source=O-FAPI3/CONTCAR energy=-217.44820644 stress="0.002761154165257434 0.007918198303046915 -0.019859997809799523 0.007918198303046915 -0.006084083635631092 0.00546479321089342 -0.019859997809799523 0.00546479321089342 -0.02082498066495317" pbc="T T T"
C        4.65572316       0.36558192       3.22967847      -5.70398107      -2.79937624      -6.04990904
C        0.10582342       3.96525638       9.68437658      -7.67175031       9.15497833     -13.40483473
C        8.94266502       4.68841436       3.19958747       3.28344620      -1.15294897      -3.52933303
C        4.43081069       8.61453129       9.45681661       9.74129789     -17.43797718      16.60575662
N        5.19760306       8.20348062       2.42431821       1.12466201       2.40938982       3.14674774
N        0.62905862       5.01606114       8.80727948       4.13303907      -4.57254755       5.54203613
N        1.19758288       5.15071570       3.09724894      -4.61014033      -6.30277451      -4.69649330
N        5.68295222       7.99077547       9.48237520      -6.18691084       8.34192318     -12.09742724
N        3.22847874       0.70994894       3.04421694       8.75740759       1.76986913       6.44106749
N        7.81278619       3.77927040       9.38205105       3.71083450      -7.13913458       8.77006522
N        8.30154666       3.79947709       2.45203859       6.71505978      -0.60631523      -1.84228164
N        3.91184383       0.50253274       8.74419812     -10.96097623      14.95435985     -13.88304282
H        5.31013492       0.96056079       3.74725851       1.22570988       1.39235378       2.09783276
H        0.52074269       3.56340894      10.40320096       4.58895496      -4.07194940       7.01660957
H        8.36867104       5.15946046       3.86071334      -2.36922540       2.06646674       3.09271053
H        3.85327344       7.93751303      10.31307128       0.45317162       2.11080879      -1.63148983
H        6.21218657       8.05860506       2.44247472       0.17227597       0.20626453       0.35077021
H        1.73568735       4.99529373       8.90390720      -2.51651729       0.74143728      -0.71733126
H        1.44923802       5.77783972       3.69544060       2.38326945       5.03562594       4.73274698
H        6.14808883       7.65114344      10.10316621       5.48860942      -5.79002469      10.96382936
H        4.78307451       7.74382614       1.67656958      -1.84488033      -1.09026259      -1.67213332
H        0.12389476       5.46422781       8.07569026      -0.73466810       0.22752892      -0.90538917
H        1.83155643       4.75252814       2.42066362       0.39538112       0.05051846      -0.09585104
H        6.43398131       8.48697847       8.96007363      -0.68773078      -0.17975066      -0.53373320
H        2.72322370       0.40175334       2.30605956      -2.31076709      -1.09990597      -2.65136535
H        7.19300952       4.07704187       8.76416759      -2.84714953       2.35462946      -4.00026832
H        8.88997536       3.22375479       1.66069539      -2.06077856       1.55918421       2.06697373
H        4.42200325       1.06470611       7.95275998      -0.86968934      -0.99720057       1.11274379
H        3.12441942       1.42974486       3.83684653      -1.55760263      -0.89513531      -1.87767932
H        7.30943343       2.86573993      10.09874986       1.42309258       3.16912894      -2.17445331
H        7.35480420       3.79141655       2.58870852      -3.48887239      -0.66978837       0.06231009
H        2.78601453       0.80793639       8.90623367       2.78255355      -1.06094957      -0.57632503
Pb       4.37933811       4.24899211      12.58921949       0.60075070       0.28506691      -0.06320328
Pb       8.96867802       0.06370667       6.19935468       0.48613563      -0.11514688      -0.10666326
Pb       8.94368781       8.72087219      12.56691216      -0.05671063      -0.41031533       0.00598905
Pb       4.43899642       4.38601412       6.19858998      -0.15284166       0.35249642      -0.05922548
I        7.25729332       6.35325716       6.46632075      -0.33070492      -0.42810142      -0.11668786
I        8.67098304       8.67416060       2.91383800       0.05053732       0.03685056       0.11874879
I        6.38840831       1.73880374      12.31898796       0.16422621      -0.06656491      -0.21678233
I        1.94127704       2.52609605      12.65422182      -0.41478683      -0.19170945       0.25543736
I        1.81396844       2.69055578       5.80780108       0.25132449       0.13186126       0.12961711
I        2.72350357       7.12319415       5.85744172       0.13599168      -0.22921918       0.11464305
I        7.36200979       6.07793255      12.23105294      -0.06130360       0.06542900       0.16433401
I        6.45615358       1.80656047       6.23415685      -0.42610163       0.32954854       0.22672183
I        4.28187963       4.47184137       9.44324677      -0.15931332      -0.10410802      -0.51934918
I        0.34666810       8.75823274       9.38194702       0.31675807       0.23566311      -0.15481349
I        2.81257086       6.87136210      12.69037604      -0.23788629       0.35808712       0.10008014
I        4.88732179       4.26937672       2.86927029      -0.12320059       0.07173631       0.45829428
48
Lattice="9.01938999 0.0 0.0 0.0 8.77776784 0.0 0.0 0.0 12.79618681" Properties=species:S:1:pos:R:3:forces:R:3 config_id=O-FAPI3_al_global_rattle_09__global_rattle__sev-0.313__seed-new phase=O-FAPI3 mode=active_learning seed=936175226 source=O-FAPI3/CONTCAR energy=-215.47985865 stress="-0.008083923596096953 0.0014826272454368347 0.013562451016886043 0.0014826272454368347 -0.007407204721333555 -0.008982579406765988 0.013562451016886043 -0.008982579406765988 -0.00815659600217779" pbc="T T T"
C        4.79435732       0.33656850       3.15643169     -13.68588948      14.93343897      13.29885867
C        0.10869952       4.00328922       9.42397481      -1.05890053      -2.68493658       4.39070298
C        0.03383507       4.78125690       3.16842184     -28.02696023     -11.65361483      -0.68644829
C        4.46385990       8.39731779       9.61393945       1.71490329       0.11268610      -1.18056686
N        5.15193987       8.42751173       2.37494937       6.99436570     -17.34012355     -16.07854906
N        0.62914728       5.02175378       8.73275948      -0.64235661      -2.57862421       1.76634467
N        1.02190230       5.18681936       3.12486798      30.51618679       8.92134166      -2.53284190
N        5.78540798       8.02246330       9.49747112      -3.58355828       6.53580468      -5.22516371
N        3.43382301       0.91845533       3.18761216       2.35920105      -7.52825872      -7.59713092
N        7.82932225       3.45959814       9.51525181       2.14574139       6.70324365      -7.19346579
N        8.38574357       3.78489344       2.25823522      -2.00528090       9.57918072       9.48459541
N        3.84178066       0.55627655       8.90527498       1.14509812      -0.09699198      -0.95977125
H        5.26126570       0.69277128       3.97212730       2.57752104       1.26141238       2.75941819
H        0.80776908       3.47688034      10.32994676      -1.30591067       1.47668670      -2.56832412
H        8.31330704       5.18756503       3.89982680       0.11445809      -0.30946257      -0.25520168
H        3.83051482       7.89982595      10.28961420      -0.47275427      -1.00424602       1.30652434
H        6.10978628       7.93025461       2.50595750      -1.10737110       1.08439934      -0.45965571
H        1.62989351       5.13729475       8.91367402       0.17953866       0.28950284      -0.34422360
H        1.64503256       5.86217555       3.79111078      -2.02927589      -1.23388945      -1.01298141
H        6.13300769       7.32082797      10.00639543       1.86558369      -3.52918992       2.62282634
H        4.47781181       7.76524179       1.68670531       1.39509452       2.18084567       1.27345516
H        0.11384599       5.53170321       8.04930887      -0.52127595       0.66425682      -0.89562780
H        1.81692527       4.67952327       2.39830446      -2.11151416       1.63635053       1.77471162
H        6.36982918       8.54355224       8.68957542      -1.31281364      -1.66223485       2.40076538
H        2.63236417       0.26082461       2.37854881       2.88712683       2.56053337       2.85319078
H        7.14225624       4.06424520       8.76978576       1.73591663      -2.28879562       2.53458038
H        8.88820278       3.30099125       1.73804041       5.36432395      -5.99258381      -6.40306426
H        4.50167360       0.94576174       8.14959732      -1.62989923       0.11507532       0.71597273
H        2.90408772       1.45183771       3.74625349      -1.62767224       2.60314966       3.52478129
H        7.32647024       2.99179648      10.20434464      -0.38419839      -1.44056025       2.25291781
H        7.44171027       3.80651536       2.52368098      -1.63519682      -0.98135532      -0.33821256
H        2.75215168       0.68803884       8.92490625       2.13114091      -0.29519696       0.07697985
Pb       4.50876311       4.30889976      12.57703842      -0.10544453      -0.12830406      -0.21379480
Pb       0.05694861       0.02450955       6.12625224      -0.25835638       0.24968644      -0.01130403
Pb       8.89297638       8.61096102      12.51392993       0.23543438       0.05257005       0.09494964
Pb       4.44236777       4.52559406       6.04589896       0.25852136      -0.51908213       0.27775151
I        7.18462509       6.21800299       6.34583826      -0.05926979      -0.01613704       0.04775208
I        8.57808197       8.70689114       2.87892437       0.11412113      -0.07394055       0.36922224
I        6.53312416       1.69135798      12.22802793      -0.62480996       0.38065355       0.17717804
I        1.92487104       2.53368065      12.73841753      -0.02300690      -0.01735928       0.04465103
I        1.81664936       2.62392252       5.84012131      -0.03037880       0.17316489       0.12900037
I        2.68803031       6.97646560       5.94508817      -0.28089115       0.33107869      -0.22202702
I        7.09944922       6.13436526      12.14806225       0.09099227      -0.13574683       0.15375094
I        6.30309724       1.85149922       6.37088692       0.14019160      -0.19212746       0.12263054
I        4.14478978       4.46760400       9.39190872      -0.03134376       0.00979749      -0.19336834
I        0.30938366       0.16301939       9.42873538       0.22085697      -0.12762919      -0.53111921
I        2.54928584       6.92732862       0.00024146       0.51601455      -0.21199798       0.29795376
I        4.90710041       4.38754698       2.91730730      -0.14800327       0.18752964       0.15137656
48
Lattice="9.01938999 0.0 0.0 0.0 8.77776784 0.0 0.0 0.0 12.79618681" Properties=species:S:1:pos:R:3:forces:R:3 config_id=O-FAPI3_al_global_rattle_10__global_rattle__sev-0.327__seed-new phase=O-FAPI3 mode=active_learning seed=2091820721 source=O-FAPI3/CONTCAR energy=-221.47175356 stress="-0.00545609646059816 -0.0007672682674561719 -0.0017109108723801446 -0.0007672682674561719 -0.001300102743329208 -0.001958162851255107 -0.0017109108723801446 -0.001958162851255107 -0.0077604305034682484" pbc="T T T"
C        4.61286617       0.24796650       3.24814503      -6.01179039       0.31337026      -2.78605560
C        0.09859393       4.09754559       9.69106834      -4.70325409      -0.47582322      -2.19858290
C        0.01035579       4.65130547       3.18608442      -0.94345683       4.16160589       2.94872932
C        4.42169687       8.60100721       9.65177791      -0.39505870      -4.92482722       0.48618887
N        5.10982825       8.14252517       2.41551162      -0.64845482       1.65686731       1.84709707
N        0.58935138       5.07137600       8.95989192       0.51755620      -0.81156623      -0.51081898
N        1.19099475       5.10291355       3.17980201       1.82217302      -2.92563869      -4.00756560
N        5.71057257       8.18245726       9.54436940      -5.61740241      -0.02719944       3.86007184
N        3.22348047       0.61867823       3.15622913       4.19137819       2.01750331       3.34181132
N        7.74218448       3.62431971       9.39116283      14.05297211      -5.89366017      13.03174490
N        8.42913892       3.84449949       2.47111233       1.04305883      -5.14778032      -5.73697542
N        3.76641022       0.50559679       8.74031384       5.72045461       0.79674473      -1.18698450
H        5.22021223       0.80399359       3.86284070       1.40357848       0.88470395       2.06875629
H        0.76484084       3.65040039      10.47736561      -1.07238280      -0.02768782      -0.42948392
H        8.37852283       5.27429341       3.76319769      -0.71418076       0.05107946       1.26779888
H        3.74369922       7.78431983      10.34176813       1.56092414       2.77561073      -1.19669304
H        6.07547968       8.00525098       2.67290359       0.98672985      -0.93120276      -1.08492645
H        1.64565382       5.07141918       9.05155459      -0.96315120       0.80782095      -0.59818306
H        1.63890461       5.70854117       3.73334688       1.22822064       3.32815194       3.44719820
H        5.95014127       7.37612580      10.09002747       0.57469189      -0.43164137       0.49290569
H        4.48679990       7.86185964       1.65487671       0.50572302      -0.96112251      -0.48380731
H        0.01989668       5.38824051       8.08058890       1.18577709      -0.19039129       1.35859406
H        1.84363646       4.77059437       2.49126773       0.50417495      -0.55792811      -0.55407436
H        6.22940892       8.48119261       8.84331905       3.49461415       1.72521702      -4.12567131
H        2.80999736       0.45791868       2.27615321      -1.04132250      -0.26087444      -1.23429259
H        7.17738351       3.93041900       8.84686717      -8.81919066       5.44365673      -8.99992125
H        8.85956595       3.28298085       1.60982185      -0.61396147       1.32779971       2.19226651
H        4.26273923       1.20323377       8.12011708      -0.00081296      -1.15143686       0.37222702
H        2.91531443       1.53796526       3.74665376       0.77915368      -2.59486271      -1.69371476
H        7.46714332       2.93946475      10.16945161      -0.11029654       1.13204139      -1.61487296
H        7.46187690       3.74898754       2.54513456      -2.34280568      -0.14581739       0.32352696
H        2.90761611       0.82275343       8.89058816      -5.20650847       1.17580860       1.25605797
Pb       4.50772931       4.17123425      12.50365190       0.06682882       0.50382725       0.61069974
Pb       8.99418350       0.07971978       6.29155043       0.56243585      -0.22238795      -0.27692557
Pb       8.88202829       8.70001358      12.54926084       0.25597561      -0.38727685       0.24146901
Pb       4.53847677       4.34483085       6.37447843      -0.26760711       0.33302333      -0.71637667
I        7.19357206       6.16152570       6.58734760       0.01233094       0.01328887      -0.02216892
I        8.71090178       8.70341111       3.06261107      -0.21776248      -0.02839889      -0.08389594
I        6.39195744       1.74522451      12.43109381      -0.00179105      -0.08515425      -0.03062157
I        1.95669451       2.51754422       0.07987175      -0.44168031      -0.26549394       0.01040582
I        1.71677802       2.79049620       5.88001688       0.15035563      -0.15881303       0.15454794
I        2.70313337       7.06929883       5.84700809       0.14484093      -0.22771948       0.26572139
I        7.08014078       6.03366574      12.34481552       0.25976769       0.28005190      -0.05057932
I        6.47884817       1.77151471       6.39825374      -0.50773846       0.24199999       0.10958656
I        4.15881195       4.47840662       9.43044546      -0.18214337       0.00552660      -0.07707368
I        0.37655205       0.07875764       9.45384291      -0.06170751       0.00214422       0.05616341
I        2.67493217       6.93367925       0.11038016      -0.08629830      -0.02760147      -0.14184749
I        4.92410331       4.44310042       2.97919874      -0.05295744      -0.11553774       0.09854442
48
Lattice="9.01938999 0.0 0.0 0.0 8.77776784 0.0 0.0 0.0 12.79618681" Properties=species:S:1:pos:R:3:forces:R:3 config_id=O-FAPI3_al_global_rattle_11__global_rattle__sev-0.340__seed-new phase=O-FAPI3 mode=active_learning seed=3791404926 source=O-FAPI3/CONTCAR energy=-216.29379794 stress="0.017791376462456994 -0.009130550215303703 0.00629820394268482 -0.009130550215303703 -0.031972471127697535 0.009482485471803985 0.00629820394268482 0.009482485471803985 -0.030067118047164058" pbc="T T T"
C        4.52111435       0.14272668       3.24816922      -4.38264757       8.05850150       3.15212353
C        0.19192153       4.14731641       9.48814871     -14.79182487     -24.02858529      17.98271920
C        8.77693354       4.73854586       3.05591060       8.03416045       0.35588681      -0.80506006
C        4.32212812       8.35038938       9.53739446      12.14932719      -2.05986311      -0.70509691
N        4.95989433       8.06031997       2.48661094      10.89057727       2.00012897       8.29949816
N        0.53403862       4.95065307       8.89430097      13.96915354      25.01940446     -18.98585333
N        1.18744517       5.21723274       3.00842076      -6.46936507      -6.12298268      -5.63959082
N        5.73188241       7.94370741       9.54386088      -6.01793077       3.25114242      -3.13327642
N        3.24686738       0.74833192       3.11804121       4.69908290      -4.39475638      -1.54105471
N        7.89056562       3.63174474       9.49862751      -0.77077942       3.44182480      -4.33391740
N        8.35280539       3.71500740       2.33192027       3.08540505       2.58464413       0.92418810
N        4.01246874       0.57925921       8.91337241      -6.10824344       3.71160783      -3.25446605
H        5.22836513       0.81812957       3.92126617      -1.21860134      -1.88578151      -0.77523205
H        0.63771877       3.65309297      10.31254561       1.67533557      -0.52805225       0.77459704
H        8.33636286       5.20960258       3.88836321      -1.62474859       0.45427343       0.72824606
H        3.80641068       7.87353653      10.18029228      -4.32599261      -3.31440178       4.44128937
H        6.11303479       8.03621227       2.56334148      -2.75735058      -0.38539582      -0.30050807
H        1.74327807       5.16337034       9.01009009      -3.31255171      -0.21833792      -0.69840637
H        1.56078424       5.72153920       3.67373750       1.94735979       3.60876356       4.74805325
H        6.26370109       7.43738040      10.12814373       1.25056347      -3.02819024       3.48689898
H        4.66661119       7.70795298       1.76930201      -5.06956116      -5.24442190     -10.42708613
H        8.99578201       5.52815330       8.04564417       1.10977067      -1.40155283       1.99908489
H        1.88588906       4.68863811       2.43710851      -0.87585878       0.47095363       0.44636186
H        6.36223846       8.45557987       8.97051429       0.28351383       0.94760455      -0.97092469
H        2.61796146       0.45869701       2.42046220      -0.75445494      -0.99659792      -1.33564851
H        7.18652421       4.19576697       8.74364827       2.15406385      -2.17593008       2.71301717
H        8.98128289       3.35711296       1.55803568      -1.07821791      -0.08381005       0.42743875
H        4.41903109       0.97023521       8.05841349       0.83519326       0.16939382       0.14832180
H        2.83980184       1.42934889       3.62356839      -0.78207723       3.08667728       3.06369904
H        7.44211415       3.04092846      10.18425398       0.26304605      -0.23153605       0.53209069
H        7.39893761       3.75131040       2.50816471      -3.20448395      -1.44241772      -0.78851537
H        2.90000275       0.64215586       8.90093733       1.87774546       0.45420864      -0.06206305
Pb       4.48511815       4.48654115      12.48293948       0.50831135      -0.38835263       0.42140672
Pb       0.10316441       0.12353207       6.23852444      -0.36244619       0.01249385      -0.04518086
Pb       0.16478218       8.70027832      12.65446264      -0.79978469       0.03863520      -0.25288370
Pb       4.45098436       4.64313082       6.27821131       0.46260111      -0.64851386      -0.39424277
I        7.28296630       6.29684543       6.48819020      -0.14933903      -0.27273676      -0.00692233
I        8.62920369       8.76786230       2.89516606      -0.33059127      -0.05592799       0.33508879
I        6.41507703       1.77010289      12.29317203      -0.16527505       0.11063422       0.07776071
I        1.86340480       2.43786974       0.11975798       0.27635849       0.54312790      -0.02847103
I        1.76146396       2.58585939       5.94031008       0.40989225       0.58023376       0.05683081
I        2.71384949       6.96280125       5.82776531      -0.36693437       0.63398169       0.11973883
I        7.26650880       6.12921517      12.41175622      -0.24025722      -0.14895776      -0.00770988
I        6.37598789       1.94515590       6.34201655       0.04765567      -0.23047623       0.03372020
I        4.21853087       4.43929833       9.37928746      -0.49808374       0.06883769       0.02649207
I        0.44566114       0.02909251       9.37749919       0.17424576      -0.02161825      -0.10800688
I        2.60227494       6.95045198       0.24485465       0.24588741      -0.20697192      -0.29162860
I        4.79741579       4.42663552       3.01284555       0.10815112      -0.08679119      -0.04691998
48
Lattice="9.01938999 0.0 0.0 0.0 8.77776784 0.0 0.0 0.0 12.79618681" Properties=species:S:1:pos:R:3:forces:R:3 config_id=O-FAPI3_al_global_rattle_12__global_rattle__sev-0.353__seed-new phase=O-FAPI3 mode=active_learning seed=493801276 source=O-FAPI3/CONTCAR energy=-217.69604407 stress="-0.015260639690143208 -0.0041847578056982224 6.874542330108629e-05 -0.0041847578056982224 2.3486486765242408e-06 0.01381863319098059 6.874542330108629e-05 0.01381863319098059 -0.014297705017416769" pbc="T T T"
C        4.59766895       0.34965018       3.17863282      -0.46572844      -2.73779630      -3.08555681
C        0.16640937       4.14321632       9.51421954     -12.65488571     -15.33377509      11.82052069
C        8.97421953       4.95067440       3.15074634      -0.95468146      -7.01138347      -4.54758633
C        4.39419927       8.36992966       9.56702889       0.34212389       0.13373843       0.23153713
N        5.30322399       8.09878283       2.42463159      -5.30259631       6.11507778       5.60556596
N        0.60274247       4.90358668       8.82137909      12.16561398      10.55100337      -6.18979341
N        1.25784350       5.03806235       3.02123268      -2.83724347       4.89419103       5.15872509
N        5.73423322       8.04826546       9.42853832      -3.45818247      -2.12914408       2.86700540
N        3.36433547       0.86115275       3.10266378      -1.80835949      -3.85916959      -3.40216740
N        7.84007264       3.62567263       9.49463369       5.59472905       2.45491482      -0.87698156
N        8.22756079       3.90565253       2.41315648      16.60678337       6.37267365       1.28361811
N        3.70974726       0.50503291       8.86071764      12.20525493      -1.35355894      -3.09945714
H        5.12655444       0.82855255       3.87764026       2.63226260       1.53508188       2.85955789
H        0.50310978       3.57433322      10.33824560       2.29899149       0.00439451       0.96119115
H        8.55618019       5.23082678       4.03487750      -1.78820360       1.71981978       2.22285919
H        3.81329445       7.83647873      10.41071757       0.92296189       0.48015559      -1.20062381
H        6.23015220       7.96566825       2.57174986       3.63586934      -0.42431168       0.50541037
H        1.59310676       5.28623697       9.02771760      -1.00953741      -0.72837499      -0.55119550
H        1.51022659       5.94214189       3.73636678       0.72575500      -2.72878044      -2.37781785
H        6.10001323       7.24206470      10.06040737      -0.85171301       1.65506751      -1.09813398
H        4.76546099       7.83651208       1.71605029      -2.25595086      -2.33189852      -4.37662358
H        0.14419741       5.39749377       8.20056953      -3.28298381       3.31686312      -4.67937642
H        1.69531070       4.67751466       2.25285122       2.20918321      -0.92572202      -2.64248766
H        6.43366698       8.48771686       8.90397425       0.90375622       1.12963774      -1.32388863
H        2.62284718       0.32010948       2.45558377       2.02375985       1.30465362       1.18535492
H        7.23323780       4.01712307       8.89405337      -2.75842582       1.84417159      -2.93120865
H        8.67688028       3.20941473       1.84369814       1.26902426       0.17488826      -0.57181638
H        4.49252614       1.10115834       8.00315431      -2.71606395      -1.69028378       2.46230089
H        2.75681587       1.39747928       3.75389934       1.41321558       0.25157518       0.56580353
H        7.41311267       2.97936041      10.06282329      -0.25262228      -2.02637476       2.30858924
H        7.42186923       3.70056718       2.44765295     -15.02834209      -2.45141657       1.72163939
H        2.85259278       0.76872057       8.96595847      -6.85564481       1.85412963       1.09963085
Pb       4.62106011       4.23305642      12.59340257      -0.49125513       0.09911847       0.06403034
Pb       8.98504848       0.31922600       6.21978494       0.27950044      -0.60372713      -0.05517586
Pb       8.90339261       8.68198168      12.52956674       0.46444684      -0.11520774       0.14753728
Pb       4.50071394       4.48313380       6.18033775       0.19012121       0.44432017      -0.05301212
I        7.18066350       6.30028518       6.40109334       0.10489873      -0.07604186       0.08343149
I        8.69620243       8.56560542       3.08612893       0.21525458       0.09410323      -0.19706482
I        6.49273767       1.73717591      12.36108831      -0.25882241      -0.06003135       0.02454366
I        1.74415530       2.58354198       0.12900348       0.00785060      -0.15030204      -0.08774700
I        2.03051624       2.63312039       5.87732673      -0.30140172       0.03031939       0.02392337
I        2.69220214       7.10321086       6.03336459      -0.11843075      -0.22891657      -0.21619939
I        7.10762683       5.99093373      12.36288540       0.30095881       0.34677839      -0.14959560
I        6.32612086       1.71213135       6.44481036      -0.59697869       0.31166553       0.19529464
I        4.09609256       4.43992954       9.36146160      -0.04930675       0.00669711      -0.01665722
I        0.36263982       0.10773595       9.37552372      -0.20346838      -0.12956520       0.16351610
I        2.77376421       6.96703801       0.02482204      -0.14423658      -0.02154515       0.01019017
I        4.80769934       4.38266856       2.93849151      -0.06725048      -0.00771251       0.15839027
48
Lattice="9.01938999 0.0 0.0 0.0 8.77776784 0.0 0.0 0.0 12.79618681" Properties=species:S:1:pos:R:3:forces:R:3 config_id=O-FAPI3_al_global_rattle_13__global_rattle__sev-0.367__seed-parity phase=O-FAPI3 mode=active_learning seed=2252567379 source=O-FAPI3/CONTCAR energy=-217.75589354 stress="0.008614331828852012 -0.003963369916625862 0.005784035118033848 -0.003963369916625862 -0.008421053967984602 0.011427922934524947 0.005784035118033848 0.011427922934524947 -0.018475329495957656" pbc="T T T"
C        4.46137010       0.42380889       3.15898197       3.59616518       0.27531908       2.61656506
C        8.98316136       4.04042444       9.44938663      -1.30714021      -7.50572100       7.93764345
C        8.84270961       4.77636347       3.21250061       1.49560552       1.27045188       0.97348441
C        4.53310978       8.24981802       9.62133117      -2.56148875       7.62067815      -6.96884927
N        5.08250112       8.23002178       2.52018481      -0.30269664      -1.98674559      -4.19838941
N        0.62431767       4.86051207       8.85092983      -0.60376339       6.78035315      -6.77489084
N        1.05189168       5.22038475       3.13371679       1.83442997      -2.67256101      -3.66831661
N        5.75584837       7.91534987       9.50740198      -4.50825890      10.17314130     -17.71184098
N        3.17974364       0.80412982       3.10287939       2.11130418       1.37863207       1.60410576
N        7.67786757       3.59149033       9.45248472       9.93537118       4.41484118      -1.60151870
N        8.38939083       3.84565482       2.46376066      -5.20802916       0.78068175       3.48093959
N        3.89515696       0.54331574       8.79453115      -2.76541324      -4.26346952       5.00075590
H        5.41075974       0.80832401       3.99708448      -3.45517458      -0.09841765      -1.78057110
H        0.75612947       3.49068417      10.46794992      -2.35468748       0.99672426      -2.63683394
H        8.17393131       5.19968168       3.91325422      -0.65209841       0.61108479       1.05918797
H        3.81544955       8.01320319      10.28191141      -1.79999593      -1.90343531       2.98201300
H        6.21092891       8.05531366       2.57771352      -2.95538590       0.81146128       0.06070432
H        1.58913164       5.12590621       8.90779378       0.99652552      -0.41741986       0.73489193
H        1.57953195       5.78794548       3.74935478       0.12584916       1.06394056       1.25348045
H        5.97604965       7.54290374      10.16672218       7.48920033     -11.31761213      18.23184151
H        4.52558878       7.73256988       1.49546962       1.70951542       1.45393125       3.40601683
H        0.10578274       5.52502491       8.03892822       1.12151818      -1.78711529       1.88947010
H        1.69179115       4.70289663       2.37359719      -1.51462248       1.45041818       1.98000097
H        6.49912250       8.29647870       8.86014706      -1.27018962      -0.31778217       0.65196146
H        2.61777575       0.33092843       2.41694735      -0.88162248       0.13368590      -0.22333144
H        7.15161286       4.08019642       8.91290714      -5.21715622       3.41151616      -4.37647641
H        8.90587276       3.55778757       1.75485140       2.71626731      -2.37861483      -4.54547048
H        4.30602111       1.07322906       8.10008670       1.70277564       1.15678374      -1.97355947
H        2.86429913       1.62063199       3.76993808       0.26151275      -1.85554333      -1.48359976
H        7.43661043       2.91565339       9.98295103      -2.28032351      -5.93488049       4.84810629
H        7.34191369       3.71027521       2.56998680       1.22567840      -0.28529383      -0.62125015
H        2.76701311       0.76767408       8.94093156       3.55841971      -1.10219509      -0.16809275
Pb       4.56579641       4.41558238      12.58148586       0.08580498      -0.50906144      -0.17817602
Pb       0.09332345       0.10923160       6.15193329      -0.22535259       0.19194970      -0.24485047
Pb       0.03209072       8.64289410      12.40924548      -0.27612323       0.15137642       1.20408043
Pb       4.56360966       4.53464033       6.14499392      -0.12947122      -0.09638188       0.38088192
I        7.16337198       6.33590000       6.56354042       0.13592765      -0.01657752       0.02739578
I        8.67625623       8.65117794       3.01925375      -0.22318272       0.06119799       0.18535681
I        6.51427138       1.58604504      12.27085228      -0.30557842       0.15375378       0.09726592
I        1.77656260       2.58224427      12.78364911       0.10574705       0.02481946      -0.01367146
I        1.83861050       2.72904032       5.93250197       0.04788015       0.04568081      -0.04357974
I        2.56432793       7.13022681       5.85391214       0.20330916      -0.17080771       0.11785591
I        7.19082448       5.97856480      12.24364465       0.16646573       0.12592854       0.14345527
I        6.28660366       1.92502672       6.58108924       0.19943133      -0.11014217      -0.27405451
I        4.29651558       4.40733259       9.33519103      -0.37959997       0.06877222       0.41702818
I        0.36298697       8.67599980       9.57804180       0.18136193       0.03827553      -1.33165541
I        2.67286015       6.80016720      12.71562112       0.19282678       0.16109488       0.23020967
I        4.98070991       4.52387554       3.17068370      -0.02153812      -0.07671621      -0.69572001
48
Lattice="9.01938999 0.0 0.0 0.0 8.77776784 0.0 0.0 0.0 12.79618681" Properties=species:S:1:pos:R:3:forces:R:3 config_id=O-FAPI3_al_global_rattle_14__global_rattle__sev-0.380__seed-new phase=O-FAPI3 mode=active_learning seed=294968988 source=O-FAPI3/CONTCAR energy=-219.41467544 stress="-0.03763106582462497 0.0009765968056747217 0.00859895856745234 0.0009765968056747217 -0.011427783336931839 0.0027231035413695635 0.00859895856745234 0.0027231035413695635 -0.008848880888625685" pbc="T T T"
C        4.57585844       0.40788979       3.15667763       7.30208649      -4.88643950      -1.95365738
C        0.07093299       4.12966994       9.63238874      -4.39247680      -3.50311409      -0.79305394
C        0.10856730       4.64048169       3.10720246     -18.98811325      -2.55277647       4.84612811
C        4.45072153       8.44518331       9.62828001      -1.17910818       0.18280429      -1.34787892
N        5.24745738       8.18324304       2.43336524      -8.23667217       1.18297036      -1.49096118
N        0.59834859       4.85697981       8.77011948       5.84880536       4.34129659      -1.40273647
N        1.16149585       5.06817369       3.00816099       8.45753117       7.64077861       3.79097453
N        5.58033492       7.98151422       9.40729716       9.73253668      -1.66160909       0.82085168
N        3.42046512       0.75060387       3.01756171      -8.38931855       2.49377024       0.22046688
N        7.79193047       3.74989314       9.38167919       1.46325682      -2.82481594       4.59048685
N        8.42248550       3.83211291       2.34388573       2.24986311       5.59413862       4.97328989
N        3.95438901       0.48402771       8.79322223      -8.83217547      -0.20322365       2.48012052
H        5.17891885       0.88826104       3.86628800       0.94189058       0.75250914       1.34421454
H        0.70388790       3.51928872      10.26726349      -0.21556790       0.08591946       0.76223269
H        8.33169334       5.12730899       3.97514221       2.36709267      -1.04788243      -1.99447245
H        3.92303617       7.84111997      10.28328713      -1.97486929      -0.45290746       1.68114650
H        6.17956145       8.12143500       2.60625977       3.66991141      -0.64214033       0.15954888
H        1.68142481       5.17058768       8.86169834      -2.46338778      -1.00675918      -0.12649148
H        1.47523921       5.78478539       3.63123458       0.96908809       0.68250741       0.61386366
H        6.03114793       7.40487825      10.25985744      -0.73104278       1.16630795      -2.20715062
H        4.58699324       7.62007278       1.59246242       2.64093976       1.77984729       2.72569449
H        0.06773300       5.45355711       8.15577251      -0.55634282       0.14693740      -0.68102381
H        1.66379668       4.66294997       2.40468924       6.50995158      -3.25767785      -6.29857008
H        6.36963004       8.53537751       8.76579578      -2.50001064      -1.74886640       1.85029694
H        2.73549584       0.36908627       2.35443964       0.46730663      -0.29346208      -0.13826906
H        7.09751501       4.00617377       8.73127704      -0.36057105       1.13389116      -1.36502176
H        8.86857966       3.33477784       1.78330884       4.59392460      -5.97632159      -7.03893144
H        4.27255539       1.12335380       8.19521240       2.76029571       2.88872503      -3.12164159
H        2.86637053       1.31838088       3.74780567       1.30482886      -0.38933385      -0.80061064
H        7.40915848       2.97129978      10.02250122       0.70715316       1.48243754      -0.89621875
H        7.53643334       3.71514644       2.50610823      -6.34818621      -1.01616616       1.27837453
H        2.83429433       0.59429807       8.87345227       2.68752497      -0.17130442      -0.04990868
Pb       4.49961907       4.19828768      12.58465791       0.58145223       0.16630620      -0.09753247
Pb       0.03100415       8.75033521       6.25891504      -0.01639270       0.91862063      -0.21629676
Pb       0.12207140       8.64652985      12.57188130      -0.68118201       0.17050038       0.12591552
Pb       4.58633870       4.62318774       6.09094730      -0.17726115      -0.25757315       0.19034994
I        7.32963551       6.30697656       6.45489657      -0.48523326      -0.44409358      -0.09152751
I        8.70807077       8.74960622       2.91172714       0.15282755       0.04332252       0.19647628
I        6.26660614       1.66416954      12.22255602      -0.05028384       0.13644942       0.00811098
I        1.92280136       2.72939486       0.06578520      -0.38545026      -0.41079201      -0.03357979
I        1.81591320       2.66922185       5.93071959       0.19218698       0.02948739      -0.11715901
I        2.47441435       7.06494480       5.84026181       0.33706623      -0.14772956      -0.09840472
I        7.22484012       6.09426219      12.35190960       0.02540256       0.22725394      -0.08957153
I        6.23093229       1.95086048       6.47063345       0.20114770      -0.06760225      -0.06389865
I        4.08784875       4.59129293       9.12234732      -0.03851709      -0.03781112       0.75048722
I        0.33094631       0.04795602       9.43494972       0.07611943       0.03848544      -0.22900715
I        2.56624284       6.97977508      12.78413331       0.62724847      -0.28521025       0.16971496
I        4.75541303       4.29146220       3.08339694       0.13472441       0.00034541      -0.83516977
48
Lattice="9.01938999 0.0 0.0 0.0 8.77776784 0.0 0.0 0.0 12.79618681" Properties=species:S:1:pos:R:3:forces:R:3 config_id=O-FAPI3_al_global_rattle_15__global_rattle__sev-0.393__seed-new phase=O-FAPI3 mode=active_learning seed=757039206 source=O-FAPI3/CONTCAR energy=-217.83199405 stress="-0.026854551459199523 -0.005798046038995103 -0.009128933520885391 -0.005798046038995103 0.002793766112855265 -0.009248411178663481 -0.009128933520885391 -0.009248411178663481 -0.008811387581570683" pbc="T T T"
C        4.62179402       0.42402579       3.24971372      -3.73910806      -6.49744338      -7.93383784
C        0.08035420       3.94812156       9.62928515      -3.26726262      11.77980671     -14.50118520
C        8.81090309       4.97026787       3.22451610       7.80488360      -6.69233256      -9.98531753
C        4.50742509       8.27031551       9.44835334     -10.68554683       6.63277438      -0.91634196
N        5.06016568       8.16686425       2.40047993       5.53983067       4.14163161       6.14142925
N        0.62737632       5.09490559       8.79217307      -2.76229891      -4.06836305       2.70946774
N        1.10076126       5.17416568       3.13567743       1.24170218      -1.42762765      -3.16964069
N        5.68556910       8.14744695       9.36352537       8.96611371      -5.47528469       3.65822291
N        3.35421914       0.71630869       3.11274231       4.90611333       3.24878222       4.14066617
N        7.92135863       3.65428675       9.52210173      -9.83716240      -2.61741747       0.38650180
N        8.37132842       3.98471968       2.41978285       1.93820105       1.04609337       0.07808052
N        3.78445396       0.60744787       8.95044719       6.35165509       0.25158604      -3.95684954
H        5.15904039       0.78808985       3.96077095       3.79699625       2.38325432       4.34909597
H        0.54545050       3.64559474      10.28703603       9.13513193      -5.53900986      11.53096886
H        8.39896049       5.27999475       3.97952261      -5.38631474       3.78144890       7.78554805
H        3.78097798       7.99041163      10.14667632      -0.17341731      -2.41093634       1.79606637
H        6.16051638       8.02059302       2.56033873      -2.74680078      -0.04404759      -0.91927093
H        1.60274533       5.10594522       9.00531967       1.04046864       0.84407080      -0.73888394
H        1.51931336       5.79643428       3.73962366       1.17551513       2.02222164       2.06129465
H        6.09700265       7.36566981      10.28377261      -0.50828809       2.17070188      -2.91107998
H        4.56919248       7.76510398       1.68099296      -1.73292649      -1.14612882      -2.31266592
H        0.04139566       5.57414047       8.02052961       1.20831465      -1.02010976       1.27334909
H        1.89193737       4.79150556       2.39492933      -2.97560405       0.72801104       1.93761969
H        6.37607511       8.53945250       8.75384069       0.39199778       0.54692004      -0.54570178
H        2.87100027       0.23999005       2.51234561      -4.25681386      -3.21589272      -4.36016336
H        7.11787403       4.04759562       8.87500381       2.37113114      -0.39818606       0.90178329
H        8.90003343       3.37892010       1.72680165      -0.03458132       1.29006957       0.91738158
H        4.31025184       1.11980267       8.04313906      -1.66939529      -1.32049549       2.86391493
H        3.00770653       1.27982111       3.83284414      -1.59113721       1.27771680       1.05430933
H        7.33268704       3.04595215      10.28925181       2.03925868       0.97996525      -1.48708727
H        7.45085466       3.77072656       2.50665617      -3.70655583      -0.95860358       0.22409692
H        2.81758519       0.73793500       8.93708042      -2.20813995      -0.49057392       0.23821528
Pb       4.50759754       4.45461457      12.52786216      -0.19170461      -0.34996122       0.09233206
Pb       0.04955045       0.26575693       6.16987930      -0.19813583      -0.94861552       0.22241363
Pb       8.96047245       8.68549919      12.62926887       0.20523417       0.36415100      -0.14560444
Pb       4.53769073       4.37632162       6.20882961      -0.09093622       0.38050107      -0.27862073
I        7.12483655       6.14858964       6.46521939      -0.03414376       0.12008457      -0.01472853
I        8.67878193       8.72321393       3.05952374      -0.15415776       0.00813392      -0.38854361
I        6.42193348       1.75515725      12.32023418      -0.10216230       0.17677398      -0.08244568
I        1.78396255       2.65822314       0.01170160       0.09444911      -0.01913792       0.08439512
I        1.68227534       2.62301410       6.04878578       0.56891743       0.66334355      -0.17270594
I        2.67932705       6.87332200       5.77430489      -0.10188766       0.36591944       0.21349764
I        7.13180213       6.20754999      12.30868703      -0.16873659      -0.02249422      -0.31239023
I        6.44598945       1.92148173       6.52154910      -0.03651739      -0.30049979       0.01020133
I        4.24641584       4.50544135       9.22039298       0.00166917      -0.00784209       0.91872954
I        0.40021144       0.11390646       9.33765865      -0.30527162      -0.10031825       0.32485460
I        2.72930024       7.03764401       0.02448064      -0.07928220      -0.07771238      -0.06573260
I        4.82068437       4.34426960       3.11568287      -0.03329403      -0.05492778      -0.71563863
48
Lattice="9.01938999 0.0 0.0 0.0 8.77776784 0.0 0.0 0.0 12.79618681" Properties=species:S:1:pos:R:3:forces:R:3 config_id=O-FAPI3_al_global_rattle_16__global_rattle__sev-0.407__seed-new phase=O-FAPI3 mode=active_learning seed=3440528164 source=O-FAPI3/CONTCAR energy=-216.73963703 stress="0.006230927065341434 0.01588891318192427 -0.005644565750487825 0.01588891318192427 -0.006175478103693473 0.009826996471923553 -0.005644565750487825 0.009826996471923553 0.004786601102798966" pbc="T T T"
C        4.37166496       0.29552620       3.05227495      22.99811794      -4.19551842       3.49665123
C        0.06491895       4.02505422       9.65685620      -3.71093817       1.31166455      -3.23215676
C        9.00615647       4.68561935       3.23055782      -0.22621546       0.04322376      -0.39845371
C        4.54788688       8.46730565       9.54400471      -0.37529562      -5.96326284       4.61235575
N        5.25694992       8.26544017       2.39394748     -11.04294112       1.06552304      -3.13121011
N        0.61589915       4.95157079       8.76750548       2.56926330      -3.65425063       5.73223036
N        1.29357778       5.00374110       3.18422488      -0.35322565       0.26274973      -0.04470883
N        5.79708628       7.97571107       9.40088038      -4.39920293      10.46370725      -9.86009871
N        3.40257155       0.82509692       3.27148886     -13.94602047      -2.66684527      -6.59712281
N        7.69945322       3.63952044       9.54666005       8.08926603       2.44485829       1.36536613
N        8.45665284       3.76559043       2.38516802      -2.08479263       1.81696482       2.62671286
N        3.87607175       0.54325377       8.96791782      -1.38251584       5.91175376      -7.17992900
H        5.32251611       0.87872645       4.07742316      -1.74791911      -1.11407807      -2.03802795
H        0.58868025       3.50392982      10.45656490       0.53693458       0.39137653       0.00738928
H        8.35767793       5.32091345       4.07129852       1.29277958      -1.90767490      -2.11205211
H        3.75711592       7.89992233      10.30150864       2.59413226       0.77366912      -1.00756989
H        6.14548340       7.97093868       2.51155455       3.84907196      -0.62854070       1.34577783
H        1.72715970       5.09966262       9.10662682      -3.08827015       0.14953802      -1.92451439
H        1.51390425       5.78695008       3.88602970       0.56679474      -1.31973556      -1.29988357
H        6.01217898       7.39861549       9.99340897       3.89855890      -8.34792372       8.17538560
H        4.63322330       7.79131562       1.62618664       2.01928169       0.09965863       0.82051862
H        9.01253787       5.34807064       8.08387124       0.04993658       0.81332928      -0.86682161
H        2.01990998       4.56954495       2.46519435      -1.69658719       1.26293647       1.95439304
H        6.42460547       8.41632446       8.64263120      -0.85862686      -1.17115728       1.79618795
H        2.67174219       0.18301795       2.49784522       0.00954646       2.57285167       2.09151559
H        7.28418238       3.94312333       8.74746435      -2.33345274       0.59471394      -2.53582233
H        9.01782350       3.37727225       1.60633617      -0.45255686      -0.03302509       0.26754216
H        4.36935680       1.03390598       7.98995261      -1.47191552      -1.11600089       3.01245606
H        3.05147195       1.49811024       3.77895812      -2.35316311       4.70907896       3.90547593
H        7.50191875       2.97390722      10.21424197      -1.67387143      -2.09194728       1.47004606
H        7.36047009       3.63476543       2.53238264       2.63655602       0.09179968      -0.80952280
H        2.79716863       0.68347370       8.97472565       1.83220823      -0.60463728       0.51824294
Pb       4.61040271       4.18890513      12.55496385       0.29860102       0.20649327       0.03426100
Pb       0.00299272       0.10901637       6.11844464       0.39296951      -0.09944493      -0.05914217
Pb       0.16209125       0.02331972      12.58566753      -0.44927481      -0.65736832      -0.06421098
Pb       4.64326792       4.35280291       6.23915581      -0.64443287       0.56030165      -0.23634123
I        7.20399387       6.14095228       6.39601722       0.13185303       0.20466853       0.00693224
I        8.62238305       0.06552639       2.89875270       0.19101556      -0.11009844       0.46328042
I        6.46956623       1.68631743      12.37815356      -0.14308396      -0.00869736      -0.03437638
I        1.80005017       2.47532658       0.16930558       0.43747652       0.35357269      -0.12794876
I        1.89465744       2.64614352       6.03227128      -0.06615665      -0.13756504      -0.01329577
I        2.64114986       7.06237949       6.03949767      -0.14305710       0.06026882      -0.07382403
I        7.10470013       6.03014296      12.40001162       0.00731988       0.12280245       0.01228979
I        6.39686688       1.98719509       6.53420388       0.24210719      -0.68077145       0.01269607
I        4.28711223       4.30523197       9.37713168      -0.45260620       0.15860623       0.00576566
I        0.29833761       8.76789645       9.43352576       0.21015157       0.08833055      -0.32365259
I        2.62760247       6.81809983       0.03878217       0.07747560       0.09323469       0.08138124
I        4.80998404       4.40639855       2.93785836       0.16470427      -0.11913289       0.15583268
48
Lattice="9.01938999 0.0 0.0 0.0 8.77776784 0.0 0.0 0.0 12.79618681" Properties=species:S:1:pos:R:3:forces:R:3 config_id=O-FAPI3_al_global_rattle_17__global_rattle__sev-0.420__seed-new phase=O-FAPI3 mode=active_learning seed=2917967121 source=O-FAPI3/CONTCAR energy=-216.5648229 stress="-0.02958157604143215 0.0009116704681851267 -0.0068047695980959855 0.0009116704681851267 0.00015860567224674363 -0.006486019053761492 -0.0068047695980959855 -0.006486019053761492 0.0009680878124569874" pbc="T T T"
C        4.68815535       0.15572603       3.25412917      -6.32800033      12.47442868       5.99862274
C        8.99253385       3.89553738       9.75270706      24.91690985      11.43122264      -2.08007503
C        8.99642870       4.68230951       3.23191883       1.03152898       2.52448857      -0.17728950
C        4.45124809       8.48534748       9.50107337      -0.20139531      -2.29629279       4.77609322
N        5.17948942       8.08757784       2.57925009      -7.93746635      -6.62770455      -7.22767591
N        0.74570422       4.98540654       8.81040815      -9.07677732      -3.69321044       3.06348868
N        1.26835623       5.22580195       3.18603400      -6.92920122     -10.50784456     -11.62924036
N        5.74962499       8.19160070       9.64467833      -1.03429313       3.90827784      -5.97447357
N        3.41781937       0.84180005       2.98317797       4.13403285      -3.08553304      -0.51406691
N        7.96730115       3.63817375       9.52402295     -24.87333628      -6.10130021      -4.96557799
N        8.48009893       3.73760006       2.40396536      -0.07894173       2.18153792       1.81638950
N        3.85524445       0.58318111       8.75528141       1.85584209      -0.28155156      -0.61294509
H        5.42910951       1.01969942       4.01605098      -1.94490156      -3.02732459      -1.70085417
H        0.76872008       3.56114164      10.29669868       1.29054328      -1.53653853       2.41616732
H        8.29098144       5.34660282       3.84725252       0.62643237      -1.59735681      -0.26971554
H        3.83519931       7.98327311      10.41108188       0.77010021       1.07663554      -2.16415468
H        6.04487941       8.16410189       2.59063255      11.27026215      -0.45753511      -0.26378001
H        1.64828838       5.09197496       8.79707273       6.51630394       0.33448372       0.48751517
H        1.69048749       5.69723479       3.79152551       4.62358795       5.40703804       6.93004892
H        6.13687746       7.48464824      10.15623891       0.78654993      -2.65103205       2.12352522
H        4.66629217       7.75753622       1.60821439       1.03764035       0.32076525       2.27479300
H        0.19823474       5.51961385       8.16323588      -0.48030284       0.09059977      -0.34443185
H        1.75945940       4.64830032       2.27397350      -0.49016736       2.40041440       3.40630917
H        6.31749471       8.46372880       8.76733324      -0.46146731      -0.40635605       1.83109385
H        2.69724930       0.42507535       2.43472560      -0.25799418      -1.09262446      -1.07241796
H        7.22265950       3.94340966       8.79159456       1.67752461       0.26145488       0.71645933
H        0.01695366       3.43910987       1.57183701      -0.51373976      -0.26227515       0.42387227
H        4.41083238       1.08480948       8.03706497      -0.75188130       0.06407465       0.17283883
H        2.93255472       1.37454938       3.63545963      -0.18041661       1.49907677       2.39090861
H        7.45236496       2.96395042      10.08757905      -0.22900608      -0.76542921       0.74805872
H        7.40954045       3.68212307       2.50763610       1.59590124      -0.18412052      -0.64976241
H        2.88918120       0.71621696       8.98257700      -1.05361253       0.50545312      -0.36978226
Pb       4.47634598       4.35415407      12.63089156       0.15968325       0.00358036      -0.39170501
Pb       8.98350229       0.01079183       6.14246961       0.30743096      -0.06238080      -0.07253971
Pb       8.96017075       8.75991623      12.58756878      -0.01030790      -0.24937538       0.15481494
Pb       4.52751614       4.52045774       6.01349045      -0.36920830       0.01238789       0.40790862
I        7.16618829       5.97712911       6.54629526       0.41625562       0.63804947      -0.00632110
I        8.63398406       8.71769877       2.95479398       0.06479427       0.02142129       0.51469936
I        6.34929789       1.58281456      12.38543715      -0.20592321       0.39635119       0.02814462
I        1.84206880       2.57104410      12.74616357       0.02377134       0.12615403       0.22923442
I        2.03432431       2.71814711       5.92676775      -0.48146176      -0.48801445      -0.02538896
I        2.69658141       7.16187777       5.93292655       0.20645635      -0.16600930       0.02114277
I        7.15971327       6.09781183      12.25918907       0.05132673      -0.09166640       0.07049553
I        6.55491455       1.85913930       6.45099233      -0.32379586       0.12702455       0.06350895
I        4.12174812       4.24623141       9.31576680       0.41537868       0.00172536       0.20750417
I        0.38821294       0.09214216       9.61447843       0.06175845       0.03436266      -0.73455137
I        2.77030735       7.03450666      12.77698344       0.22650076      -0.07918163       0.17037237
I        4.97194108       4.54670072       2.96407058       0.14708202      -0.13035101      -0.19726090
48
Lattice="9.01938999 0.0 0.0 0.0 8.77776784 0.0 0.0 0.0 12.79618681" Properties=species:S:1:pos:R:3:forces:R:3 config_id=O-FAPI3_al_global_rattle_18__global_rattle__sev-0.433__seed-parity phase=O-FAPI3 mode=active_learning seed=3081827767 source=O-FAPI3/CONTCAR energy=-206.56230476 stress="-0.02875360625784011 -0.0057422504301718 -0.013054378904590743 -0.0057422504301718 -0.012581636873427034 -0.0004200069463402821 -0.013054378904590743 -0.0004200069463402821 -0.023235946509699564" pbc="T T T"
C        4.55723764       0.39403014       3.04659895       4.39100140      -1.96935031       2.96072213
C        0.03896331       3.95471007       9.57835966      -0.00840843       5.71034395      -3.55871931
C        8.81352115       4.65443922       3.01343481       4.49503534       7.98587278       8.43221441
C        4.64128663       8.37178080       9.49340053     -10.76281032       3.29223102       1.34694168
N        5.33161361       8.12929997       2.46884663     -43.21494167      11.51039593      -4.92212204
N        0.53812477       5.18361573       8.85860051      14.27711714     -10.48152612      21.02738602
N        1.09299908       5.11472255       3.24464502     -10.44418163     -30.19079655     -20.70765200
N        5.87684114       8.05921871       9.43961764      -9.39496914       2.01393189       4.80332482
N        3.25870741       0.70053320       3.02682244       2.91886657       0.52693022       1.05828253
N        7.74526875       3.73953854       9.41524935       7.80443601      -7.23253428      11.56173104
N        8.28645425       3.77997903       2.33505380      -2.26502090      -2.37940713      -1.39689125
N        3.81276096       0.70798544       8.94764098      21.07203738      -2.10629679      -1.50623845
H        5.17346293       0.84833852       3.98050561      -1.53341612      -0.39620372      -2.07552002
H        0.78164135       3.45209280      10.26259019      -1.19922811       0.28008584      -0.36678952
H        8.34964851       5.22707885       3.93959607      -1.00984527      -1.23630645      -1.99645333
H        3.65611309       7.97649404      10.09925992       3.51540728      -0.62535957      -0.16124658
H        6.03256127       7.94547973       2.52776309      35.10055198      -8.67131188       3.24131743
H        1.76587236       5.07454082       8.97999857      -3.84129094       0.87897303      -1.16507797
H        1.38008780       5.71371497       3.59080350      10.82429863      24.81812664      14.58442860
H        6.12982944       7.42365381       9.99211054       3.57197447      -7.02013426       5.55440739
H        4.48729309       7.72255796       1.70950210       3.27502246      -0.00089007       1.45582295
H        0.11229005       5.36437332       8.21050077     -10.72383323       5.27607014     -17.52084785
H        1.88759074       4.54475417       2.43737249      -2.32343601       2.40243284       3.05998770
H        6.21592836       8.37137132       8.73885571       7.62379314       4.95458413     -11.53853296
H        2.56723524       0.47679825       2.37421013      -1.15639944      -0.91637748      -1.55954966
H        7.27999287       4.04840607       8.73548110      -5.42602361       3.23659771      -7.06619400
H        8.86621964       3.30136703       1.68917561       0.43360912      -1.25589764      -1.47319779
H        4.26984578       1.07371833       8.02883497      -0.81056165      -0.02466777       1.77661052
H        2.96837631       1.37323315       3.74823038       0.08877335      -0.01623339      -0.14285834
H        7.53337631       2.90171174      10.24446593      -0.80971739       2.23559230      -2.96494643
H        7.27823590       3.61027327       2.52793226       0.22821215      -0.18674128      -0.47442846
H        2.98004569       0.74284485       8.87537426     -14.87328012      -0.60124417      -0.36392690
Pb       4.77925795       4.32223600      12.38872014      -1.18862152      -0.19935317       0.44070364
Pb       8.94727771       0.26101720       5.97300101       0.35746816      -0.59920490       0.63713922
Pb       8.94234384       8.75571396      12.56622065       0.79231536      -0.18806205      -0.21037715
Pb       4.42072809       4.39956989       6.24110646       0.31686568       0.71082751      -0.73584439
I        7.15703640       6.18927933       6.21440901       0.07382921       0.17904463       0.24266063
I        8.74372072       8.59937130       3.04749634      -0.01415369       0.11303701      -0.57249396
I        6.52894493       1.72199774      12.28216642      -0.39762118       0.16244028      -0.11764069
I        1.76879023       2.68604278       0.00727911      -0.07965171      -0.27067070       0.08828090
I        1.96032879       2.65966243       6.09144379      -0.40555670      -0.27950214      -0.18036954
I        2.65708758       7.12114937       5.93314396       0.04668831      -0.06356968       0.11804995
I        7.12902578       5.92821781      12.25726683       0.88327129       0.77125521      -0.04975159
I        6.41395592       1.88017268       6.51892869      -0.28974757       0.04283284      -0.00658361
I        4.02396125       4.39697009       9.22830666      -0.05480410       0.13527685       0.87697572
I        0.30286823       0.09561289       9.43013413       0.01827485      -0.01443973       0.15870909
I        2.78845508       6.99882565       0.20051983       0.07093982      -0.02934837      -0.10926152
I        4.87582721       4.54181493       3.07296306       0.04773138      -0.28145316      -0.48218104
48
Lattice="9.01938999 0.0 0.0 0.0 8.77776784 0.0 0.0 0.0 12.79618681" Properties=species:S:1:pos:R:3:forces:R:3 config_id=O-FAPI3_al_global_rattle_19__global_rattle__sev-0.447__seed-new phase=O-FAPI3 mode=active_learning seed=1576694811 source=O-FAPI3/CONTCAR energy=-215.65021219 stress="0.015875727101360038 -0.002334214849629143 0.0037160334089928076 -0.002334214849629143 -0.012900994741565513 0.0054418287701929755 0.0037160334089928076 0.0054418287701929755 -0.010545082596177152" pbc="T T T"
C        4.65369389       0.30826766       3.14052155       0.62692492      -1.87966849      -1.48884350
C        0.21391666       4.02666178       9.54145801      -9.90211492      -8.17594505       3.29874143
C        8.92895175       4.75923813       3.14167257       8.91356348       0.05156621      -4.15754356
C        4.40033480       8.55586438       9.50560246       7.56362454      -9.80965463       7.94618302
N        5.23218638       8.01285349       2.46426214      -2.31566225       2.66061743       0.08353026
N        0.70337938       4.94506137       9.01628664       4.70603472      10.59939110      -9.56357952
N        1.49149188       5.19719810       3.01722760     -10.44004418      -5.80260486      -7.25752125
N        5.79063029       7.96491099       9.60878374      -8.82856960       4.50364965      -1.09307134
N        3.42817390       0.67495320       2.94547606      -4.13854989       1.68231621       2.36538733
N        7.73623150       3.67299560       9.33093911       4.08417630      -0.60245030       2.18297420
N        8.50076045       3.97839406       2.25153872      -4.56731395      -3.89147402      -0.73478708
N        3.86943240       0.49113296       8.70128496       1.47844853       4.29528417      -5.38843762
H        5.13703894       0.98102361       3.86979300       0.75938222      -0.82941882      -0.18331962
H        0.80986501       3.48259264      10.24025470      -0.17998501      -1.05583643       1.00100413
H        8.30702197       5.22558119       3.76141058      -2.29090535       1.97147965       3.22373272
H        3.79176030       8.01102367      10.35672380       0.59650567       1.30975312      -1.61571805
H        6.26151876       8.12270497       2.55731960      -0.07784042      -0.69902723      -0.77304291
H        1.81335557       5.19457258       9.00012467      -2.30315140      -0.79574585       0.33182701
H        1.50325830       5.60760211       3.74431641       2.71950875       7.44764520      12.33909340
H        5.90728402       7.22203199      10.18744817       0.75294028      -2.58307173       2.10267988
H        4.64802980       7.75040473       1.54890688       1.87570392       0.30580300       2.11072793
H        0.07000832       5.37460925       8.05113131       1.95076426      -0.73247782       3.03391411
H        1.76039326       4.71054057       2.28653015       3.09145760      -2.46211997      -3.76205068
H        6.35685434       8.41869648       9.02355577       3.72011835       1.38827388      -2.64549466
H        2.65153353       0.13500084       2.42423196       1.63885175       0.83063349       0.73688567
H        7.01663760       3.95541369       8.60182429       1.66161127      -0.05947532       1.02242423
H        8.96185801       3.35826583       1.40284123      -0.54551214       1.65895251       2.19857256
H        4.30861076       1.07958908       7.95899364      -0.19037149      -0.44055398       0.16760018
H        2.98773490       1.36559395       3.81551477       1.17516859      -1.98223193      -2.84424460
H        7.47185541       2.99189980      10.10249288      -0.10039350       0.88933932      -1.41552166
H        7.30950251       3.64080682       2.65824415       2.89260882       0.97100391      -1.97147512
H        2.98977193       0.59767128       8.99782276      -5.25634118       1.51262829       0.32424973
Pb       4.61977611       4.39754775      12.61649009      -0.46042463      -0.54106358      -0.27981484
Pb       0.02156726       0.11883895       6.22750398       0.09014875      -0.16749885      -0.72081572
Pb       8.94257473       8.49538371      12.40101126       0.00060673       0.60694810       0.30833951
Pb       4.56529223       4.41315822       6.07466697      -0.45531771       0.12114866       0.12591359
I        6.99156072       6.09159208       6.40943236       0.82599790       0.42184332       0.14109458
I        8.55312135       8.73432605       2.97019855       0.29601352       0.07942625      -0.24609280
I        6.29032795       1.81867529      12.29409067       0.13425551      -0.19621489       0.03738462
I        1.79465991       2.36744176      12.59953578      -0.08364973       0.10395152       0.25174689
I        1.94255265       2.58979376       6.02167873      -0.18981521      -0.11589139      -0.17930964
I        2.66478987       7.21830135       5.90041656       0.07991532      -0.28972567       0.06819947
I        7.05186247       6.08222286      12.25161680       0.35003356      -0.05537212       0.12167260
I        6.35550802       1.85213412       6.41158033      -0.23504809      -0.01036813       0.00840931
I        4.17413436       4.56388171       9.42260319      -0.17534015      -0.04882656      -0.27264738
I        0.27835326       0.00517669       9.17871196       0.19112778      -0.04450655       0.78174666
I        2.49421462       6.83250915       0.01610234       0.16306945       0.12845483      -0.06335632
I        4.95870512       4.41549557       2.90723452       0.39778831      -0.26888565       0.34265287
48
Lattice="9.01938999 0.0 0.0 0.0 8.77776784 0.0 0.0 0.0 12.79618681" Properties=species:S:1:pos:R:3:forces:R:3 config_id=O-FAPI3_al_global_rattle_20__global_rattle__sev-0.460__seed-new phase=O-FAPI3 mode=active_learning seed=4111103319 source=O-FAPI3/CONTCAR energy=-208.98328994 stress="-0.04460638338631786 -0.0062837499245076995 0.014527242913067978 -0.0062837499245076995 -0.005876593009638804 0.001203597921081336 0.014527242913067978 0.001203597921081336 -0.016170736692602227" pbc="T T T"
C        4.67932663       0.53830478       3.07354682      -8.78391478      -4.95686744      -3.92662123
C        0.01724625       4.07617726       9.50112443       6.17140845      -5.12009357       7.97761437
C        0.05663437       4.78118220       3.42257062     -20.53956663     -12.23511952      -2.77570944
C        4.58376250       8.29255890       9.49683310     -28.36736070       8.97739079       2.31359085
N        5.14754779       8.16173707       2.45483622       4.26993239       5.62184620       4.20020057
N        0.63210347       4.88382889       8.90589291       8.13745876      11.58925984     -10.15652687
N        1.04523817       5.01229477       3.06000897      28.42607604       9.58537133      -4.64388348
N        5.63451340       8.01118176       9.53189581      22.93656722      -1.78437102      -4.84253150
N        3.20598736       0.76310025       3.18994311      11.43507155     -11.71760317     -11.05542069
N        7.84821129       3.91062496       9.47401110      -7.26009993      -7.00954900       6.71474970
N        8.50087220       3.78108907       2.42924499      -4.96265964       1.45957952       5.01328199
N        3.83002885       0.73995126       8.88646126      -6.40179061      -9.88525707      17.12498981
H        5.21699971       0.75025811       3.85110033       3.42217359       2.55768303       4.37894695
H        0.81884967       3.68449175      10.34959914      -2.49769972      -0.35295744      -1.20109206
H        8.37478095       5.20794323       3.92315284      -3.83981018       2.71973145       4.20231396
H        3.81005758       7.82114441      10.44294873       1.84767040       0.93030377      -2.74931355
H        6.26760639       8.21957642       2.50519088      -2.46482022      -0.64181325      -0.25805872
H        1.82193563       5.23364515       8.85502423      -3.79678457      -1.98588490       0.79048534
H        1.67223603       5.79764895       3.65160240      -1.32252114      -1.77038022      -1.28666744
H        6.05542064       7.31494897      10.02303802       1.57061654      -2.95105884       2.38014785
H        4.77598689       7.67481454       1.73028733      -1.94863106      -1.72876949      -2.98032187
H        0.10938951       5.46196068       8.08658007       1.20992922      -1.35376834       1.91736271
H        1.71393673       4.58106454       2.34307688      -1.41969280       0.28941395       0.79603628
H        6.37464373       8.47664748       8.81159794      -1.35336310      -0.91320465       1.58179641
H        2.62915516       0.32880895       2.41474192       0.86653460       0.58074180       1.09469553
H        7.14637205       3.96848010       8.85588247      -2.77373719       0.90289037      -3.29670510
H        8.97558516       3.49265688       1.59726354       0.53157573      -0.05670941      -0.64285041
H        4.18744301       0.99591360       8.20117146       7.41474772       6.00205149     -15.28516837
H        2.79945053       1.32065976       3.66084215      -6.34859929      10.36818153       8.64031316
H        7.46090966       2.92394548      10.34249995       0.87802290       2.90327055      -2.35789151
H        7.37325174       3.69389792       2.54622031       3.27975743      -0.02173154      -0.73277331
H        2.72919940       0.74930063       9.04855517       2.67809040      -0.34896589      -0.52609668
Pb       4.62058425       4.35410570      12.54370806      -0.21754912      -0.28152200       0.17130880
Pb       9.00333322       0.02868733       6.08717806       0.25783093       0.31781435       0.08597338
Pb       8.96165931       8.55732833      12.56091049       0.49726330       0.69237277      -0.13601436
Pb       4.61569971       4.47087828       6.27358625      -0.41489173      -0.23077361      -0.36276658
I        7.25314864       6.05914532       6.36409957       0.18743126       0.41914691       0.14584716
I        8.87751102       8.66317847       2.87153214      -0.38422780      -0.09596139       0.53060754
I        6.34821773       1.64743455      12.41426005       0.24091405       0.08961219      -0.38467730
I        1.81484305       2.46287830       0.02728416       0.37113586       0.27594024      -0.08250627
I        1.82948179       2.79282125       5.86976061      -0.20040219      -0.35919802       0.14090555
I        2.63527130       6.87716772       5.89942601      -0.20647605       0.29141500      -0.08995502
I        7.28339481       6.16322806      12.32993650      -0.49940451      -0.65508637      -0.11275297
I        6.24451270       1.76341239       6.39184720       0.35448995      -0.32814562       0.06635393
I        4.17599813       4.32260809       9.32288123      -0.13389810       0.21713654       0.10872059
I        0.56814211       0.04561490       9.47877794      -0.55060904      -0.10323839      -0.37401289
I        2.79634750       6.85341824       0.22242549      -0.24825162       0.10282109      -0.22699625
I        4.89432309       4.29955556       2.88409864      -0.04793657      -0.00594455       0.11107146
48
Lattice="9.01938999 0.0 0.0 0.0 8.77776784 0.0 0.0 0.0 12.79618681" Properties=species:S:1:pos:R:3:forces:R:3 config_id=O-FAPI3_al_global_rattle_21__global_rattle__sev-0.473__seed-new phase=O-FAPI3 mode=active_learning seed=2951562092 source=O-FAPI3/CONTCAR energy=-215.13221509 stress="-0.02135873729259201 0.0001835379796349604 0.013381710431709229 0.0001835379796349604 -0.009728658743139738 -0.003878839941439745 0.013381710431709229 -0.003878839941439745 0.00455085077097138" pbc="T T T"
C        4.69305315       0.16091755       3.16000106     -12.58027624      19.91063218      13.87180296
C        0.09823712       4.04509053       9.57336326       0.87732335      -0.47543571      -0.17375838
C        8.99308746       4.77328678       3.28390679      -6.02978882      -1.89019949      -1.42987834
C        4.39176313       8.33101948       9.49795840       2.43026573       5.10789723      -4.71463984
N        5.22290605       8.22236274       2.52272344       5.78945456     -15.81464388     -14.94390890
N        0.72142394       4.95034190       8.89775364     -16.47464017       1.14119073      -2.96983362
N        1.23816725       5.09590854       3.16202362      -3.94130414      -9.38663688      -9.34899129
N        5.69943804       8.11794470       9.40183191       0.51863208      -2.94765375       2.57771609
N        3.28212986       0.76821172       2.94896660       2.43287607      -4.28413741      -2.43786625
N        7.87489398       3.72559909       9.41285787       2.15797301      -2.12822873       2.55109463
N        8.11475501       3.90746777       2.45024456      27.06144666      10.29099536      -4.03547556
N        3.80545949       0.57676211       8.76296501       3.69818757      -2.01608567      -0.29771978
H        5.32433198       0.92820050       3.91451004      -1.60047435      -2.12165325      -1.29975808
H        0.70655890       3.45542484      10.25980561      -0.16976928      -0.05364285       0.37914079
H        8.28987214       5.32937320       3.96198313       1.15055784      -0.44517560       0.21767235
H        3.81855465       7.85780800      10.21223886      -1.19099880      -1.22550474       1.66082420
H        6.12354175       7.88760326       2.40621237       3.08940088      -0.22831376       0.69251906
H        1.53781366       5.00854816       8.76908709      15.72762026       0.79687710      -1.26158263
H        1.53687393       5.76203473       3.66221044       3.68581510       6.86014401       4.74866646
H        6.00749954       7.40025105      10.13710656      -0.32687454       0.81328805      -0.95692735
H        4.67247812       7.67025659       1.75105362       0.36331698       0.77310333       0.99831390
H        0.23838834       5.27098735       7.88250725       0.80096579      -0.57032984       3.19579512
H        1.64465582       4.66441024       2.13653261      -0.28434034       1.63064760       3.44863966
H        6.57850386       8.35457436       8.88696223      -1.53415101       0.77875736      -0.32980477
H        2.49589502       0.21487010       2.28601702       2.70938164       1.63966148       2.39524964
H        7.16767459       4.12491379       8.93742105      -2.65561348       2.22936173      -2.56381833
H        8.87397000       3.45054712       1.45389724      -2.63396578       1.12649576       3.14052850
H        4.23768598       1.02580278       7.85600046      -0.64206435      -1.00757489       2.11059431
H        2.91933184       1.35911227       3.68026561      -0.08764469       0.09084588       0.63172361
H        7.57008207       3.01974033      10.04574000      -0.60901116      -0.93924462       0.70652907
H        7.40075051       3.55624830       2.52435457     -18.30302679      -8.41256826       2.88171293
H        2.86052452       0.64263206       8.96286729      -2.69430552       0.55920788      -0.01813610
Pb       4.50511594       4.30724848      12.46601064       0.24914694      -0.15615926       0.24010560
Pb       0.05703961       0.02695705       6.12518644      -0.23188941       0.42680921       0.13811923
Pb       0.00154150       8.64222822      12.59246781      -0.25760477       0.15931078      -0.19109623
Pb       4.45788194       4.67789983       6.17801729       0.10646074      -0.51493346      -0.28627529
I        7.14457287       6.32990891       6.50184118      -0.05270534      -0.31121116       0.01464556
I        8.77106318       0.09546490       2.95545107      -0.21945310      -0.13664262      -0.02296543
I        6.36295172       1.59350895      12.24371516      -0.15424672       0.25219168       0.04709072
I        1.84028846       2.69976945      12.78276169      -0.43108962      -0.12658498       0.22123929
I        1.76808058       2.57965307       5.79828379       0.23027679       0.34729114       0.18201419
I        2.69315792       7.16995780       5.87610291       0.14037214      -0.13399231      -0.01342034
I        7.11886598       6.08979123      12.18119375       0.12954405       0.18728283       0.05310318
I        6.35720601       1.80792594       6.46424905      -0.06156629       0.15185095      -0.09863578
I        4.11189327       4.40905435       9.25157588       0.17271086      -0.01089280       0.10953841
I        0.41491620       0.09582751       9.41011462      -0.22923833      -0.04839679      -0.01971821
I        2.52758645       6.85783433       0.07247632       0.40284000      -0.06105864       0.06187346
I        4.97208963       4.39892279       2.84356172      -0.52852600       0.17305906       0.13795756
48
Lattice="9.01938999 0.0 0.0 0.0 8.77776784 0.0 0.0 0.0 12.79618681" Properties=species:S:1:pos:R:3:forces:R:3 config_id=O-FAPI3_al_global_rattle_22__global_rattle__sev-0.487__seed-new phase=O-FAPI3 mode=active_learning seed=2136075623 source=O-FAPI3/CONTCAR energy=-217.41670091 stress="-0.004130322508822867 0.0066215262613823316 0.0011696013321329823 0.0066215262613823316 -0.0006128119005442425 -0.0029207679722996994 0.0011696013321329823 -0.0029207679722996994 -0.012104458764550212" pbc="T T T"
C        4.62968634       0.27940232       3.10519230      -3.20465126       4.30961403       6.56389447
C        0.09257060       4.01616585       9.38772143       1.90874834       0.72766500       4.70634264
C        8.84454190       4.87517164       3.14931919       8.77788233      -6.45952799      -9.81715900
C        4.33164737       8.43924603       9.65037672       8.89592767       5.36777004      -7.99033964
N        5.26730563       8.23023833       2.45271307      -9.66941840      -3.39841330      -6.12874600
N        0.66967401       5.10544181       8.80549288      -7.69582559      -4.57677958       0.84277274
N        1.30867912       5.04019877       3.08288996      -8.50782074      -0.31609731       2.15399268
N        5.78099966       8.18236562       9.43717331      -4.45216530       2.17924737      -1.40690075
N        3.33695098       0.57196111       3.16990915      -5.39501100       2.21183419      -3.40961354
N        7.84266139       3.70088344       9.55043249       2.74859389      -0.42748678       0.39148134
N        8.28004281       3.87098271       2.34816784       4.31727014       4.40311682       2.94472474
N        3.95081760       0.73729800       8.79974010      -7.19742477      -6.49750499       9.53596166
H        5.03445600       0.58467342       4.13753760       0.49053177       0.40043418      -1.51814803
H        0.62621679       3.58889861      10.28589896       0.64970358       0.07427659      -1.27070680
H        8.40811319       5.05328432       3.96181294      -3.87294546       2.63253807       6.64269669
H        3.87394697       7.91959295      10.38140726      -2.14003720      -1.50198256       2.63213972
H        6.13750900       8.19374625       2.61269356       8.93824258      -1.43042285       0.97393111
H        1.56415109       5.18136555       8.97448098       6.29631150       1.05537690       0.37213891
H        1.51688606       5.73431674       3.73992821       1.39572469       1.46417547       1.16813771
H        6.07090883       7.46176319       9.97380380       1.59230458      -3.12688132       2.23969682
H        4.53972226       7.70099256       1.74526040       2.77323432       0.73580747       0.87036604
H        0.04094054       5.43171522       8.12686822      -0.10786453       1.89420244      -1.93833589
H        1.89294862       4.79887037       2.35968774       1.42957381      -0.69878594      -2.39569374
H        6.42280628       8.36835168       8.58520959      -1.91454250       0.07112610       1.41456935
H        2.39214778       0.62969354       2.38700146       3.44903882      -1.84109067       1.08565659
H        7.36402364       4.04120259       8.81966965      -3.86044341       1.25790052      -3.03283443
H        8.78701713       3.32698257       1.69669823       0.87578932      -0.48740439      -1.10960856
H        4.53989787       0.93584040       8.10342459       2.60758487       1.40098149      -4.22205217
H        2.85608130       1.46133341       3.51712357       2.39828107      -0.96503251       1.32409947
H        7.48949815       2.94511438      10.14226035       0.18479664      -0.07060186      -0.08386150
H        7.34578310       3.77964153       2.45300713      -4.13476118      -0.75655878       0.31120972
H        2.81021283       0.56651512       9.02770276       2.24141044       1.84210777      -2.17060875
Pb       4.66977474       4.32604186      12.51607598      -0.54462772       0.01062516      -0.00813272
Pb       0.00272629       8.74582519       6.23613668       0.13200990       0.43390445      -0.50281677
Pb       8.84030306       0.00887309      12.46551210       0.66166644      -0.34710106       0.16528175
Pb       4.46938103       4.45491889       6.13762216      -0.24404499      -0.06518797       0.02922104
I        7.13409062       6.32320797       6.35260143      -0.15219193      -0.32015685       0.13142840
I        8.76942707       8.75333194       2.78032988       0.03305752       0.09325703       0.19384617
I        6.32887845       1.54584918      12.26686128      -0.46680627       0.50075830      -0.02940086
I        1.97468459       2.42102310      12.70770476      -0.25590846      -0.01610163       0.10096649
I        1.96059441       2.47664044       6.07988026       0.00449962       0.32327203      -0.11105016
I        2.58546505       7.12335601       5.72466912       0.21219133      -0.32734793       0.26216744
I        7.15083395       5.99466937      12.53736371       0.33700137       0.30328360      -0.22915922
I        6.33902625       1.87880879       6.53237365       0.18871334       0.00995627      -0.18274724
I        4.28343214       4.27599937       9.32616818      -0.13085380       0.21543151       0.18556885
I        0.44123911       0.05032294       9.23624477       0.18426338      -0.02685829       0.33620215
I        2.60396617       6.94248168       0.02091358       0.37765947      -0.25375456       0.06260447
I        4.88938904       4.27997078       2.99848477      -0.15466820      -0.00758367      -0.08318337
48
Lattice="9.01938999 0.0 0.0 0.0 8.77776784 0.0 0.0 0.0 12.79618681" Properties=species:S:1:pos:R:3:forces:R:3 config_id=O-FAPI3_al_global_rattle_23__global_rattle__sev-0.500__seed-parity phase=O-FAPI3 mode=active_learning seed=3391614287 source=O-FAPI3/CONTCAR energy=-205.78248617 stress="-0.04200262003348789 0.007636684614640459 -0.018081134572750845 0.007636684614640459 -0.025576319581756816 0.007127337805177891 -0.018081134572750845 0.007127337805177891 -0.028407632397777657" pbc="T T T"
C        4.41959968       0.42604915       3.27814236      49.30647920     -13.68766099       4.80563015
C        0.19735625       4.04956860       9.69596045      -6.72466631       2.98040915      -5.98360303
C        8.98510630       4.58897832       3.19450853       3.41872752      12.92956381       7.89840348
C        4.53692607       8.42343849       9.49820396       5.66870698     -14.20404592       8.67604060
N        5.04204383       8.12612031       2.34400908       9.02502803       5.70747183      15.36605279
N        0.55998416       5.18536172       8.83079657       5.53654680      -9.33015061      19.17917965
N        1.25218347       5.18081255       3.07752656      -9.92938125     -10.53346602      -4.79405586
N        5.83788937       8.04443045       9.33451462     -11.59686981      -9.53570759      12.01933095
N        3.46542975       0.61048840       3.08817184     -48.05919996      14.50896679      -4.75617374
N        7.73272602       3.73626039       9.38173626      13.36280534       1.90399662       1.27776816
N        8.36764463       3.86646646       2.49234645      -4.36170873      -7.57894200      -7.60631455
N        4.12672583       0.60527800       9.04304807      -9.91627093      14.39266840     -11.35240639
H        5.18889303       0.80566918       4.04024281      -1.17534147      -0.33079099      -0.87316529
H        0.85505368       3.40052894      10.40662816      -0.97248435       1.23887230      -0.85433414
H        8.24533981       5.41463105       3.89750276       1.96847064      -2.67211509      -1.20985161
H        3.89202417       7.73130500      10.33920659       1.48782754       1.75421175      -2.09406744
H        6.25469054       7.95705734       2.55841201      -4.54576748       0.75822375      -0.81660359
H        1.51290625       5.16571646       8.94876078       3.33646693       1.14068548      -0.27204311
H        1.54179193       5.84959262       3.52411822       3.90793377       9.18332614       6.67139736
H        6.04725440       7.40264993      10.06877236       1.73111714      -0.65573086       0.01141249
H        4.80821967       7.81923270       1.58274243      -4.14171289      -3.77506282     -10.93727524
H        0.25823488       5.41154101       8.10094673      -7.12270706       4.28752409     -14.74654846
H        1.74384025       4.59207160       2.54666959       3.73200507      -1.97585059      -2.64288253
H        6.20876371       8.51104360       8.78139471       9.71211332       9.52116212     -11.63069347
H        2.74184044       0.34450773       2.48414601      -1.06617290      -1.16361307      -1.66087886
H        7.12045267       4.19949296       8.89719624      -3.86162742       4.12521473      -3.80137692
H        8.85841544       3.41435735       1.64514752      -0.63852562       0.23931312       0.99427590
H        4.48250884       1.05894956       7.94665134       0.21217433      -1.01184095       3.28567180
H        2.93162563       1.48964988       3.72118333       0.84682076      -1.76837530      -0.74731379
H        7.45258431       3.09814625       9.92838118      -3.21708092      -6.44783913       5.29608625
H        7.29982687       3.69887430       2.46572193       1.50474138       0.48140038       0.59009482
H        3.00118714       0.72716442       8.87149894       2.52005597      -0.35653812       1.34633818
Pb       4.37830025       4.26506789      12.54426559       0.27849365       0.00574993       0.23159588
Pb       8.72961286       0.15616325       6.26556279       0.45277052      -0.49379835       0.03164709
Pb       8.92239195       8.57191698      12.60506744      -0.09270956      -0.04094023      -0.19402695
Pb       4.27963940       4.40697850       6.27561803       0.16755085       0.79196633      -0.63374049
I        7.21538283       6.21320788       6.47399373      -0.08343648       0.08848803      -0.24408590
I        8.75198086       8.71912480       2.88115474       0.01423776       0.02486642       0.47144270
I        6.41029558       1.81868073      12.40455171       0.19372889      -0.20193609      -0.01015853
I        1.77679710       2.54659266      12.74871091      -0.11433310      -0.05983553       0.11534228
I        1.94560130       2.56988745       5.68809327      -0.31863409      -0.29276375      -0.08678707
I        2.71081311       7.12978468       6.04205883      -0.16624229       0.04423742       0.06160861
I        7.12033163       6.06821899      12.24371899       0.05338342       0.01158611       0.07202823
I        6.20920512       1.89852023       6.52520241       0.02767886      -0.17693963      -0.12355536
I        4.33620117       4.38836314       9.25449853      -0.36470153       0.03944858       0.56471964
I        0.42753586       0.06938255       9.43275632       0.15262827       0.15476622      -0.37827294
I        2.84849870       6.91101409       0.12181023      -0.62761648       0.24838118      -0.40321542
I        4.62999526       4.39832950       2.94977916       0.47869771      -0.26855704      -0.11263634
48
Lattice="9.01938999 0.0 0.0 0.0 8.77776784 0.0 0.0 0.0 12.79618681" Properties=species:S:1:pos:R:3:forces:R:3 config_id=O-FAPI3_al_global_rattle_24__global_rattle__sev-0.513__seed-new phase=O-FAPI3 mode=active_learning seed=3366644633 source=O-FAPI3/CONTCAR energy=-212.68584764 stress="-0.013307051134820806 0.0027732368968044303 -0.01503191184251239 0.0027732368968044303 -0.0020086352891562557 0.000460984800559137 -0.01503191184251239 0.000460984800559137 -0.0016983170236508297" pbc="T T T"
C        4.45018668       0.33266818       3.04015453      -1.15446799       7.62539737       7.71657793
C        0.14934946       4.12119448       9.67963738      -6.73854442       1.61539965      -4.90196880
C        8.92034374       4.77832574       3.21448709      -1.31933015      -3.48584788      -4.28287584
C        4.35027187       8.40796926       9.56750094       7.04172614       2.15239206      -3.42654411
N        5.10665063       8.31371587       2.51341767       9.16275438     -12.77833912     -10.34291401
N        0.60032870       4.99502460       8.79135578       7.18945270      -4.71563867       8.48412921
N        1.19670863       5.03281166       3.00453481       0.28636220       1.63752576       2.21949224
N        5.88377570       8.05991619       9.51878739      -6.28782928       1.12702557       0.46300165
N        3.19208974       0.50587900       2.93638757      25.89238587      13.23172670      26.01621652
N        7.83710896       3.80659419       9.54864793       2.66736767      -3.59690314       4.63890710
N        8.22409337       3.85587398       2.25822460      10.78084994       4.93591536       1.75368834
N        4.02329553       0.60845117       8.62467470      -8.74271022      -6.36843309      11.00941859
H        5.11890960       0.89210833       3.89347887      -2.10514081      -0.42618001      -1.63086568
H        0.71543226       3.62569238      10.35664626       2.00872683      -1.33010041       2.28514164
H        8.30481195       5.25897761       4.05136155       0.88700879      -0.57267654      -1.05576712
H        3.76867562       7.99662340      10.45227050       0.20834515       0.50523249      -1.23552064
H        6.13169113       7.93929465       2.27637087      -1.10087617       2.37979882       2.40889556
H        1.62865732       5.04558446       9.01726529      -0.64106385       0.98551161      -1.37516721
H        1.41068382       5.85409825       3.90507426       0.83699961      -2.43583587      -2.92949096
H        5.94260368       7.15797079      10.04968660       1.28775558       0.74966770      -1.04999440
H        4.79300197       7.67043742       1.71463414      -1.41200850       1.03747494       0.99731523
H        0.13895633       5.39476169       8.13636287      -3.98948591       3.57101589      -5.81698731
H        2.01049094       4.53812221       2.23147647      -2.86298074       1.55415112       2.63045428
H        6.37027718       8.54123272       8.68733941      -0.50380431      -1.69721556       1.55656063
H        2.65621676       0.33325700       2.49031070     -28.19590259     -10.13504324     -24.52535820
H        7.22205042       4.15482658       8.88641775      -1.18397199       1.16334371      -1.79831316
H        8.86926522       3.44749737       1.53196716      -1.07552691       0.31716394       0.82823998
H        4.58479513       0.95865979       7.98370397       3.39852068       2.45607046      -4.32602602
H        3.02202283       1.35304314       3.53116380      -0.94607687      -0.83460547      -0.55024663
H        7.41832795       2.99707096      10.20226001       0.96110490       2.09521088      -1.36761993
H        7.36908442       3.60411540       2.37187508      -7.10518113      -2.08357390       1.01496435
H        2.80341176       0.68069913       9.09878916       2.81259194       0.88372826      -2.78656197
Pb       4.59704111       4.42760257      12.57647603      -0.11260940      -0.49275545       0.24323767
Pb       0.04441490       0.27337919       6.27218814      -0.14504505      -0.51617128      -0.48170971
Pb       0.13724147       8.50494270      12.56087351      -0.38585780       0.40318739       0.26521789
Pb       4.60153331       4.58266675       6.31158453      -0.06203912      -0.01140215      -0.21411586
I        7.23997601       6.23040300       6.60874973      -0.24332959      -0.08561628      -0.26077445
I        8.62855944       8.71779488       2.90100649      -0.01880871      -0.08437427      -0.07737513
I        6.35223831       1.98090468      12.36263229       0.37231926      -0.59529548      -0.11122952
I        2.04612871       2.55893043       0.09191092      -0.37041266      -0.20763674      -0.01932803
I        1.88400355       2.50599882       5.92826861       0.43031574       0.61530172      -0.05975614
I        2.72043048       6.98417678       5.76871744      -0.26288018      -0.00677860      -0.02576846
I        7.14313193       6.03650052      12.38095285       0.51720592       0.64048493       0.01979290
I        6.34643902       1.79656023       6.45661280       0.13784115       0.08753764      -0.13006398
I        4.14487970       4.39506961       9.50248799      -0.15097055       0.07913653      -0.49610229
I        0.36897323       8.72123858       9.29146646       0.63284098       0.20461137       0.39016023
I        2.67267687       6.86676782       0.10006285      -0.14496708       0.32005333      -0.07026075
I        4.84451541       4.22472298       2.94891503      -0.25065343       0.08635793       0.40729440
48
Lattice="9.01938999 0.0 0.0 0.0 8.77776784 0.0 0.0 0.0 12.79618681" Properties=species:S:1:pos:R:3:forces:R:3 config_id=O-FAPI3_al_global_rattle_25__global_rattle__sev-0.527__seed-new phase=O-FAPI3 mode=active_learning seed=2321733110 source=O-FAPI3/CONTCAR energy=-204.53035543 stress="-0.028096476783890916 -0.0020564345948044433 0.0029681443158404625 -0.0020564345948044433 -0.04299669521179422 0.02619609974650805 0.0029681443158404625 0.02619609974650805 -0.0525522127441594" pbc="T T T"
C        4.45610503       0.30489541       3.17619028       5.98954010       0.57658124       1.31554476
C        0.02471899       4.12255758       9.53158921     -27.58705955     -15.27285444      17.93509981
C        8.96460234       4.74361985       3.13917245       1.96786361       2.12092048      -0.19673886
C        4.30136648       8.44898039       9.53316033       8.83774044      -9.45607481       5.31940729
N        5.18044935       8.25223726       2.43632474      -3.67530539      -1.76997108      -3.60156947
N        0.65498107       4.59603292       8.88306413      26.70882430      28.42152015     -30.30103277
N        1.20794958       5.22682728       3.02318628      -2.19876053     -11.26614893      -9.87038400
N        5.77395272       7.86316437       9.57240905     -16.05854442      31.72271468     -38.53810247
N        3.31638938       0.88995014       3.03544579       4.40365217      -3.55771984      -3.91188119
N        7.80370267       3.83224326       9.23241449       3.49120545      -9.53760753       8.86884580
N        8.40991328       3.91113407       2.28229295      -8.53477223       8.66028465      10.17238107
N        3.88181855       0.64382066       8.99200651      -8.44389060       0.96253775       1.98440227
H        5.19782376       0.67167980       3.86107010      -0.27945572       0.77507871       1.49633850
H        0.56630612       3.60020280      10.03672048       4.53725500      -7.09014458       8.74865034
H        8.40592473       5.32750143       3.97145026       0.16929146      -1.37493838      -1.32819027
H        3.65563011       7.88197495      10.12914656      -0.91403908      -1.13305622       1.11834962
H        6.17885920       8.01932384       2.51952043      -0.17544083       0.46556037       0.67761798
H        1.58521110       5.18794712       8.86454562      -0.50368282      -2.86484469       1.44851071
H        1.37669290       5.88831697       3.54841383       3.08378406       8.78453663       6.85604829
H        5.94455764       7.45247210      10.11195553      11.35731626     -26.43000025      34.33826136
H        4.67213448       7.77056129       1.55973745       1.33689664       1.04720025       1.99790447
H        0.27244538       5.32529812       8.13713320      -0.51092385      -1.81918351       0.41561783
H        1.95077761       4.82502768       2.09351835      -2.59683430       1.39926341       3.36854731
H        6.31890228       8.41371993       8.75652008      -0.73246083      -2.19566871       3.00196216
H        2.95852371       0.29339136       2.39368695      -4.15563906      -1.12779121      -2.83895572
H        7.11914964       4.27337877       8.91511167      -7.25059131       5.52533096      -3.88200766
H        8.72376713       3.33364788       1.75742945       6.25810769      -8.98828198      -8.79139900
H        4.43594002       1.01814295       8.41832390       5.13633078       5.48731147      -6.70195716
H        2.97343664       1.36501760       3.73114619      -3.24983147       3.54512652       4.91247346
H        7.34358508       2.97574239      10.28384082       0.87499718       2.49059070      -2.89854888
H        7.36057607       3.71007236       2.46568150       1.70447993       0.51577514      -0.05429933
H        2.82160206       0.61903540       9.04434701       0.52155259       1.20198607      -0.71699591
Pb       4.75147156       4.25717360      12.74302505      -1.06364111       0.12060970      -0.12444837
Pb       0.00360261       0.05222149       6.32538841      -0.08932675       0.23612654      -0.59203328
Pb       0.11339682       8.40316475      12.55518138      -0.34560816       0.47222030       0.34319317
Pb       4.44110055       4.46409666       6.11412452      -0.01598982       0.08757900       0.74877971
I        7.30358967       6.31438192       6.62397361      -0.07613876      -0.13199093      -0.21567335
I        8.75307897       8.71221433       3.00546177      -0.14729595      -0.01185507      -0.25650689
I        6.50515755       1.99033516      12.29381018       0.57658501      -0.76986000      -0.29550931
I        2.04780217       2.70254832       0.37161329      -0.11093641      -0.14689185      -0.24644571
I        1.96431861       2.69401352       5.72538763      -0.19121059       0.01305152       0.19853855
I        2.62975973       7.20009267       5.92508697       0.21021105      -0.16549765       0.10168379
I        7.12603035       6.03092708      12.31927126       0.72092708       0.61266830      -0.01170946
I        6.37329542       1.96409630       6.59543965      -0.04853526      -0.23279844      -0.09297363
I        3.99813323       4.26954481       9.34574558       0.18696101       0.11781593       0.32988421
I        0.33123538       0.03205474       9.34216495       0.38693078       0.06341269       0.52800424
I        2.69122922       6.97338136       0.01340196       0.32061296      -0.10422199       0.02284916
I        4.97613960       4.43457914       3.17758519       0.17484924       0.02159897      -0.78153314
48
Lattice="9.01938999 0.0 0.0 0.0 8.77776784 0.0 0.0 0.0 12.79618681" Properties=species:S:1:pos:R:3:forces:R:3 config_id=O-FAPI3_al_global_rattle_26__global_rattle__sev-0.540__seed-new phase=O-FAPI3 mode=active_learning seed=2895524826 source=O-FAPI3/CONTCAR energy=-206.26639225 stress="-0.05781807295611738 0.01092916448328691 0.012274035305908267 0.01092916448328691 -0.00960583452548155 0.007757512260910405 0.012274035305908267 0.007757512260910405 -0.027187411546580973" pbc="T T T"
C        4.67563175       0.42076704       3.21396936      -1.76235284      -2.24966047       0.25777032
C        8.96372195       4.10307102       9.51998563       5.03955383      -4.15034487       5.85521197
C        0.06329059       4.93023458       3.19171999     -14.87961541      -9.29096691      -4.53695506
C        4.48747356       8.43816812       9.51081703     -15.68476249      -2.48286567       8.17172788
N        5.03855261       8.15411832       2.45292408      10.83430039       8.46924281       9.91012157
N        0.71861115       4.88573446       8.74968704      -2.49757515      -4.51818784       2.50964716
N        1.19634686       4.89590324       3.07957805       2.47850010       9.50403790      16.54917525
N        5.53507941       8.14044598       9.32322711      26.25634932      -9.34509515       0.27289406
N        3.40519412       0.74114732       3.17733976      -1.58046812      -0.16029112      -0.20712484
N        7.79161588       3.55378982       9.67669464      23.13209966      21.84530577     -38.68924748
N        8.39636210       3.56778000       2.48210387       0.13545273       4.18628292       2.42311650
N        3.96668605       0.52188350       8.91705605     -10.71764654      11.74858035      -7.90916115
H        5.34803584       0.67299787       4.07325890      -0.30939827       0.66325319      -1.00895190
H        0.58617881       3.49745341      10.29906969      -0.19410165       1.75148069      -0.73547124
H        8.37509600       4.80827557       3.89681356      -1.90689856       2.03575604       3.60964334
H        3.74546260       7.91864048      10.13478418       0.69392311      -0.65387701       0.78232556
H        6.11781381       8.24979002       2.43326197      -1.75898137      -1.30658396      -0.44353496
H        1.54715207       5.21417439       9.15488035       1.90816279       0.54523226       0.59664425
H        1.49551750       5.69275708       3.78900120       1.33704418      -1.36167035      -1.07124536
H        5.91448257       7.30597572      10.23634764      -0.27607342       2.42521464      -3.18319748
H        4.62902288       7.69639925       1.86344355      -6.43888066      -6.33266101      -8.83800884
H        0.12155829       5.39113744       8.26079849      -2.51728895       4.19320620      -4.12255558
H        1.69525757       4.74670989       2.46982772      12.47322348      -4.29031357     -15.26748583
H        6.41833844       8.69779456       8.77079448      -3.11549091      -1.79760450       1.73609847
H        2.80050778       0.11417524       2.52883861       0.79993871       1.62514560       1.20420708
H        7.30884617       3.89758444       8.70158746      -0.48713910      -1.34750408       2.87286247
H        8.73414637       3.24147201       1.56847225      -0.51839163       0.16088370       0.07219555
H        4.49666739       0.94206366       8.07627786      -1.32144932      -0.09402795       1.27744766
H        2.92660842       1.40102558       3.85231993       0.61810431      -0.72856249      -0.70533185
H        7.38382436       3.26489005      10.17045304     -24.26449175     -18.31162137      31.28329934
H        7.38897479       3.65048299       2.81928275       0.97574355      -0.58108935      -1.62568550
H        2.74097665       0.61211264       9.02597207       4.09437881       0.02698773      -0.76053453
Pb       4.55152945       4.22622082      12.51862216      -0.08330227       0.21978105       0.15004915
Pb       8.82222432       0.05923405       6.13132413       0.16718908      -0.15570184      -0.03767273
Pb       8.98277686       8.69759443      12.47924535       0.17007082      -0.16600415       0.11008017
Pb       4.30713068       4.43203946       6.12927188       0.31677680       0.62954643       0.04344997
I        7.11054830       6.20263119       6.49073230       0.21097356       0.13782642      -0.02110735
I        8.84669014       0.09989978       3.03417142      -0.24662670      -0.28844775      -0.25891139
I        6.45989844       1.73257241      12.25337704      -0.11146641      -0.26161347       0.15500029
I        2.03577914       2.58091172       0.30140996      -0.43721012      -0.39738820      -0.25682240
I        1.94220026       2.71935327       5.90167493      -0.71256162      -0.48014578      -0.01709877
I        2.65202707       7.14950174       6.21893950      -0.28591804       0.02153293      -0.33405553
I        7.21554581       5.89693718      12.12257263       0.22945964       0.80584793       0.05777474
I        6.22621876       2.01572863       6.44674438       0.44120287      -0.40588366       0.11358660
I        4.15074555       4.55444122       9.46066750      -0.04449200      -0.02355470      -0.07778767
I        0.27938544       0.01472980       9.29774824       0.19437325       0.07106508       0.28764168
I        2.72732824       6.96717697       0.24587515      -0.26910090      -0.11119953      -0.20239876
I        4.91594320       4.12792913       3.03753592      -0.08513679       0.22665710       0.00837519
48
Lattice="9.01938999 0.0 0.0 0.0 8.77776784 0.0 0.0 0.0 12.79618681" Properties=species:S:1:pos:R:3:forces:R:3 config_id=O-FAPI3_al_global_rattle_27__global_rattle__sev-0.553__seed-new phase=O-FAPI3 mode=active_learning seed=1745376292 source=O-FAPI3/CONTCAR energy=-213.65305547 stress="-0.020741379195389143 0.004778442158379048 0.005917217513301516 0.004778442158379048 -0.014197293859301335 0.014677741414213004 0.005917217513301516 0.014677741414213004 -0.0043016154651905406" pbc="T T T"
C        4.56243434       0.26278056       2.95963184       1.18252745       8.12449295      11.49372537
C        9.00780963       4.06537297       9.71241315      -3.34142141      -2.64529753      -1.42914125
C        0.02527179       4.82790872       3.20892753     -18.84158296      -7.82036913       0.19950459
C        4.39274832       8.43025601       9.54112160       1.21461221      -3.34551651       5.61385177
N        5.26226622       8.22367388       2.40812694      -9.67388091      -4.40886966      -8.67225306
N        0.43164771       4.97335352       8.95934681       7.66207354       3.35102315      -1.25464825
N        1.05407942       5.26969869       2.98213777      17.83318209       1.88098510      -2.87505426
N        5.67770194       8.10441245       9.71442330      -6.09559459      15.44730252     -11.54657079
N        3.41542598       0.82944912       3.14741703      -3.04126823      -5.23027724      -8.23751633
N        7.74052879       3.61649644       9.47028421       0.41636710       0.45097147       1.28533977
N        8.23441588       3.82611550       2.41687326      15.16636473       3.68050313       0.67755156
N        4.00281312       0.61247516       8.85030538     -12.66364517      -3.34313507      11.40242035
H        5.08494547       0.75888209       3.99906699       0.36104073      -1.12752601      -2.38934866
H        0.64358011       3.42466605      10.26939213       0.41729459       0.12777678       1.15226065
H        8.33087258       5.24742712       3.92808462       0.45200480       0.31062157       0.41303210
H        3.72818551       8.00829660      10.40786952       0.57043947       0.47267281      -1.72881420
H        6.06841975       7.92950103       2.58718244       9.17255362      -2.59430533       2.52621823
H        1.67344193       5.20839072       8.88399710      -3.62345082      -1.19326497       1.02334195
H        1.60415533       5.71422223       3.75138118      -0.61466764       0.71247268      -0.24184771
H        6.05936094       7.46230039      10.03904695       7.14262017     -14.44690986       7.89130395
H        4.67481405       7.48830962       1.72191568       1.71934664       1.89093756       1.14889015
H        0.15243446       5.33102808       8.06799476      -1.59950868       0.15251732      -0.50743141
H        1.96233695       4.57261638       2.49594883      -2.92362354       2.14050943       0.58762123
H        6.33391154       8.48669873       8.89496804      -1.44165258      -0.63947013       2.14152028
H        2.82161216       0.37311904       2.26471111      -0.03892732       2.15621029       2.78511795
H        7.22963058       4.24888449       8.70519304       0.44688369      -2.04583045       2.29727569
H        8.91754998       3.34719663       1.76669568      -1.64282585       0.19204077       0.39521778
H        4.27396557       0.94570108       8.15902312       7.51084687       7.22396076     -14.96772152
H        3.00624016       1.49142518       3.75373888      -0.03511002       1.06178166       1.27451075
H        7.38909710       2.94547471      10.31943226      -0.11580320       1.65782412      -2.46737318
H        7.36392678       3.68740966       2.44317684      -8.86195677      -1.25887556       0.79912454
H        2.81599299       0.90239939       8.75485402       3.46396557      -1.42188488       1.09451547
Pb       4.58814826       4.32414367      12.54309090      -0.28668777      -0.04316504      -0.06304842
Pb       8.97639041       8.76715289       6.35491178      -0.05411217       0.33683938      -0.50824050
Pb       8.86398103       8.65044904      12.57306060       0.35725507       0.10535011       0.45595438
Pb       4.45481913       4.55284367       6.08214378      -0.03934019      -0.22627311       0.43413296
I        7.30134998       6.12360214       6.38347018      -0.24545058       0.01807686       0.06765503
I        8.52255915       8.77066970       3.06263103       0.30411083       0.00063304      -0.01064248
I        6.45089672       1.75008160      12.25186940      -0.05450201       0.01290493       0.03073239
I        1.94801074       2.49392904       0.00371205      -0.00797300      -0.02196616       0.14366810
I        1.77359377       2.66507541       6.00212833       0.09584804       0.06882062      -0.04273828
I        2.66011331       7.06817879       5.95827989      -0.33197888       0.31032298      -0.08290691
I        7.21060562       6.09878678      12.39450529      -0.01096683      -0.12414106      -0.00317996
I        6.19279299       2.03875289       6.31674050       0.38750668      -0.57303435       0.11946841
I        4.00900142       4.42745545       9.41113806      -0.06585694       0.10017616      -0.05703868
I        0.31230774       8.73248316       9.44774591       0.25635716       0.09387696      -0.08450589
I        2.71771547       6.82705087      12.73496281      -0.01083006       0.21707759       0.21891030
I        4.90083347       4.23566342       3.09614322      -0.47058293       0.21142939      -0.50284395
48
Lattice="9.01938999 0.0 0.0 0.0 8.77776784 0.0 0.0 0.0 12.79618681" Properties=species:S:1:pos:R:3:forces:R:3 config_id=O-FAPI3_al_global_rattle_28__global_rattle__sev-0.567__seed-parity phase=O-FAPI3 mode=active_learning seed=3256580899 source=O-FAPI3/CONTCAR energy=-201.08221316 stress="-0.047159316968607715 -0.012937486111643555 0.004432125839193871 -0.012937486111643555 -0.022146064222484507 -0.01050314534086603 0.004432125839193871 -0.01050314534086603 -0.03674668622402108" pbc="T T T"
C        4.53428519       0.50193173       3.32456399      -2.42413914      -7.58944122      -8.31064782
C        8.92167888       4.20431125       9.40530914      36.56063471       4.85959372       2.06593685
C        8.95027395       4.54612253       3.06165558      -2.24947991       0.01205229       0.07497854
C        4.26789606       8.14250981       9.76993239      21.78445212      17.03682905     -25.15521915
N        5.18622158       8.14541639       2.50558769      -3.90654430       4.09852137       2.12952486
N        0.60853022       5.08888659       8.83398551      12.94939377      -4.22827645      16.77107603
N        0.99730534       5.18200036       3.18087625       5.46426712      -7.22346742      -9.54576829
N        5.54411188       8.15295860       9.53628221       6.59556064      -4.24861514       4.59160810
N        3.25555044       0.83627383       3.13354584      16.06724112     -14.78898462      -3.76782149
N        7.96481270       3.87972186       9.65329093     -35.52751621     -11.21976741       2.58598243
N        8.48775855       3.71299782       2.16481064     -15.05458897      15.85912821      21.95293969
N        3.88551289       0.27500554       8.57479989      -6.85658289      -0.90645071       4.49665381
H        5.16976264       0.87663208       3.94209146       3.61253929       2.82074788       4.33084151
H        0.72005109       3.67742073      10.18536712      -0.99057851       0.62277170      -1.07995211
H        8.43728848       4.96494776       3.84899523      -3.65013338      -0.04787619       1.64336995
H        3.70436458       7.85788876      10.22595394     -19.78958376     -11.02152796      16.99973369
H        6.16218821       7.96434131       2.71381351       0.33894823       0.10761152       0.02414940
H        1.72670828       5.05466734       8.81912491      -2.74085114      -0.25325965       0.38290881
H        1.38686840       5.76506280       3.75986441       2.24044046       4.18789725       4.81283482
H        6.15037299       7.47052191      10.25927265      -1.57175524       1.57557901      -1.72551544
H        4.70159830       7.73069592       1.64458986       0.52675338       0.58109967       1.33712778
H        0.28355853       5.29955170       8.16157596      -9.62545484       8.36472678     -21.82611495
H        1.76493029       4.53204650       2.45788427      -1.41183204       3.13566459       2.26229793
H        6.45021278       8.64077102       8.93756898      -3.89583043      -0.87999357       1.27670790
H        2.79022415       0.45167558       2.50961951      -5.73481516      -4.83076762      -7.58161786
H        7.41189802       4.19825117       8.74226359      -1.68750292      -0.46565739       1.84046656
H        8.74775356       3.26064722       1.61154204      10.51593820     -16.04951537     -20.24251559
H        4.47090792       1.02315461       8.11694491      -0.14781184      -0.82411557       0.97200432
H        2.98298790       1.46573467       3.50316459      -8.62395020      19.36613432      11.62143559
H        7.50008195       2.97600458      10.16450985       1.32582352       2.14455051      -0.68389006
H        7.31389874       3.55596715       2.37145025       3.71647606       0.33664856      -0.69968572
H        2.64237533       0.62336538       8.89046084       4.12281470      -0.76005450      -1.53699471
Pb       4.68264739       4.19025269      12.49966871      -0.15936369       0.29201857      -0.26238519
Pb       0.16457708       0.05005750       6.31774103      -0.15071505      -0.17920866      -0.61680068
Pb       0.07848303       0.01496372      12.50602265       0.08922893      -0.34382683       0.56236118
Pb       4.50944038       4.38032217       5.93055580       0.17741561       0.45784772       0.88895090
I        7.22261467       6.14036574       6.45976040       0.07462705       0.23767226      -0.03026897
I        8.57878449       0.09499107       3.08438314       0.23914667      -0.05521030      -0.10317462
I        6.42981264       1.58563924      12.09415320       0.15314668       0.07358515      -0.03719386
I        1.82819436       2.61675345       0.00486895       0.26480100      -0.04470046      -0.04624878
I        2.04191350       2.61392912       5.91993983      -0.51831879      -0.15277738       0.13197091
I        2.66990143       6.99817530       6.05036227      -0.20804724       0.09789554      -0.19024475
I        7.23111482       6.14321896      12.27507068      -0.01354377       0.02044117       0.04724842
I        6.34927733       1.98483115       6.29710232       0.41626160      -0.40840973       0.32890917
I        4.27345534       4.52545036       9.39606262      -0.19462019      -0.07918833       0.05740819
I        0.35558602       0.09118705       9.42784668      -0.10108794       0.08607982       0.00522732
I        2.90298961       6.75833912       0.07988608      -0.31635835       0.29974275       0.05697028
I        4.78156006       4.27415823       3.01140048       0.31509505      -0.07374691      -0.80956490
48
Lattice="9.01938999 0.0 0.0 0.0 8.77776784 0.0 0.0 0.0 12.79618681" Properties=species:S:1:pos:R:3:forces:R:3 config_id=O-FAPI3_al_global_rattle_29__global_rattle__sev-0.580__seed-new phase=O-FAPI3 mode=active_learning seed=108919566 source=O-FAPI3/CONTCAR energy=-206.52835075 stress="-0.09474943176002684 -0.01607056940273136 0.00417794355697042 -0.01607056940273136 0.0004966743364427953 0.0005397362243172735 0.00417794355697042 0.0005397362243172735 0.0011974254804954399" pbc="T T T"
C        4.65870443       0.53377799       3.13680976      13.73208418      -5.31373592       0.20183987
C        0.02741886       3.99765117       9.66272044      32.45092294       9.77644179       6.24559861
C        0.03851325       4.83082847       2.95423914     -24.15452836     -13.54968922       0.78653912
C        4.63162434       8.45897757       9.68777332     -18.21005302       5.21871465      -1.53924356
N        5.34817871       8.31117172       2.41474205     -13.20095856       3.40738734      -2.89733107
N        0.65307482       4.91586178       8.78966681      -0.85251670       0.60129827       0.40245103
N        1.01897361       5.24932733       2.95584250      31.74025003       9.41363660      -0.67596109
N        5.74631307       8.27635313       9.38676798      -2.17338319      -8.05363652      13.35904981
N        3.52518258       0.76735519       3.14360671     -17.72627943       2.33104075      -1.55462118
N        8.09648136       3.79464791       9.27217864     -38.03809975     -10.12456819      -6.68740668
N        8.47732519       3.59582111       2.50148459       1.78480963       3.90041896       3.33844226
N        3.79322523       0.52295729       8.79153569      12.16462739      -1.77484621      -0.09298842
H        5.13586308       1.03005727       3.95957553       1.57282609       0.41880324       0.27682819
H        0.80961625       3.52121728      10.39641502      -1.90392727       0.46813545      -0.65622201
H        8.54826648       5.06951169       3.79858299      -3.22261609       1.66556457       2.35149742
H        3.72386089       7.99708818      10.40894952       3.46644888       0.44178083      -0.82877685
H        6.13077999       7.89666402       2.55062758       6.87451170      -2.97592058       1.67421609
H        1.56386887       5.09854652       9.03689861       2.70174069       1.24309603       0.26662317
H        1.62342481       5.96003502       3.89227936      -1.83994778      -1.45896785      -2.20747371
H        6.05080371       7.62263273      10.11874007       1.71568743      -0.53703557       0.05774489
H        4.48618469       7.65862798       1.77259344       3.22973263       2.07961342       1.93288308
H        0.10084472       5.60834769       8.19600295       0.87597100      -1.35626594       1.13509629
H        1.96343001       4.59296799       2.40473710      -2.65221898       2.40996106       1.24959092
H        6.29443511       8.45111857       8.81719614      11.98807343       4.73110598     -13.42271170
H        2.71959466       0.23847870       2.43249484       2.67180697       1.52149813       2.13335834
H        7.00140223       4.17258111       8.76529519       4.07766394      -0.31671129       0.54100582
H        8.90787696       3.29239202       1.71568611       0.97992036      -1.70100147      -3.58779912
H        4.32520887       1.14586561       8.06090951      -0.80495178      -1.52500542       1.49983460
H        2.94086988       1.47565056       3.87502024       1.98246389      -1.62153679      -1.68168683
H        7.55050467       3.21097445      10.01296998       0.16193340      -0.31674803      -1.08300647
H        7.52857069       3.80076557       2.58650783      -2.45443539      -0.64818795      -0.62455292
H        2.92819168       0.74172884       8.76936988      -8.05029286       1.29641340       1.01118314
Pb       4.37761478       4.32492559      12.57903437       0.83564617       0.49944875      -0.23785689
Pb       0.01295157       8.65762618       6.21365416      -0.08760945       0.67107964      -0.22181723
Pb       0.01150577       0.06270346      12.53614347      -0.13666373      -0.46898736       0.20291393
Pb       4.63766661       4.60741874       6.04432670      -0.94830405      -0.86691161       0.47658868
I        7.03146899       6.18535409       6.37179084       1.09411215       0.84889114       0.20233284
I        8.53275277       8.52012780       2.90838631       0.64955366       0.22235167       0.38808446
I        6.53933130       1.62486007      12.09061428      -0.57263821       0.73917838       0.03959243
I        2.03111738       2.59204579       0.05362255      -0.53961303      -0.44847393       0.10409119
I        2.02752748       2.76701304       6.03731029      -0.29941923      -0.60172395      -0.30932869
I        2.59928086       7.00492049       5.95144686      -0.25231486       0.02231808      -0.51187304
I        7.19915244       6.13869841      12.19832503      -0.01216123       0.12536078      -0.06819779
I        6.41016913       2.06076402       6.51004033       0.17621101      -0.30217837       0.04330814
I        4.01678488       4.44408590       9.48510834       0.58395141      -0.00272991       0.00501669
I        0.30805988       0.12096387       9.41491153       0.00858893      -0.09827749      -0.37632038
I        2.49641211       6.90966643       0.12294141       0.57010178      -0.15871638       0.04029345
I        4.69883882       4.20065592       3.11516655       0.04329326       0.16831707      -0.70082884
48
Lattice="9.01938999 0.0 0.0 0.0 8.77776784 0.0 0.0 0.0 12.79618681" Properties=species:S:1:pos:R:3:forces:R:3 config_id=O-FAPI3_al_global_rattle_30__global_rattle__sev-0.593__seed-new phase=O-FAPI3 mode=active_learning seed=1665721743 source=O-FAPI3/CONTCAR energy=-205.99763073 stress="-0.01392750935215744 0.011567595818959038 -0.014970225778243989 0.011567595818959038 -0.004463195809479134 0.00017194380845630174 -0.014970225778243989 0.00017194380845630174 0.00019273677195826925" pbc="T T T"
C        4.69460160       0.50180322       3.08775635       2.41979670      -5.24231847      -0.06869986
C        0.05062214       3.98996860       9.56106523      -2.26442564       2.09576173      -1.20015432
C        8.84763095       4.85437588       3.32872556       8.40155232      -5.17258439      -9.94821610
C        4.39191619       8.40368825       9.84889037       0.18239426       3.88398922      -8.16100199
N        5.24408944       7.99491805       2.49597327       7.55176821       8.02636981       8.89879467
N        0.80510412       4.98642748       8.87846121     -16.03032645      -3.30354409      -1.42793335
N        1.32265485       5.07035102       2.86073984     -13.76829267      13.50408946      13.85672542
N        5.67861966       8.12635521       9.57982815      -7.91944719       9.58736642      -5.46660879
N        3.42374664       0.64725592       3.17847888      -3.40789620       2.84176704      -0.84435173
N        7.58500817       3.73099329       9.56274792      14.58957475      -8.55388389      13.17298621
N        8.28231732       3.97935848       2.56628013       9.92931428       0.11145271      -2.22788745
N        3.66491701       0.55033357       8.72946318      30.88000495     -13.73716854       1.67220698
H        5.35015089       0.91243677       3.87442202       0.04201560       0.42561950      -0.56123564
H        0.59521751       3.43325746      10.29199506       0.31982180      -0.54675557       0.57407164
H        8.28635215       5.16195703       4.02663279      -3.23069670       3.80306763       5.94613655
H        3.71687736       7.67811393      10.20339132      -0.71001771      -0.70712324       1.61742380
H        6.34157658       7.96484928       2.17222130      -2.77324278       0.69909084       1.58183050
H        1.67105855       5.17828008       8.81370457       8.45877621       1.13069093      -0.05623630
H        1.44284273       5.85924860       3.76086392       1.89422946      -2.77477012      -3.44936493
H        6.13285229       7.51538034       9.92324952       6.25083615     -11.76314250       8.31071257
H        4.83463818       7.65756737       1.81892459      -6.49332121      -4.51658540      -9.02363634
H        0.05798394       5.39355554       8.00400653       2.78154783      -0.73786024       2.61613613
H        1.79462879       4.51874933       2.42422953       7.41597195      -8.81600953      -6.19978308
H        6.45266732       8.25154496       8.90940994      -1.06058445       2.49880260      -1.42604238
H        2.81190487       0.24960636       2.36936076       0.87766592       0.55163205       1.77356678
H        7.17242222       4.12392972       8.96191347      -8.67058599       7.11023862     -11.36771968
H        0.23301531       3.40157525       1.63487051      -2.51046226       0.93294876       1.56670322
H        4.30949665       1.24540998       8.10510217      -0.70068105      -2.24820139       1.70703978
H        2.86701532       1.64833963       3.84079467       1.54895841      -2.77875520      -1.38059876
H        7.30535296       2.76955086      10.36896387       0.15429112       2.81443259      -2.33618803
H        7.40300860       3.79315472       2.51504547      -7.45429701      -1.79791636      -0.11902036
H        2.99461164       0.90008697       8.71746356     -26.58319104      12.40472894       1.30188627
Pb       4.47755395       4.26244553      12.66089490       0.10594762       0.23566031       0.02949734
Pb       0.08576917       8.74171333       6.24665117      -0.31434028       0.49063013      -0.14981394
Pb       8.99935747       8.61762493      12.51137619       0.07452103       0.00845997       0.41001230
Pb       4.35881151       4.65210214       6.28486161       0.73830295      -1.22666414       0.01963942
I        7.18922949       6.26705220       6.34321005       0.00120537      -0.05241443       0.37728871
I        8.69995576       0.21963046       2.85461686       0.06717961      -0.11893376       0.39286556
I        6.35518575       1.62398984      12.13585149      -0.09141331       0.44586960      -0.02287460
I        1.79582260       2.53087001       0.10140594      -0.21659928       0.45292471       0.39865981
I        1.80568846       2.67088551       5.73148386       0.21343534      -0.10999256      -0.18925121
I        2.64058137       6.90184062       5.94172930      -0.77747349       1.07630456      -0.20262395
I        7.30228096       6.17407009      12.33900452      -0.43360179      -0.48702363       0.04202318
I        6.25807380       1.97523081       6.41407098       0.25440508      -0.25182302       0.04133733
I        4.00433866       4.31244914       9.46019327       0.29385105       0.03107108      -0.11926652
I        0.33209980       0.06935428       9.45984022      -0.15228736      -0.02235948      -0.62528489
I        2.65424106       7.02031898      12.69120587       0.22601849      -0.23773229       0.19678104
I        4.84761799       4.25406039       2.96908796      -0.11020259       0.04059301       0.06946899
24
Lattice="8.90464395 0.07918949 0.0812244 0.07918949 9.09862223 -0.01849947 0.05742749 -0.01307954 6.23444514" Properties=species:S:1:pos:R:3:forces:R:3 config_id=t-FAPI3_al_combined_01__combined_strain_rattle_fa_rotation__sev-0.208__seed-new phase=t-FAPI3 mode=active_learning seed=469357205 source=t-FAPI3/CONTCAR energy=-111.71877582 stress="-0.004205628663234081 0.00781509702953219 -0.0006853537030466198 0.00781509702953219 -0.00013041776873242965 0.0032313948492238543 -0.0006853537030466198 0.0032313948492238543 -0.007781190624149195" pbc="T T T"
C        4.36563617       4.64269851       3.57292875      -0.95515406      -4.22617115      -1.03219395
C        0.10834823       0.19742788       3.50239481       2.96457300      -1.65596800       7.35223719
N        5.20108651       5.58610803       3.30484201      -0.71624289      -0.02022223       0.86662338
N        3.96537037       3.66909513       2.69437801      -2.05624861      -0.85935042       5.25972574
N        0.84697630       8.22214083       3.29611148       3.04220729      -4.56417743      -0.29029689
N        8.28624741       0.80878186       2.77881483      -7.37973016       6.55654428      -5.91922665
H        4.10068145       4.40810532       4.63919924       0.03528817       0.64299361      -0.93659345
H        5.40725471       6.16663611       4.08327654       0.68332525       1.04886183       0.79238365
H        5.61817445       5.78339325       2.43469120       0.57060423       0.29949983      -1.54073484
H        4.07657703       3.58371647       1.74920894       0.93911091       0.52617705      -3.27619612
H        3.34468894       2.80658612       3.02386200       1.60857875       2.46970529      -0.26233060
H        0.12813601       0.56654412       4.59650483       0.15154757       0.03821806      -1.66380816
H        1.51640443       7.70210817       4.02729483      -1.90050583       1.57155426      -1.56822971
H        0.72930391       7.71271296       2.38589613       0.41631376       0.40065479       0.91617712
H        7.93426412       0.56218205       1.81124248       1.13547261      -0.43920828       1.05419591
H        7.73983924       1.73663715       3.00273519       1.43924537      -2.01493678       0.03234753
Pb       8.97970588       4.64037699       6.14757320       0.01884868       0.00067176       0.21035456
Pb       4.40584786       0.08303242       6.21153055       0.14099645      -0.07628817      -0.00851470
I        8.91357149       4.64664013       3.14013226       0.00173538      -0.05650969      -0.24821657
I        4.50095960       0.05130240       3.09064400       0.01446710       0.02395294       0.01472258
I        1.94622808       1.95969845       6.19019350       0.19113409       0.01813923       0.09590793
I        2.60026085       6.45427953       6.23578931       0.20708386       0.39159560       0.01739950
I        6.61108185       2.61623883       6.24353829      -0.42425667      -0.33873029      -0.03008786
I        7.02818146       7.07140520       6.19277594      -0.12839424       0.26299392       0.16435440
24
Lattice="8.84733841 -0.08289947 -0.03224379 -0.08289947 8.91463523 0.00967922 -0.02279709 0.00684343 6.38663221" Properties=species:S:1:pos:R:3:forces:R:3 config_id=t-FAPI3_al_combined_02__combined_strain_rattle_fa_rotation__sev-0.224__seed-new phase=t-FAPI3 mode=active_learning seed=46993116 source=t-FAPI3/CONTCAR energy=-110.84981745 stress="-0.01840275196705704 0.005288942448660153 -0.003339338322967495 0.005288942448660153 -0.013625858071190251 -0.01499387005660144 -0.003339338322967495 -0.01499387005660144 -0.007778747897205617" pbc="T T T"
C        4.39951859       4.35337896       3.72189028       5.51942107       6.11003452     -10.37086567
C        0.03398732       8.88596145       3.60084826      -5.02341924       4.73010204       7.22196675
N        5.20257604       5.27048693       2.96948108      -1.67066779      -2.34258103       5.49360030
N        3.64806034       3.64941467       3.06888304      -6.15582523      -6.78348608       2.06744978
N        0.73531201       8.21157038       2.90550301       5.52492499      -5.29367082      -6.10857655
N        7.97946086       0.63438568       3.17804781      -3.03708604       1.34452154      -2.06627023
H        4.41921650       4.45016764       4.64182820       0.24459589       0.44278920       8.98589666
H        5.78150823       5.82508750       3.59338532       0.34024405       0.39373525      -0.75594645
H        5.17559582       5.30051127       1.99454630       0.22500276       0.27325843      -1.83428035
H        3.46264543       3.50049769       2.11468983       0.17479693       0.22547322      -1.83074513
H        3.04092735       2.95374735       3.70350903       1.20267701       1.56431949      -1.73476303
H        0.20030881       0.02245984       4.73990358       0.62319909      -0.36808044      -1.56637285
H        1.58127179       7.82726799       3.31416635       0.26955031      -0.45874456      -0.19256486
H        0.62120179       8.09537608       1.85709056       0.21766852       0.19276900       1.37583136
H        7.63014518       0.62370969       2.12978804       0.67810179       0.31783305       2.57841251
H        7.38292076       1.09764742       3.92774854       0.70750410      -0.55478285      -1.35312797
Pb      -0.05080793       4.50040299       6.34358228       0.08857603      -0.06321782       0.04574422
Pb       4.43644253      -0.02043492      -0.00531956      -0.10949820      -0.10861897      -0.00544820
I        8.77423081       4.28744402       3.16064194       0.10365959       0.05222993      -0.08053198
I        4.32513018       8.82381476       3.17376140      -0.05172371       0.08161276      -0.01623135
I        1.85220595       1.92376796       6.34771210       0.25258657      -0.10340958       0.03187901
I        2.50069508       6.29770499       6.24523857       0.05429515       0.06264844       0.07701204
I        6.37455014       2.38397741       6.23689059      -0.06648623      -0.01914857       0.03688041
I        6.85007502       6.82777186       6.30746024      -0.11209741       0.30441385       0.00105158
24
Lattice="8.89174907 -0.04618733 0.06792418 -0.04618733 8.86189616 -0.03776555 0.04802393 -0.0267011 6.24721006" Properties=species:S:1:pos:R:3:forces:R:3 config_id=t-FAPI3_al_combined_03__combined_strain_rattle_fa_rotation__sev-0.240__seed-parity phase=t-FAPI3 mode=active_learning seed=4025090763 source=t-FAPI3/CONTCAR energy=-112.19311359 stress="-0.004321541202207012 -0.0011914381505871991 -0.002572321270012131 -0.0011914381505871991 -0.0036620970895645216 -0.004203234488989992 -0.002572321270012131 -0.004203234488989992 -0.0003335838839872304" pbc="T T T"
C        4.42494586       4.47501100       3.60781001       1.09115830      -0.43317644      -4.31725331
C        0.03409017       0.02762328       3.56129069       3.57832317      -5.08792889       3.07397713
N        5.35342449       5.25098614       3.01137062      -4.81495118      -4.49204814      -3.49845151
N        3.64908513       3.59831123       2.94597378      -0.24262690       0.38524661       1.50829673
N        0.86552978       7.96974389       2.93354311      -2.59913061       3.05350677       2.48163956
N        8.09113139       0.75160885       3.05004615       1.37116299      -1.02884159      -3.37786892
H        4.42784024       4.47798494       4.64177307      -0.44141007       0.06277282       2.18413530
H        5.91460298       5.75355211       3.53835428       3.60261472       3.25215422       3.15800576
H        5.52169995       5.16342395       1.98414983      -0.02374097       0.38317939       0.98248654
H        3.58520853       3.40767317       1.92313536       0.22997933       0.43154201       0.81894145
H        2.96310066       3.09922639       3.56259970       0.61342157       0.30185844      -0.82463302
H        8.87046069       8.66515033       4.78972045      -0.17635438       1.03621815      -2.70930579
H        1.47594361       7.37915408       3.51514194      -0.35233902       0.30454509      -0.44025688
H        0.79853990       7.94160847       1.95263854       0.64371015      -0.64407788      -1.64458949
H        8.04969534       0.84714875       2.00980089      -0.23237262       0.19088139       0.95167169
H        7.56425014       1.28294766       3.63977708      -2.30890306       2.26528083       1.66288293
Pb       8.86448919       4.43587464       0.05611379       0.10454629      -0.04369589      -0.01076843
Pb       4.49169611      -0.02448043       6.21773538      -0.04204859       0.04405927       0.10613726
I        0.07851553       4.44894112       3.10337044      -0.05900926      -0.06802053      -0.02279915
I        4.49582677       0.00661940       3.15348092       0.03973791       0.00502788      -0.12042958
I        1.95652073       1.95705736       6.11352981       0.13747433      -0.12270808       0.08725147
I        2.56164713       6.35515597       6.20697073      -0.06929768      -0.06388608      -0.03815880
I        6.43720806       2.47372183       6.21880273      -0.02698697       0.00193204       0.03839787
I        6.87060803       6.82343449       0.05129352      -0.02295743       0.26617863      -0.04930882
24
Lattice="8.74282511 -0.07514311 0.06668691 -0.07514311 8.8286651 0.06135516 0.04714915 0.04337949 6.22347524" Properties=species:S:1:pos:R:3:forces:R:3 config_id=t-FAPI3_al_combined_04__combined_strain_rattle_fa_rotation__sev-0.256__seed-new phase=t-FAPI3 mode=active_learning seed=1887064011 source=t-FAPI3/CONTCAR energy=-110.01469132 stress="-0.03342010434109563 -0.010615216274662545 0.0032520558235323367 -0.010615216274662545 -0.028276830482883056 -0.01583212167166333 0.0032520558235323367 -0.01583212167166333 -0.037631919145028135" pbc="T T T"
C        4.28015393       4.27556303       3.57000952       8.50965958       5.73909524       9.27090684
C        8.75849962      -0.00868903       3.64521154      -5.51073697       3.24730343      -0.58614244
N        5.19914021       5.16052078       3.25280899      -1.38686997      -0.88683695       1.91556145
N        3.56760280       3.71310875       2.83577002      -5.62196025      -3.41414388      -9.60114543
N        0.74358802       8.22047938       3.01019172       8.88319026      -4.68137227      -4.58977823
N        7.65805366       0.56827128       3.05966519       9.94242728      -5.68216635      -3.17710746
H        4.35720222       4.03015174       4.67108778      -0.73783022      -0.01688372      -0.93216342
H        5.75770728       5.62553696       3.91482625       0.83559047       0.55781114       1.25498540
H        5.38538512       5.31241328       2.34309576       0.96768660       1.06237743      -4.09215421
H        3.47579162       3.91617756       1.79952632       0.04139340      -0.38242129       1.23718642
H        2.96287955       3.08992463       3.21866419      -2.67147759      -2.65566682       0.92582861
H        0.16373177       0.17100894       4.58380160       0.13516458       0.38230784       2.85915320
H        1.79436534       7.91035530       3.39587112      -3.16990495       1.02548793      -0.30359158
H        0.93783195       8.09002560       1.92874967      -1.42215248       0.47364163       2.05471348
H        7.74671631       0.48357846       2.08879757      -1.24554798       0.53195970      -1.85349475
H        7.08519693       0.93552912       3.60290186      -7.09219908       4.73062480       5.53137154
Pb       0.00988506       4.42213217       6.17589703      -0.19283020       0.10384084       0.03753282
Pb       4.31826970       8.77999712       6.30447210       0.27927788       0.30243229      -0.09587560
I        8.70734435       4.23666643       3.16526562       0.07347722       0.06796790      -0.04635533
I        4.47310725       0.01704624       3.10037419      -0.56554008      -0.12241557       0.13068285
I        1.84061498       2.03693262       6.22717665       0.56204068      -0.60738659       0.00549716
I        2.41000382       6.41819268       0.13494108      -0.30286762      -0.47939950       0.01774935
I        6.24125115       2.36632026       0.07782939       0.03439691       0.23113060      -0.02948079
I        6.85879143       6.77768791       6.25114126      -0.34438747       0.47271218       0.06612012
24
Lattice="9.08459698 0.08810917 0.04713639 0.08810917 9.07191559 -0.03232245 0.03332649 -0.02285271 6.48687712" Properties=species:S:1:pos:R:3:forces:R:3 config_id=t-FAPI3_al_combined_05__combined_strain_rattle_fa_rotation__sev-0.272__seed-new phase=t-FAPI3 mode=active_learning seed=4055266350 source=t-FAPI3/CONTCAR energy=-111.42425341 stress="0.006956767958849996 0.003926098420322175 0.0024697454941167494 0.003926098420322175 0.003421121328847692 0.00235786410246937 0.0024697454941167494 0.00235786410246937 0.0280884981941187" pbc="T T T"
C        4.62744803       4.58468936       3.67010567      -2.64993462      -4.23801855       1.04996996
C        9.15184994       9.10042698       3.67423598       3.87249368      -2.11072863       3.92381709
N        5.49809463       5.33146226       3.08208644      -1.00729799      -0.36377942      -0.98643433
N        3.70486118       3.71272131       3.06753937       1.65207259       2.75497543      -1.72587831
N        0.93855467       8.23612700       3.04731965       2.39637635      -2.77019931       0.95639488
N        8.38124699       0.88003589       3.14079463      -8.04526005       7.11422589      -3.93850076
H        4.71558076       4.35883566       4.80995547      -0.06949097       0.85373670      -1.80903356
H        6.11061518       5.86795539       3.61077957       1.54534282       1.21328062       1.45670438
H        5.47386912       5.58111457       2.11270066      -0.12798253      -0.00274836      -0.95252831
H        3.47691422       3.77089147       1.95295239       0.48423331      -0.26672023       3.34988236
H        3.04141310       3.25382943       3.70395320       0.13861932       0.08828095      -0.40867924
H        0.11617380       0.00898620       4.79193746      -0.60849393      -0.19978163      -1.23039249
H        1.60587969       7.64680453       3.71323061      -1.76898317       1.40913757      -1.95391771
H        1.02969938       8.08669576       2.02515830      -0.01893612       0.09637856       0.67500873
H        8.10425955       1.00146330       2.03987423       1.31170102      -0.74898235       2.94716406
H        7.59530063       1.58822046       3.69746677       2.86934197      -2.61951015      -1.32117037
Pb       9.14208771       4.66431054       6.43436255       0.21246057      -0.13152029       0.01754432
Pb       4.65295068       0.04607911       6.50698432      -0.24023388       0.04123916      -0.01005196
I        0.12423121       4.67418117       3.10421063      -0.10130216      -0.12784039       0.06056721
I        4.69060223       9.09357028       3.10926166       0.04964151      -0.02044463       0.05135656
I        2.02278585       1.96233631       6.42665249       0.02967107       0.06454839      -0.03286116
I        2.65232076       6.55314206       0.05047018      -0.00157081      -0.00914866      -0.12532272
I        6.57216431       2.64348839       6.41424913       0.10529813      -0.07017270       0.00609610
I        7.21684779       7.13855386       6.41126920      -0.02776611       0.04379206       0.00026529
24
Lattice="8.8575046 0.00079552 0.04116061 0.00079552 8.93903908 0.06718785 0.02910149 0.04750333 6.45348103" Properties=species:S:1:pos:R:3:forces:R:3 config_id=t-FAPI3_al_combined_06__combined_strain_rattle_fa_rotation__sev-0.288__seed-new phase=t-FAPI3 mode=active_learning seed=3681915892 source=t-FAPI3/CONTCAR energy=-108.82518598 stress="-0.030745553936121946 -0.013926619306714577 0.001910945385329143 -0.013926619306714577 -0.03379350774883059 0.007775348559124351 0.001910945385329143 0.007775348559124351 0.00590398067054356" pbc="T T T"
C        4.60166611       4.46543519       3.65664469     -16.77821616     -18.29113168       8.20686143
C        8.73749356       8.93725753       3.73745150       4.42243751      -5.52523187       5.00717884
N        5.35316780       5.21244597       3.32351111       3.98269371      10.43750468     -15.78718743
N        3.46975935       3.79421072       3.04266968       4.62100517       4.85249774      -2.49065796
N        0.73815259       8.06288872       3.18540012      -1.49872799       2.90692661      -6.89633266
N        8.11051990       0.91310374       3.14364154      -0.16290745       0.76556653      -5.40924216
H        4.70780654       3.94962088       4.72381593       0.05580615       1.21639980      -1.73454446
H        5.92197246       5.59921255       3.83969995       8.16725315       5.08300674       7.02307500
H        5.17595422       5.80112945       2.39201394       0.80031534      -1.22744835       1.67531739
H        3.26947776       4.09011137       2.02784575      -0.06897561      -0.84260532       1.90593765
H        2.89984097       3.15252485       3.51413112      -0.76293916      -1.01281143       1.04474334
H        8.74228324       8.74464238       4.86781593      -0.66942898       0.82406436      -1.25759720
H        1.18927554       7.42552084       3.72013501       1.64694576      -2.50222515       2.23167607
H        0.97695752       8.01172048       2.03662363      -0.71501761       0.07506875       3.73481330
H        8.24781256       1.05353513       2.13078536      -0.53926790       0.51271080       0.35419840
H        7.65654836       1.52923685       3.69107854      -2.33263070       2.99274991       2.05875560
Pb       8.85458352       4.48001782       6.49691902       0.04174517      -0.01139820       0.09814375
Pb       4.38176271       8.86202587       0.11298148       0.07729607       0.16413943      -0.02964244
I        8.85875613       4.38672827       3.36904016      -0.06405029       0.11296566      -0.19674264
I        4.50658116       0.04903454       3.16278715      -0.02869960      -0.14887617      -0.00726336
I        2.01883595       2.01990648       6.33829530      -0.09721403      -0.10501642       0.03878868
I        2.46894735       6.41496180       6.47618524       0.32101579       0.23009722       0.06294397
I        6.43246128       2.65153857       6.34874595      -0.29757170      -0.46015844       0.17147608
I        7.00651266       7.05663640       6.36879900      -0.12086665      -0.04679522       0.19530080
24
Lattice="9.16700883 -0.0983532 -0.0378853 -0.0983532 8.84376049 -0.07123005 -0.02678576 -0.05036126 6.3213855" Properties=species:S:1:pos:R:3:forces:R:3 config_id=t-FAPI3_al_combined_07__combined_strain_rattle_fa_rotation__sev-0.304__seed-new phase=t-FAPI3 mode=active_learning seed=2262441931 source=t-FAPI3/CONTCAR energy=-109.94367264 stress="0.009075763864747564 -0.0033427957258081596 -0.002101886893293007 -0.0033427957258081596 0.012964146948810602 -0.007355853560087101 -0.002101886893293007 -0.007355853560087101 -0.016544513710831953" pbc="T T T"
C        4.62194943       4.56965482       3.60617251      -3.67724971      -4.78144313     -10.97651218
C        8.97805840       8.48994019       3.41670548      -1.07217281       4.09509298      -3.61217763
N        5.37042185       5.00584667       2.43230437      -2.60654758      -1.39425548      10.86701526
N        3.54987304       3.51567140       3.47005737       7.13643899       7.34773923      -2.73658722
N        0.99240760       8.35878357       2.91215807      -0.49797031      -4.16469390       6.50424026
N        8.15791016       0.57652634       3.00021218       3.91461454      -1.06801081      -2.45104536
H        4.98652616       4.63839390       4.50073358       2.17091000       1.18704091       5.36878379
H        6.07498853       5.59634703       2.75268656       1.81824056       1.45309569      -0.33631015
H        5.10035248       4.84209962       1.57270259      -1.66523637      -0.88515804      -5.66701662
H        3.30776782       3.20013919       2.57389627      -0.82815712      -0.76745524      -1.29362201
H        3.27397098       3.26752397       4.31535042      -2.38448355      -2.14097245       4.63878404
H        8.69921149       8.05843280       4.32664645      -0.21177676      -0.95058747       1.51030488
H        1.59598037       7.62848574       3.52757557      -1.45163763       1.96410435      -1.87656139
H        1.38929334       8.59927360       2.09266418       1.26753684       1.50332467      -3.73700678
H        8.30282012       1.12954189       2.00629892      -0.59524367      -1.66421763       3.18144320
H        7.34248847       0.70765503       3.54765201      -1.20662695       0.34079194       0.36807044
Pb       9.03351039       4.25462783       6.21122346       0.16812358      -0.03438318      -0.04322157
Pb       4.53381048       8.70055860       6.21550075      -0.15471341      -0.10663202      -0.00386930
I        9.02750104       4.35512769       3.01155676       0.01813889       0.02238282       0.05178725
I        4.61390832      -0.02628186       3.11892183      -0.05297864      -0.04566916      -0.00296434
I        1.92983668       1.89417799       6.19081801       0.04806701      -0.22671157       0.28841549
I        2.49816577       6.26354487       6.16477111      -0.04412043      -0.06167619      -0.06001215
I        6.46880525       2.33887054       6.25654239       0.14992089       0.25739076      -0.00449210
I        7.15063308       6.80462260       6.19834092      -0.24307635       0.12090291       0.02255417
24
Lattice="8.74189679 0.08527266 -0.02570773 0.08527266 8.88911771 0.00734461 -0.01817595 0.0051928 6.26586137" Properties=species:S:1:pos:R:3:forces:R:3 config_id=t-FAPI3_al_combined_08__combined_strain_rattle_fa_rotation__sev-0.320__seed-parity phase=t-FAPI3 mode=active_learning seed=1877520591 source=t-FAPI3/CONTCAR energy=-109.55953238 stress="-0.04586769068775068 0.013090667806354251 -0.010967898252831627 0.013090667806354251 -0.044708842133917126 -0.0011763423679587374 -0.010967898252831627 -0.0011763423679587374 -0.026434656610363143" pbc="T T T"
C        4.34721113       4.52368970       3.44849879       6.88615861       6.68262764      10.93939168
C        0.09487620       8.85964898       3.49730741      -1.77791376       1.53424732      10.08637682
N        5.26366857       5.33549636       3.05847573      -1.43884780      -2.27386487      -8.71024507
N        3.50570525       3.81147698       3.03063778      -7.01068044      -6.01584847      -0.99393651
N        0.89293132       8.11473083       2.98339776       0.60387981       2.23542475      -9.40929582
N        7.98402552       0.86354740       2.97442472      -3.96067537       4.50907296      -3.08922484
H        4.38548236       4.58690148       4.58443071      -0.47377766      -0.23467738      -0.72334861
H        5.88064416       5.89859273       3.51881301       1.81491136       1.62180992       2.23637499
H        5.39326866       5.27755421       1.94023216       0.25830899       0.89905985       2.75286131
H        3.56495306       3.62690676       2.11581052      -0.79323565      -1.43935064      -4.99293857
H        2.88191378       3.20837733       3.62215627       0.71182894       0.69957784      -0.54273896
H        8.66121809       0.12072531       4.68451385       0.53656984      -0.77296002      -2.66597998
H        1.23841666       7.48438818       3.47681145       4.66509626      -7.53805403       5.34264390
H        0.93337704       8.06982205       1.95468919       0.43815976      -0.44661022       0.27437171
H        7.90364276       1.11038064       2.01888349       0.06164711      -0.07464744      -1.72902242
H        7.43339746       1.49904874       3.50154878      -0.59269823       0.49917982       1.15065175
Pb       8.72824886       4.46415456       6.17609431       0.07278557       0.37405959      -0.18256870
Pb       4.25327919       0.07887947       0.00158759       0.85008336      -0.65693267      -0.38667968
I        8.68405089       4.52745219       2.93583597       0.13384273      -0.04072972       0.28850960
I        4.52068569       8.92854318       2.95409151      -0.01858937       0.10618406       0.48896256
I        1.99286254       1.88500865       6.19317310      -0.89833677       0.71368206      -0.07880655
I        2.49694840       6.44039275       6.22644923      -0.07433555      -0.11778610      -0.02113485
I        6.31182815       2.59531025       6.12501176      -0.19145077      -0.16770014       0.00695248
I        6.85159548       6.98712734       6.17084011       0.19726905      -0.09576409      -0.04117624
24
Lattice="8.78285338 0.05210866 0.01358192 0.05210866 8.83704618 -0.05322624 0.00960273 -0.03763215 6.20313157" Properties=species:S:1:pos:R:3:forces:R:3 config_id=t-FAPI3_al_combined_09__combined_strain_rattle_fa_rotation__sev-0.336__seed-new phase=t-FAPI3 mode=active_learning seed=3139265000 source=t-FAPI3/CONTCAR energy=-110.78925813 stress="-0.01041988845253783 0.0014251711892162445 0.004326172401978418 0.0014251711892162445 -0.011137185749902063 0.002462266842984007 0.004326172401978418 0.002462266842984007 -0.028852557845287966" pbc="T T T"
C        4.50325238       4.41864379       3.55035353      -4.13040551      -5.59170276       1.86096806
C        8.81437439       8.82632792       3.52398353      -1.19259011       0.87819647      -2.61881626
N        5.09615078       5.37756400       3.01055327       1.88079006       1.35394656       6.46928777
N        3.78647456       3.51016752       2.86887157      -1.86997903      -1.21457916      -1.63236572
N        0.87635630       8.06614586       2.86838730       2.80359192      -3.88290528       4.81551679
N        7.91794556       0.78890914       2.94806816      -1.37606495      -0.14253714      12.08295169
H        4.42451533       4.12176616       4.67515617       0.84334498       1.36840822      -1.68253731
H        5.62255985       5.91220381       3.69210516       0.53404914       0.84998348      -0.34500769
H        5.11191030       5.54637265       2.11990061       0.28699128       1.47346136      -6.74269754
H        3.58772910       3.56239163       1.73757674       0.64981663      -0.19938352       3.48593605
H        3.20267044       2.72451733       3.42056470       1.70519135       2.24469537      -1.55681172
H        8.78164899       8.64574067       4.54346640      -0.45151818       0.16586037       2.14923405
H        1.39251522       7.24710088       3.41575906      -1.16092460       2.16610596      -1.16057278
H        1.01803626       7.99279999       1.94269166       0.35901929       0.05410791      -4.43266490
H        7.90684146       0.99546737       2.08750148      -0.05040032       1.96172627      -8.62258428
H        7.33187927       1.39121759       3.66842176       1.10061532      -1.17563315      -2.15965989
Pb       0.11951478       4.31893465       6.15618472      -0.35680469       0.52922957       0.02002905
Pb       4.33567963       0.08714151       6.19092069       0.58536666      -0.25523914      -0.38343913
I        8.77898809       4.42693310       3.06572229       0.04885888       0.05054981      -0.05198842
I        4.42997345       0.07611648       2.92700723      -0.07474571      -0.10689741       0.50406028
I        1.96298250       1.93273040       6.08292937      -0.26075460       0.03131821      -0.05857638
I        2.54858848       6.43296820       6.06683845      -0.18664521      -0.25213800      -0.02886174
I        6.26654582       2.64492079       6.09426587       0.14019264      -0.17970342       0.08700612
I        6.84824408       6.94973896       6.08202597       0.17300476      -0.12687057       0.00159388
24
Lattice="9.12229697 -0.06305882 -0.04795805 -0.06305882 8.8486478 -0.09747406 -0.03390743 -0.06891637 6.28128432" Properties=species:S:1:pos:R:3:forces:R:3 config_id=t-FAPI3_al_combined_10__combined_strain_rattle_fa_rotation__sev-0.352__seed-new phase=t-FAPI3 mode=active_learning seed=706835477 source=t-FAPI3/CONTCAR energy=-111.11683488 stress="0.005297280792776876 -0.003260929308400005 0.0037923552067350205 -0.003260929308400005 -0.013198683987437699 -0.01872813423342646 0.0037923552067350205 -0.01872813423342646 -0.0009327058019694705" pbc="T T T"
C        4.38448697       4.31728319       3.41314708       6.77350909       5.71202542       5.81949773
C        0.08420881       8.74145749       3.41499068      -0.41085662       6.10392047       7.13024037
N        5.37346622       5.17407444       2.92880929      -3.02434579      -2.52033101      -3.00008722
N        3.59681423       3.53799466       2.88642283      -1.36540202      -1.09326706      -2.93199338
N        0.47123958       7.97561699       2.54662308       5.87916267      -5.71550589      -0.80652030
N        8.31562542       0.73305095       3.35533896      -2.18349903      -0.88693206      -4.66113465
H        4.45393976       4.32779949       4.61419923      -0.45118183      -0.13641524      -2.54067699
H        5.86819515       5.76271903       3.54889521       0.51602771       0.67306960       1.00264492
H        5.51008420       5.36265680       1.86957196      -0.25190461      -0.35261813       2.09188847
H        3.58526834       3.51536208       1.88648165      -0.76205695      -0.78790186      -1.03850868
H        3.13212512       2.93533531       3.50392137      -1.46864403      -1.51544886       0.61986464
H        0.78935683       0.08526678       4.52569961      -1.29931520      -0.87673987      -2.07810565
H        1.40722122       7.35596801       2.90637581      -3.20110210       1.64786394      -1.98339266
H       -0.02722710       7.81874463       1.70824137      -0.40207915      -0.62116212      -1.59361102
H        7.73432599       0.79149556       2.40092692       1.48097420      -0.23890417       2.38518420
H        7.98546697       1.43825972       3.96696579       0.16103245       0.54570635       1.47834151
Pb       9.03601049       4.32890429       6.15936894       0.35658625      -0.24481707       0.09791083
Pb       4.65296039       8.80584785      -0.07086631      -0.50967260      -0.16074301      -0.13058576
I        0.00561640       4.38238973       3.13647605      -0.05058050       0.01347352      -0.16605839
I        4.47905243       0.01036014       3.07432733      -0.03765783      -0.07011781       0.10909042
I        1.95774107       1.88922132       6.09932934       0.16569882       0.01110043       0.07686871
I        2.51710641       6.29838402       6.16073463      -0.12563708      -0.17578250      -0.01843694
I        6.42726435       2.33790372       6.12573365       0.31466258       0.48160770       0.15405698
I        7.09052458       6.80217813      -0.11079439      -0.10371843       0.20791924      -0.01647714
24
Lattice="8.97950688 -0.03859945 -0.00640976 -0.03859945 9.13742751 -0.08008172 -0.00453184 -0.05661959 6.16123165" Properties=species:S:1:pos:R:3:forces:R:3 config_id=t-FAPI3_al_combined_11__combined_strain_rattle_fa_rotation__sev-0.368__seed-new phase=t-FAPI3 mode=active_learning seed=1196564739 source=t-FAPI3/CONTCAR energy=-108.60019201 stress="-0.01671026705946551 0.009103235642470812 -0.010752378125077183 0.009103235642470812 -0.029531453658570326 -0.002250848903411985 -0.010752378125077183 -0.002250848903411985 -0.019720232370026607" pbc="T T T"
C        4.50662374       4.40655844       3.43666776     -11.58916337     -11.40914675       1.00919032
C        0.09228336       0.13088615       3.43748130      -3.29136446       9.16375812       5.24204777
N        5.24299236       5.31463688       3.42877286       7.84392519       8.74624506      -4.41165995
N        3.66960649       3.88638110       2.43526178       0.90206722      -0.55123034       2.74896744
N        0.76008702       8.33749634       3.48491425       3.32520850     -11.34117570      -7.63644737
N        8.32735475       0.59006723       2.53089207       2.44844752       4.57909602       8.80286598
H        4.12455873       3.88280413       4.41335987       1.29151492       1.13836225      -1.14019830
H        5.73642198       5.65677714       4.22087916       0.71146153       0.48028898       1.34853202
H        5.62270490       5.73974652       2.47339545      -0.91451917      -0.67600354       2.11195640
H        3.90621244       4.16544113       1.51350675      -0.23848417      -0.05474872      -1.42400246
H        2.99265247       3.02847588       2.61181196       2.07993368       2.28935803      -0.42916539
H        0.23908598       0.74780892       4.42302276      -0.94276034       0.04134438      -1.52354203
H        1.21725256       7.81861866       4.16976366       1.14513781      -0.56781977       2.32518825
H        0.59469285       7.61715174       2.48967522       1.22452211       1.58863881       3.27573176
H        8.02206332       0.36725157       1.76974948      -3.77214061      -4.77986309     -11.59331887
H        7.95838697       1.49652061       2.69678061      -0.31020691       1.25816751       0.81294619
Pb       8.92763165       4.54546462       5.98132363       0.02078569      -0.44021285       0.23013472
Pb       4.37528925       9.04772731       5.95907923      -0.01343613       0.24096241      -0.05150934
I        0.04361885       4.51636748       2.98711112      -0.10495347       0.00374276      -0.25313920
I        4.52800217      -0.02091323       2.92591341       0.01023838      -0.05449351       0.11436750
I        1.93201456       1.94851794       6.00792608       0.24148795      -0.06566106       0.10765283
I        2.48567851       6.41749515       5.91858028       0.20107269       0.15688803       0.17845612
I        6.44483413       2.52851004      -0.02159582      -0.03992805      -0.06008668      -0.03667947
I        7.01341169       6.94447082       6.06194620      -0.22884651       0.31358965       0.19162508
24
Lattice="9.04885232 0.09991962 -0.05058131 0.09991962 9.21867908 -0.03884054 -0.03576213 -0.02746114 6.35284398" Properties=species:S:1:pos:R:3:forces:R:3 config_id=t-FAPI3_al_combined_12__combined_strain_rattle_fa_rotation__sev-0.384__seed-new phase=t-FAPI3 mode=active_learning seed=1973722922 source=t-FAPI3/CONTCAR energy=-110.6904743 stress="-0.0004352654139041098 0.006465393156734297 -0.003182106282049176 0.006465393156734297 0.0033870992183685222 -5.7584156953889816e-05 -0.003182106282049176 -5.7584156953889816e-05 -0.011891105158236" pbc="T T T"
C        4.72915563       4.65999713       3.39222561       2.73435707       4.87887800       3.91831813
C        0.03288970       0.08736731       3.57150147       3.00811578      -4.47228455      -0.68510111
N        5.34594373       5.35715803       2.43306016       2.54428582       1.67496570      11.38723866
N        3.67331614       3.94922816       3.45216582      -1.99278497      -3.35045625      -3.28519816
N        0.86746344       8.38176752       2.91441801       3.15013949      -1.32955064       1.15336069
N        8.26765444       0.94771360       2.98538621      -1.76358521       2.20199250       0.03739391
H        5.03389090       5.09311717       4.47962993      -0.32083381      -1.26367945      -2.23210340
H        6.10217594       6.07051077       2.67685375      -1.28161054      -1.43336350      -0.43059797
H        5.15184992       5.18031128       1.61376289      -2.22340017      -1.92522087     -11.32718116
H        3.31658541       3.42162537       2.55978599       0.43222581       1.19716082       1.81730419
H        3.38154312       3.49798637       4.32403648       0.04704708       0.13477110       0.09868082
H        0.00067106      -0.01295471       4.58997052       0.14073773       0.00795510       2.79660898
H        1.60727030       7.80247999       3.68931575      -2.38875592       1.84620541      -3.07970696
H        1.08534280       8.38101439       1.84234638      -0.39122809      -0.14297468       2.41633169
H        8.17406243       1.03048243       2.04209107      -0.48530661       0.47423529      -3.57706676
H        7.66062173       1.45867709       3.55541386      -1.29503924       1.29059275       1.04410405
Pb       0.11067484       4.63254294       6.17598548      -0.16525825       0.09642348       0.02135399
Pb       4.54684906       0.07770811       6.24061687       0.11092841      -0.03544904      -0.00015559
I        9.02175195       4.69213829       2.98153321       0.02502882      -0.01615969       0.02169901
I        4.61183559       9.19418155       3.03844626       0.01757216       0.03657512      -0.00828684
I        1.83734935       2.04049765       6.25380941       0.44493035      -0.31013840       0.09060625
I        2.60171970       6.56387056       6.16604274       0.05676542       0.19845592      -0.08645124
I        6.56054894       2.54918838       6.22601134      -0.12635009      -0.07487241      -0.04708037
I        7.22160912       7.22218274       6.23145531      -0.27798103       0.31593831      -0.04407080
24
Lattice="9.03716673 0.04442101 0.06171995 0.04442101 9.19872395 -0.03726249 0.0436374 -0.02634543 6.39044532" Properties=species:S:1:pos:R:3:forces:R:3 config_id=t-FAPI3_al_combined_13__combined_strain_rattle_fa_rotation__sev-0.400__seed-parity phase=t-FAPI3 mode=active_learning seed=4125719901 source=t-FAPI3/CONTCAR energy=-110.78803501 stress="-0.010171843415030316 0.0004229028567784729 0.00697886249545753 0.0004229028567784729 0.014123329223654092 0.012247964347527196 0.00697886249545753 0.012247964347527196 0.013035448057887427" pbc="T T T"
C        4.50421828       4.87936504       3.56621769     -12.66699438      -2.31537093       1.36474608
C        9.01865999       0.11702883       3.71790686       2.80048395      -2.86704679      -4.96110570
N        5.65278034       4.85773947       3.31039737      13.17533004      -0.40062299      -5.03318650
N        3.42458829       4.27782407       2.83050968       4.84586070       0.43203450      -0.86618547
N        1.02075520       8.36516406       2.97222790      -6.05932029       5.99791820      -0.71065130
N        8.15491398       0.89472326       3.06449682       2.37599164      -1.87936849       0.73432071
H        4.20829391       5.22059917       4.58599783      -0.21056219       0.16773364      -0.65632444
H        6.46589983       5.23646069       3.91818054      -1.69240436      -0.44699956      -0.77951021
H        6.12680116       4.48582154       2.31162893      -1.68130102       0.87603328       2.80315850
H        3.49125182       3.72503404       1.89246700       0.23205582       1.35771725       2.04642424
H        2.52639303       4.34154271       3.21067686      -1.69266626       0.21203447       0.84659499
H        8.92954808       0.11578909       4.75885333       0.21086480      -0.24158907       1.71728095
H        1.53537117       7.77986736       3.51694820       1.90390106      -2.06609927       2.06818639
H        1.05261919       8.34280977       1.93126004       0.13834762      -0.16997582       1.02657317
H        8.09250144       1.04989439       2.07194237      -0.02669887      -0.02075389      -0.57861013
H        7.57672081       1.39528424       3.68014504      -1.32680931       1.17235418       0.69758091
Pb       9.09406509       4.52797537       6.40351409       0.23115230       0.33204006       0.01259542
Pb       4.60942345       0.05511489       6.27612036      -0.13583247      -0.34403828       0.02952036
I        9.07173488       4.54576707       3.23936772      -0.22949985       0.03350157      -0.06820946
I        4.63515735       9.18652672       3.12072582       0.05299146       0.02549075      -0.04364621
I        2.08492603       2.08871417       6.14645148       0.02005962      -0.08381052       0.13528982
I        2.61703911       6.62642841       6.17536881      -0.17804486       0.16553162       0.15871529
I        6.54642183       2.60157587       0.03994491       0.00544769       0.09092387       0.04558320
I        7.24260908       7.22695176       6.28304490      -0.09235285      -0.02763780       0.01085936
24
Lattice="9.08228054 0.08584642 0.0620349 0.08584642 9.04712235 -0.09632336 0.04386008 -0.06810279 6.39089059" Properties=species:S:1:pos:R:3:forces:R:3 config_id=t-FAPI3_al_combined_14__combined_strain_rattle_fa_rotation__sev-0.416__seed-new phase=t-FAPI3 mode=active_learning seed=1014259289 source=t-FAPI3/CONTCAR energy=-110.61724783 stress="0.007505827942986297 0.0037523951054772506 -0.009773257883504376 0.0037523951054772506 0.005353725212715325 0.0021676024384040247 -0.009773257883504376 0.0021676024384040247 -0.008167870920164659" pbc="T T T"
C        4.69813934       4.56642033       3.64508912      -1.85720738      -0.01852311      -8.40544966
C        0.03345419       0.00855870       3.74442197       4.94286922      -5.12597301     -10.27842226
N        5.51848818       5.36166783       2.93856704      -2.77743247      -2.25892940      -0.38350860
N        3.68771166       3.87604912       3.03620603       0.15643405      -1.66644298       8.06159234
N        0.91733098       8.13081154       2.86632072      -0.41616895       0.97746846       4.59522248
N        8.49763511       0.91560973       3.10150814      -5.53773308       5.77322349       2.03812609
H        4.82226150       4.43869861       4.60924813       0.62544384      -0.39970995       4.97615720
H        6.15461457       5.80378413       3.51527755       2.16094550       1.70453352       0.79435713
H        5.42782466       5.49052182       1.90679418       0.34024103       0.13456482       1.07228032
H        3.51597184       3.68214382       2.11659010      -0.27518371      -0.21551484      -3.28645541
H        3.15407197       3.10646650       3.79984652       1.66421410       2.64458186      -2.75164196
H        0.16098111       8.93287102       4.59223996      -0.02833547      -0.29239411       6.85016548
H        1.67354617       7.61802495       3.41230316      -1.26601301       0.61478826      -1.09651507
H        0.96524847       8.13261125       1.85585942       0.02394739       0.17853834      -0.19674943
H        8.20715005       1.10670712       2.15423108       0.85990223      -0.85912863      -1.00296306
H        7.83509735       1.57356297       3.68031290       1.30059277      -1.18536973      -0.87572600
Pb       0.12358157       4.39814792       6.17139997      -0.05790596       0.28849210       0.08994000
Pb       4.61900286       0.00035576       6.33043721      -0.00417715      -0.17212139       0.05127428
I        0.20147240       4.55913524       3.10784078      -0.15900303      -0.11045530      -0.07239839
I        4.72380412       8.92992282       3.14548421       0.00574383       0.14945737      -0.09138755
I        2.02600570       1.93526785       6.23920688       0.07899980       0.00981461      -0.03973220
I        2.69404214       6.60335714      -0.03587808      -0.14348802      -0.20159199      -0.07709865
I        6.57020979       2.54497188       6.29933462       0.24237004       0.10841460       0.05428939
I        7.17943683       7.09082275       6.31539276       0.12094443      -0.07772300      -0.02535647
24
Lattice="9.15995315 0.09869126 0.08883771 0.09869126 9.04241332 0.01691843 0.06281027 0.01196171 6.21354153" Properties=species:S:1:pos:R:3:forces:R:3 config_id=t-FAPI3_al_combined_15__combined_strain_rattle_fa_rotation__sev-0.432__seed-new phase=t-FAPI3 mode=active_learning seed=1252557385 source=t-FAPI3/CONTCAR energy=-109.65502066 stress="0.006215999166825441 0.007112964171396802 -0.01638502183167046 0.007112964171396802 0.009734236836019122 0.008792933954413624 -0.01638502183167046 0.008792933954413624 -0.023565319103924853" pbc="T T T"
C        4.61291407       4.64210172       3.56177071       2.02202791      -0.71682314       4.50261591
C        9.16682847       0.12750147       3.63541471       6.00173704      -5.82500082      -1.00501349
N        5.59382760       5.37321988       2.99485833      -1.05782221       0.29986028       1.67004145
N        3.84660051       3.71311490       3.04280009      -1.27342612      -0.01213996      -0.87376316
N        1.12367928       8.07613980       3.06042896     -15.12552583      12.34230531      -5.57020199
N        8.42625758       0.83164121       2.91644497      -3.49245727       3.84012784       3.44927410
H        4.67446488       4.54783310       4.86852306      -0.22043094       0.65270560      -3.84058868
H        6.10471671       6.08224424       3.59350320      -0.81055999      -1.06984635      -0.71553043
H        5.66111723       5.54133856       2.00149219       0.01134996      -0.02709133      -0.57182406
H        3.68585704       3.72960295       2.01750361       0.01670399      -0.37639345       0.54686793
H        3.15526466       3.12567005       3.61264548       1.23526952       1.14377182      -0.68444010
H        9.16363978       0.10839998       4.67314011      -0.39082869       0.59092796       2.00195016
H        1.64388556       7.68920665       3.56768981      10.29421553      -7.72564892      10.00328550
H        1.03379328       8.09304096       2.12498660       0.83078376      -0.90217696      -4.12105024
H        8.27892810       0.91395010       1.98669390       0.16757641      -0.32121734      -4.32488266
H        7.75874326       1.58795186       3.37370160       1.54242496      -1.86994155      -0.42598386
Pb       9.24442862       4.71928681       6.25731202       0.19550030      -0.18419269      -0.19627792
Pb       4.77431383       9.09603530       6.17815708      -0.25452975       0.13289638       0.17870329
I        0.08856315       4.50262575       2.95551316      -0.00840478      -0.13146030       0.27598328
I        4.64956430       9.03899161       3.16623552       0.13533284       0.03486187      -0.19871687
I        1.97010925       1.80972331       6.13706269      -0.03455430       0.26711597       0.01050742
I        2.70561134       6.57259826       6.18330898      -0.10475284      -0.24084834       0.04797573
I        6.56112919       2.62441450       6.26615685       0.18939496       0.10494562      -0.02490983
I        7.21053784       7.14945848       0.18494155       0.13097555      -0.00673750      -0.13402146
24
Lattice="8.81341665 0.02822818 -0.01978478 0.02822818 9.07870558 0.01703029 -0.01398829 0.0120408 6.17359118" Properties=species:S:1:pos:R:3:forces:R:3 config_id=t-FAPI3_al_combined_16__combined_strain_rattle_fa_rotation__sev-0.448__seed-new phase=t-FAPI3 mode=active_learning seed=3383612812 source=t-FAPI3/CONTCAR energy=-105.06246287 stress="-0.0112129083003531 -0.01235318011326208 -0.02539790710444999 -0.01235318011326208 -0.021866122645396675 -0.03658959414894491 -0.02539790710444999 -0.03658959414894491 -0.0653039104563621" pbc="T T T"
C        4.01857056       4.52893884       3.33651366      24.83647823      23.50591156      38.21589353
C        8.72304569       0.20686933       3.35788050      -1.15711983      -1.36433816       0.68798221
N        5.52453871       5.02964617       3.35607927      -6.91616177       0.19244968       5.29228943
N        3.60972745       4.04466622       2.57162216     -20.40679713     -23.35191236     -40.76984779
N        0.85957306       8.31772474       3.40375844      -0.57862535       1.01293404       7.13066265
N        8.00394230       0.56544525       2.31542523      -0.23256531       1.37134845       5.51037919
H        3.57569990       4.52254078       4.36722023       0.31419609       0.66165771      -0.51688990
H        5.72791557       5.66421139       4.20992638       0.02485439      -1.18003572      -2.24258020
H        6.01646045       4.89199974       2.55893275       2.08182706      -0.02402389      -2.94271386
H        3.96751384       3.94436609       1.50103725      -0.17051286       0.13569030       2.24163955
H        2.63796468       3.65862297       2.48885921       0.06043486      -0.05745994       0.51458186
H        8.27732767       0.49790752       4.35617047       0.80053675      -0.05870042      -0.92438193
H        1.21438095       8.09516301       4.52775728      -0.77197876       0.40101985      -3.68454432
H        1.47416231       7.95933910       2.76293917       1.60478908      -0.88608499      -2.67413354
H        8.28887614       0.32908159       1.46871762       1.12729801      -0.98766362      -5.22358646
H        7.31711681       1.25345572       2.54829946      -0.72216200       0.55439729      -0.72307889
Pb       8.72104619       4.69911532       6.16077142       0.07997098      -0.38106124       0.10256339
Pb       4.44565592       9.07353618       0.05601071      -0.16107309       0.18392753      -0.05274321
I        0.06394021       4.49812074       3.14349304       0.27117109      -0.09231047      -0.22414705
I        4.38288662       0.07800874       3.08402812      -0.01721469       0.01422164       0.04170788
I        1.86873105       2.02000791       6.15298800      -0.03033416       0.02541782       0.04191265
I        2.52870993       6.57017242       0.02419105      -0.28211203      -0.20497574       0.11001316
I        6.17411514       2.51395546       6.01832754       0.24359888       0.49255621       0.12812601
I        6.93586421       7.17869053       6.16474587       0.00150155       0.03703447      -0.03910434
24
Lattice="9.22159218 -0.05719454 0.11094729 -0.05719454 8.95985121 -0.03445838 0.07844224 -0.02436285 6.27906663" Properties=species:S:1:pos:R:3:forces:R:3 config_id=t-FAPI3_al_combined_17__combined_strain_rattle_fa_rotation__sev-0.464__seed-new phase=t-FAPI3 mode=active_learning seed=3598747751 source=t-FAPI3/CONTCAR energy=-110.64475339 stress="0.005030689504116874 0.0013784860241545726 0.010966557570429879 0.0013784860241545726 0.0010835117848200723 0.005606249806288523 0.010966557570429879 0.005606249806288523 -0.02731862419022511" pbc="T T T"
C        4.75696041       4.44822276       3.49807683      -3.76124710      -3.90216827       4.89271221
C        9.14501502       8.80578031       3.58010437       0.98929033      -0.22902906       4.52755625
N        5.51889769       5.28156827       2.96139610      -0.34680201       0.86134949      -4.80298477
N        3.64486084       3.69780034       3.16929084       2.87380724       2.34518624      -1.87144995
N        0.76741538       8.08144828       2.91209041       0.78209583      -3.65109982      11.98645048
N        8.43762303       0.66256407       3.00390362      -2.75488659       3.33837069       7.88089392
H        4.96222887       4.27508209       4.54647350       0.11117159       0.03277793       0.61017809
H        6.27796942       5.81700997       3.37384204       0.05045070      -0.16502736       0.14177512
H        5.25478978       5.31431343       1.95073506       1.32141985       1.22504631       0.30977608
H        3.35482736       3.61575657       2.18985208      -0.28716093      -0.07210943       0.27281173
H        3.13656476       3.21031134       3.89162957      -0.02490026      -0.33219696       0.43677894
H        0.02275381       8.82134390       4.68063833      -0.90002144       0.42172680      -2.81085950
H        1.40587192       7.40667627       3.59070216      -1.96764873       2.10363216      -2.08034366
H        1.00389429       8.07502338       2.08239385       2.81365431      -0.17510088     -11.04772253
H        8.27436285       0.74808913       2.11377127      -0.82903833       0.31893180      -6.72664238
H        7.79293484       1.36877935       3.61629961       1.86921639      -2.09308374      -1.57953623
Pb       0.11382012       4.39658591       6.13205652      -0.24123708       0.11709046       0.23274093
Pb       4.65035353       8.89439190       6.15083055       0.08239751       0.03570309       0.22059421
I        9.12157238       4.31738512       3.23706418      -0.00002580       0.05602629      -0.24276994
I        4.60602857       8.88495812       3.15280789      -0.04134018       0.00412054      -0.22919256
I        2.10067681       2.03894889       6.13151619       0.05580353      -0.19163466       0.08986159
I        2.46907001       6.43334482       0.00926771       0.05568910       0.07342560      -0.11052929
I        6.63349573       2.50231006       6.31840791       0.04209710      -0.10469989       0.00239174
I        7.10893444       6.93443332       6.33106806       0.10721499      -0.01723732      -0.10249047
24
Lattice="8.96763327 -0.02316564 -0.09113601 -0.02316564 8.88104954 -0.015168 -0.06443522 -0.01072412 6.21257533" Properties=species:S:1:pos:R:3:forces:R:3 config_id=t-FAPI3_al_combined_18__combined_strain_rattle_fa_rotation__sev-0.480__seed-parity phase=t-FAPI3 mode=active_learning seed=1565246092 source=t-FAPI3/CONTCAR energy=-106.45757755 stress="-0.003761601649754894 0.02109757078662273 0.005485919808024202 0.02109757078662273 -0.02124159331011005 -0.0043823367029872965 0.005485919808024202 -0.0043823367029872965 -0.03598256704757928" pbc="T T T"
C        4.22279263       4.60134338       3.60934495       6.39888626      -1.66371980     -13.20675229
C        8.88864686       0.07337195       3.33371093       4.40221391       0.21981276      11.37352976
N        5.48376921       5.21076349       3.03799602     -15.84810495       2.71766910      25.95517866
N        3.63107739       3.75522626       2.76354626      -3.55494575      -1.62579994       3.37230313
N        0.41653305       7.83686374       3.25797542      -0.72319491      -2.41179376      -7.34246547
N        8.27279127       0.98494062       2.82380652      -1.66021958      -3.46760829     -11.27209958
H        3.87669826       4.62793402       4.48573649      -2.16639877       1.15981411       7.36990346
H        5.74031860       5.76563658       3.85968282       1.43536656       0.45513499      -1.10437149
H        5.83304058       5.08708818       2.34899553      10.18313662      -3.80975931     -20.64760546
H        3.93250820       3.52656870       1.83947161       0.48515585       0.03834368      -0.89474516
H        2.71026139       3.06341371       3.09581979       3.12445966       2.60759388      -0.95335223
H        0.22580856       0.45912817       4.55916857      -0.75084370      -0.80576534      -1.82417932
H        1.11355436       7.31133454       3.70946098       1.06570756      -0.14492344       2.02829922
H        0.43940600       7.49982976       2.21710463      -0.23494744       0.20932617       1.74527262
H        8.14940653       0.75401641       1.68513237      -0.36847228       1.55037720       2.93923197
H        7.96461734       1.80281174       3.11264263      -1.63634065       4.93050050       2.26318473
Pb       8.77613161       4.45065169       5.94910523       0.79924635      -0.21274717       0.23097376
Pb       4.54269318       0.06142706       5.99959932      -0.39779699      -0.21637124       0.05359985
I        0.01530428       4.49553925       3.04392875       0.03605525      -0.24281586      -0.25660652
I        4.32776550       0.13860541       2.94001919       0.03860332      -0.04599797       0.06459959
I        1.98714930       1.86688169       0.03589302      -0.01029385       0.12284171      -0.08675563
I        2.34575270       6.38306341       6.16238785       0.15285730       0.19833045       0.08276218
I        6.53947461       2.49178805      -0.04312772      -0.40219976      -0.13640263      -0.04140920
I        6.96403005       6.80022573       6.02838555      -0.36793001       0.57396021       0.15150344
24
Lattice="9.22057315 0.10312445 -0.03032306 0.10312445 8.76508489 -0.07167172 -0.02143909 -0.05067353 6.22126623" Properties=species:S:1:pos:R:3:forces:R:3 config_id=t-FAPI3_al_combined_19__combined_strain_rattle_fa_rotation__sev-0.496__seed-new phase=t-FAPI3 mode=active_learning seed=1075243148 source=t-FAPI3/CONTCAR energy=-107.63709789 stress="-0.009050491782085553 0.011965341798850945 -0.014299388964095914 0.011965341798850945 -0.004730812609296065 -0.0021001303328966915 -0.014299388964095914 -0.0021001303328966915 -0.03369025375807057" pbc="T T T"
C        4.62379712       4.32735229       3.40199051       4.23541629       5.23748074       5.35936310
C        0.17659543       8.58567083       3.44821865       5.20045875      -4.10732853       0.32732428
N        5.74304133       5.43830854       2.79266884     -15.41127278     -11.08627735     -10.38296670
N        3.74774404       3.53897462       2.92685370       2.49381766       2.44938670      -1.74164657
N        0.89282820       8.26412023       2.42586055       2.46650161      -1.94608197      -3.66829420
N        8.36554568       0.69891713       3.57337259      -4.82060825       3.13068480       3.55590347
H        4.61703368       4.46604447       4.66936539       0.11262213      -0.59903213      -3.55696505
H        6.19049441       5.72270615       3.42841083       9.24741469       5.43087073      11.43484833
H        5.58403477       5.13454789       1.85025543       1.88376763       1.19482651      -0.77024663
H        3.66079522       3.50324150       1.95753771      -0.67820928      -0.63842472      -2.54651461
H        3.19637106       2.97519733       3.46444574      -2.05929927      -2.00917614       2.21832978
H        0.51212807       8.14123212       4.34240457       0.30740197      -0.72588458       1.41881065
H        1.70501337       7.50570144       2.25524111      -2.20837239       1.85126594       1.40044745
H        0.63516103       8.58499059       1.48733992      -0.10731078       0.27333249       0.20095144
H        7.94338559       1.29837391       2.98520520      -1.26332850       2.23343035      -4.05149386
H        7.92116541       1.00072713       4.45711867       0.48915066      -0.78813630       0.60038512
Pb       9.18269273       4.45719378       6.08032767       0.13733434      -0.14913919       0.28003342
Pb       4.67449360       8.70646340       6.10499490       0.02673497      -0.08771872       0.19342724
I        9.23732630       4.44110357       3.09677463       0.13082807      -0.06765391      -0.33877235
I        4.52268719       0.12571940       3.16798055       0.05147920      -0.02905025      -0.29309011
I        2.11411085       1.87533322       6.16026578      -0.08088484       0.08806552      -0.04303094
I        2.65811922       6.19878871       6.09945691       0.09438350       0.00214973       0.14356550
I        6.64863332       2.46920442       6.05089327      -0.11040238       0.12628269       0.28313610
I        7.41592268       6.98075484      -0.05853205      -0.13762299       0.21612760      -0.02350485
24
Lattice="8.92157546 0.08139097 0.04711412 0.08139097 8.84704089 0.10076641 0.03331075 0.07124413 6.37060885" Properties=species:S:1:pos:R:3:forces:R:3 config_id=t-FAPI3_al_combined_20__combined_strain_rattle_fa_rotation__sev-0.512__seed-new phase=t-FAPI3 mode=active_learning seed=2301741196 source=t-FAPI3/CONTCAR energy=-109.05034235 stress="-0.022067875258562755 0.01555846890809905 -0.004550883239301853 0.01555846890809905 -0.03222582763953911 0.009164107408251104 -0.004550883239301853 0.009164107408251104 -0.009958193031198674" pbc="T T T"
C        4.49943919       4.63986210       3.81958572       0.51203050       0.59815781      -8.10985354
C        8.91208843       0.15744268       3.67359501       9.64686874      -9.33899777       4.46092720
N        4.77232417       5.58184332       2.79264257      -1.42988232     -12.62697733      -2.66033793
N        4.24673112       3.36638220       3.47534019       2.35975206       5.29924214      -3.79525529
N        0.94726719       8.22917013       3.05315231       2.03235224      -2.62061624       4.04751727
N        8.18286765       0.92777445       3.27480298     -12.07869930      12.03910268     -11.20582056
H        4.22482633       5.18285151       4.62440126      -0.71727725       0.65687802       3.85226183
H        5.00119681       6.42845926       2.98343937       2.03384671       7.33658243       1.56874895
H        5.00627354       5.10662984       1.75229407      -0.64195788       2.10727290       3.37509448
H        4.28225807       2.93691959       2.52530258       0.18614912       0.77835823       0.71803771
H        3.94351360       2.82770786       4.14202914      -2.33052691      -4.14882625       4.82980376
H        0.17002834       8.83277774       4.74479566       0.19466017      -0.51279248       2.85637530
H        1.36490860       7.45221364       3.65173208      -0.30891166       1.25548731      -0.94557959
H        0.98278542       7.96872628       2.13466354      -0.33041999      -0.24171607      -3.45083512
H        8.07886637       1.05119080       2.09274900       0.22231064      -0.19603029       3.62763694
H        7.45546817       1.50860421       3.71331317       0.57168636      -0.34081278       0.54857173
Pb       8.83907329       4.58618742       0.22335415       0.47915562      -0.16775041      -0.39141177
Pb       4.50978659       0.15153648       6.35954514      -0.30497979      -0.07384701       0.03073764
I        0.09057797       4.49378432       3.09962615      -0.03231631      -0.03184174       0.48219533
I        4.41910963       0.08631325       3.15690706       0.15331538       0.02991263      -0.00282034
I        2.09296361       2.17353118       6.27596965       0.04166168      -0.12493787       0.08707078
I        2.50644357       6.55855814       6.45639695       0.03351108       0.09974276      -0.14736876
I        6.52623599       2.61065152       6.24831010      -0.08345750      -0.08927395       0.22454900
I        7.06649986       7.05784054       6.36855011      -0.20887140       0.31368328      -0.00024503
24
Lattice="8.92908138 0.02533282 0.12733112 0.02533282 9.14665349 0.0099632 0.09002599 0.00704421 6.28894745" Properties=species:S:1:pos:R:3:forces:R:3 config_id=t-FAPI3_al_combined_21__combined_strain_rattle_fa_rotation__sev-0.528__seed-new phase=t-FAPI3 mode=active_learning seed=3324483476 source=t-FAPI3/CONTCAR energy=-111.21935173 stress="0.0036104292029374746 -0.006380718802959081 -0.002813979277608493 -0.006380718802959081 0.0014745202116483163 -0.005539118168862498 -0.002813979277608493 -0.005539118168862498 0.005915350833959692" pbc="T T T"
C        4.54015888       4.47076310       3.69448374       2.56581431       4.54184244      -1.34548185
C        0.20640772       0.11278589       3.55994217      -1.71333550      -0.38784483       1.63013766
N        5.14915040       5.46280987       3.06396933       3.14401661       1.68931104       0.19547144
N        3.78826827       3.73733313       3.07056406      -7.66208050      -7.69370082       0.49451711
N        0.92308029       8.23743685       3.04447247       0.52926854      -0.09112912       4.13597326
N        8.32208164       0.97451915       3.03791305      -0.54893936      -1.14188160      -2.48880974
H        4.65787574       4.57580644       4.70355121      -0.16311542      -0.69151866       2.98735804
H        5.85583614       5.98362201       3.67725570      -1.10383288      -0.66924598      -1.23808761
H        5.37991625       5.50210295       2.03761731      -0.56966246      -0.12006200       1.12593654
H        3.51446550       3.65474406       2.10708433       0.57404077       0.60460502      -0.96252940
H        2.96631532       3.02968825       3.62326365       3.13574040       2.28035997      -1.20143582
H        0.08564398       0.17457939       4.73471185       0.99659327       0.10199269      -2.21971958
H        1.41249940       7.59444179       3.82576527      -1.09314889       1.52263874      -2.16121917
H        0.72583638       7.81037638       2.16774520       0.01762046      -0.22070804      -1.17103809
H        8.03962812       0.75677673       1.99754238       0.83512403       0.72017051       2.17759058
H        7.67116998       1.66093322       3.46969182       0.81982917      -0.66743248       0.19536452
Pb       8.97850482       4.53057914       6.30827764       0.16800805      -0.15529757       0.36059195
Pb       4.69198724       9.01978960       6.32253646      -0.64371854       0.54315027      -0.12152499
I        8.93065222       4.57970704       3.34680466       0.02451710       0.08986218      -0.41554153
I        4.36299207       9.15761867       3.07492705       0.18222630       0.05925824       0.17142060
I        2.04823597       2.07365440       6.27154763       0.01055170       0.17783046      -0.05219838
I        2.66499499       6.64861793       6.20425599      -0.42340864      -0.27757932      -0.05374451
I        6.40800572       2.47784152       0.12103144       0.21580458       0.24569797      -0.04809782
I        6.92228231       7.12453236       6.28753624       0.70208691      -0.46031913       0.00506683
24
Lattice="9.12416159 0.11520564 0.05988292 0.11520564 8.95945969 0.03978344 0.04233858 0.02812779 6.12297542" Properties=species:S:1:pos:R:3:forces:R:3 config_id=t-FAPI3_al_combined_22__combined_strain_rattle_fa_rotation__sev-0.544__seed-new phase=t-FAPI3 mode=active_learning seed=403052389 source=t-FAPI3/CONTCAR energy=-103.29283392 stress="-0.038131319647826935 0.03644948562589836 0.028105157774375635 0.03644948562589836 -0.002201105086803174 -0.008187119859139065 0.028105157774375635 -0.008187119859139065 -0.0511146583945959" pbc="T T T"
C        4.72848412       4.31980798       3.59419556      -1.76336155       8.36286636     -20.37751777
C        0.22349711       8.79658493       3.56591288     -16.32406048       2.82425755      10.81681975
N        5.53453454       5.32582755       3.13526172       2.14628908      -0.72914170       2.77352290
N        3.57283463       4.02298585       2.91408295       0.33063888      -4.73919630       5.90013733
N        1.06982285       8.41934654       2.90759765       9.70733253       3.38758627     -12.72060753
N        8.23621421       0.89405696       3.49276700      31.56307342      -5.44316761     -20.57117709
H        4.71833462       4.07734122       4.39461538       0.65623908      -5.41122653      17.96646178
H        6.34966554       5.69383393       3.86806397      -2.35617201      -1.13689661      -2.04172345
H        5.70678751       5.66114186       2.15661875      -0.70029058      -0.63081069       0.84012068
H        3.50811040       4.09505890       1.97243469      -0.25521521       0.63970319      -3.99335089
H        3.01933924       3.01605667       3.29908219       1.92569164       3.65252347      -1.19420584
H        8.88727783       8.14826569       4.35066574       1.28644374       0.63349824       0.04821870
H        1.56440407       7.67299329       2.83560621       3.64484498      -7.15822161       1.26471890
H        1.51406480       8.84648324       1.94099383      -1.62371479       0.41127781       2.03898237
H        8.48476817       1.60455044       2.55543902      -1.30341803      -2.00115832       3.28922622
H        7.60138830       1.08957782       3.82838611     -26.73997135       7.37879241      15.44895564
Pb       9.16235570       4.57110344       0.08192532       0.24576147      -0.02192383       0.52773462
Pb       4.89410778       9.01085148       6.10138560      -0.34009565       0.18934210       0.29174228
I        0.15767707       4.49743443       3.23243434      -0.10014348       0.09749487      -0.72907653
I        4.67519110       8.88054568       3.12969923      -0.05269200       0.12948796      -0.33655561
I        1.99026663       2.08919283       6.10234587       0.34619961      -0.50463358       0.07653586
I        2.65638957       6.51016979       6.06945350       0.11909233       0.18724974       0.19333358
I        6.60292250       2.73119057       0.05544144      -0.19178359      -0.29470796       0.24932397
I        7.20540902       6.99101881       5.99906385      -0.22068803       0.17700476       0.23838015
24
Lattice="8.92442222 -0.00040298 -0.11670487 -0.00040298 9.08754186 -0.07940537 -0.08251298 -0.05614139 6.3829711" Properties=species:S:1:pos:R:3:forces:R:3 config_id=t-FAPI3_al_combined_23__combined_strain_rattle_fa_rotation__sev-0.560__seed-parity phase=t-FAPI3 mode=active_learning seed=2401096036 source=t-FAPI3/CONTCAR energy=-110.33156631 stress="-0.007352886271750546 -0.00531899004102607 0.008298609246564285 -0.00531899004102607 -0.002884205149425184 -0.003953529478439884 0.008298609246564285 -0.003953529478439884 0.0072064546131217645" pbc="T T T"
C        4.66879851       4.50506750       3.48076870       1.78447388       0.10659074       2.29481465
C        0.13796823       8.94545443       3.51530293      -2.85284594       1.00946466      -4.43641966
N        5.28002786       5.06726367       2.51530790      -2.33191628       1.03331554      -5.62513840
N        3.50589005       4.04411042       3.41762699      -7.77178776      -3.57345499       1.37480912
N        0.23496468       8.34936783       2.35082677       4.79282055      -6.69664563       6.34342264
N        8.27196427       0.87544960       3.57024867      -0.70966438       3.67724775       3.15165871
H        5.14686316       4.37972519       4.48367032       0.17287951       0.24097067      -0.73565506
H        6.20401591       5.36874740       2.60677120       1.88573439       0.71257020      -0.02628316
H        4.74071548       5.20199438       1.43468578       2.05100462      -0.37167947       3.88448556
H        2.76755812       4.02992754       2.58513633       2.21024771       0.25783056       1.78512367
H        2.99693008       3.53688372       4.35997114       1.82368543       1.55312267      -2.91063823
H        0.30163401       8.34949585       4.31311096       1.18697540      -1.48659868       3.05868474
H        0.82798681       7.33921385       2.55033911      -1.99656884       3.23618326      -1.46320910
H        0.13683857       8.55104868       1.45434724      -0.83914086       1.85546064      -4.98552612
H        7.98235565       1.52402831       2.78512941       0.42574943      -1.03705745       0.97945843
H        8.15940458       1.27974872       4.60183080      -0.05163274      -0.59238866      -2.59521620
Pb       8.80499144       4.51232863       6.11435591       0.07780195      -0.17953355       0.14799440
Pb       4.36114548       9.00059150      -0.04335200       0.30130187       0.28533778      -0.00736571
I       -0.03168184       4.44346064       3.12986395       0.05179797       0.15181724      -0.14136435
I        4.39586005       0.14172564       3.18695110       0.01169627      -0.06572209      -0.03525487
I        1.86387363       1.89748757       6.33103150       0.09280372       0.14009794       0.00554771
I        2.42601348       6.68180776      -0.04449281       0.06234034      -0.36356151      -0.01286439
I        6.41098700       2.56759685       6.23401521      -0.06512385      -0.21924851       0.16677657
I        7.01144273       6.93833028      -0.09104915      -0.31263240       0.32588090      -0.21784096
24
Lattice="8.74440237 0.09165905 -0.04385026 0.09165905 8.93004432 0.12434078 -0.03100312 0.08791175 6.19432301" Properties=species:S:1:pos:R:3:forces:R:3 config_id=t-FAPI3_al_combined_24__combined_strain_rattle_fa_rotation__sev-0.576__seed-new phase=t-FAPI3 mode=active_learning seed=3141299006 source=t-FAPI3/CONTCAR energy=-103.74493985 stress="-0.06450673425654821 0.02891407590061372 -0.02200575735676095 0.02891407590061372 -0.01009026825140401 0.013993695856581058 -0.02200575735676095 0.013993695856581058 -0.007269683996627197" pbc="T T T"
C        4.21897048       4.67227881       3.45417460      -6.20973881      -7.57024733       6.53444708
C        0.09918967       0.15962864       3.55542563       5.96101267      -4.38279762      -2.70082858
N        5.24764824       5.34279569       3.38932488       4.49640056       3.57318874      -4.40085368
N        3.60568129       3.67336651       2.66871289       1.57566857       3.07258613       1.97353268
N        0.99858311       8.38052058       2.68942766     -46.95941854      21.98380656     -15.09441413
N        7.70311771       0.73947359       3.23902145       5.58864868       1.79317322      10.74319808
H        3.92877439       4.41583302       4.75136120       0.22087583       1.07173311      -3.67852787
H        5.76109302       5.96600947       4.11057091      -1.17359078      -1.09039337      -0.82089483
H        5.54143506       5.43960648       2.34007022       0.51809920       0.43454319       1.99384469
H        3.97348884       3.70514195       1.73051013      -0.60089667      -0.82160531      -0.82698348
H        2.78791799       3.08802315       3.02906796       1.44875508       1.32389866      -0.75229856
H        0.65969684       0.11073150       4.55972894      -1.36260478       0.76735429      -1.14400018
H        1.58663297       8.09602836       2.90452573      41.75630305     -20.47501298      14.90690871
H        0.46788857       8.11392959       1.70624849       2.09501372       0.66503641       3.11968025
H        7.24042341       0.64546921       2.52307168      -6.28048339      -1.16292565     -10.09839140
H        7.31203813       1.15290192       4.07157775      -1.13282501       0.71819516       0.24581801
Pb       0.11553763       4.45314469       6.12314350      -0.16047806       0.26198865       0.25086034
Pb       4.37438457       8.91396646       0.27643190       0.44754880      -0.04206071      -1.41824719
I        8.76292463       4.46264428       3.08291289      -0.02215442       0.03631278      -0.20909654
I        4.36662469       8.91041110       3.05048691       0.20485075       0.04976249       1.55774182
I        2.06200642       2.00545672       0.03061118      -0.25982434      -0.03196658      -0.23080789
I        2.65460783       6.37858790       0.13176914      -0.15852961      -0.03043393      -0.02655105
I        6.30365231       2.73989834       6.10636248      -0.13842340      -0.25725929       0.09363198
I        6.91108272       6.96001743       0.08287231       0.14579090       0.11312338      -0.01776829
24
Lattice="8.84396844 0.02500502 -0.03124994 0.02500502 9.14942415 0.06005006 -0.02209441 0.04245675 6.49960872" Properties=species:S:1:pos:R:3:forces:R:3 config_id=t-FAPI3_al_combined_25__combined_strain_rattle_fa_rotation__sev-0.592__seed-new phase=t-FAPI3 mode=active_learning seed=2964556346 source=t-FAPI3/CONTCAR energy=-108.62323108 stress="0.007389786685370662 -0.00464312715803174 -0.018275131661439358 -0.00464312715803174 0.0028080770257111467 -0.0003818422151825722 -0.018275131661439358 -0.0003818422151825722 0.020550274372097495" pbc="T T T"
C        4.59771590       4.52751974       3.81439438      -4.22734336       4.10027008     -12.29049155
C        8.64081623       0.23302127       3.66756064      -2.75676140      -0.59711432       2.22074291
N        5.17285209       5.53126861       2.94168970      -7.54235701      -5.39747611      -2.22072442
N        3.56230719       3.79141382       3.52576114      -0.79172899       1.67537346      -5.27636254
N        0.90601912       8.61380517       3.94343343       0.77735094       0.93063856      -4.37277918
N        8.15338991       0.66011842       2.51331252      -2.07757822      -0.12502277      -1.34157703
H        5.12227058       4.44009436       4.54567430       5.62290202      -1.28520173       9.41933405
H        5.92833319       5.96472778       3.21952268       5.13117319       2.74846982       2.09793925
H        4.90885069       5.69650462       1.88417961       0.34204784      -0.58928372       2.68262635
H        2.96427850       3.86885909       2.29321661       1.91103709      -0.24758337       4.35200306
H        3.13882515       3.13484186       4.13658681      -0.45621812      -0.97846263       1.00111467
H        7.86029183       0.37669313       4.68096862       2.35675128      -0.23254024      -2.76267144
H        1.05662197       8.32917063       4.88275199       0.89853001      -0.57310158       0.94504705
H        1.66596622       8.42936776       3.05199461      -2.23911375       0.43898740       3.32317389
H        8.64182020       0.35960919       1.62035901      -0.71668661       0.59547142       1.09767940
H        7.01885923       0.88369350       2.37789243       3.53270904      -0.48965257       0.66799686
Pb      -0.00316645       4.67000411       6.44211739      -0.35177330      -0.19677710       0.01450180
Pb       4.28826955       9.14125601       6.46477035       0.92595307       0.95657472      -0.00376093
I        0.11626338       4.57810818       3.23972978      -0.04529921       0.08061972      -0.08528947
I        4.40273837       9.17586348       3.25672547       0.12482136       0.10154842      -0.15166995
I        1.87812180       1.98573862       6.27982901      -0.16033427       0.28825044       0.30363947
I        2.63719902       6.80229539       0.07384912      -0.90687969      -1.28533377       0.19700791
I        6.21376727       2.67988387       6.43731622       0.42331067       0.12651466       0.14534222
I        6.81748216       7.14129391       6.35169309       0.22548741      -0.04516880       0.03717761
24
Lattice="8.95158397 0.0 0.0 0.0 8.95158397 0.0 0.0 0.0 6.32897243" Properties=species:S:1:pos:R:3:forces:R:3 config_id=t-FAPI3_al_global_rattle_01__global_rattle__sev-0.208__seed-new phase=t-FAPI3 mode=active_learning seed=1638607990 source=t-FAPI3/CONTCAR energy=-109.38037435 stress="-0.016173078806418696 -0.01563148125797443 0.014801291294688204 -0.01563148125797443 0.004306186590436609 0.009200202261495889 0.014801291294688204 0.009200202261495889 0.018959460608551654" pbc="T T T"
C        4.44587328       4.58182260       3.53338968     -13.65099295     -12.33994100       7.67324102
C        8.82589827       8.93420134       3.63827752       2.96420328      -1.15340162      -4.33548778
N        5.33178953       5.08438699       3.06619006      16.56938078      14.70151340     -10.57406354
N        3.72752998       3.56036496       3.01074370      -2.91383330      -1.25203277      -3.73181264
N        0.76839278       8.04774925       3.05138033      -0.99034833       1.41147209       1.83863079
N        8.12567297       0.87952848       2.93909391      -1.51280452       0.21090564       2.84027892
H        4.50744783       4.41934831       4.59499145      -0.64490616       0.66069839       1.21750539
H        5.89276775       5.91097196       3.66568267      -1.41450367      -2.55928635      -1.56910794
H        5.47349507       5.40767873       1.88310676      -0.45469763      -1.49234330       3.65925082
H        3.49243623       3.41881885       1.87447081       1.11506829       0.75763272       3.36735663
H        2.99611163       2.94505725       3.49830476       1.46944030       1.71875453      -0.07508609
H        8.94120371       0.03388354       4.68089909      -0.53690837       0.22873467       1.53861828
H        1.51912104       7.61908663       3.67108622      -1.21220005       0.48657791      -0.99836722
H        0.90516904       8.05826647       2.03566835       0.12668730      -0.21550127       0.26598451
H        8.01456877       0.96535717       1.88977541       0.05016457      -0.12735885       1.46085605
H        7.46403705       1.39622036       3.66908747       1.20214785      -0.67622443      -2.54635682
Pb       0.03669621       4.45123457       6.22330625       0.19412213       0.05496730      -0.00739236
Pb       4.53757814       0.00338728       6.19988278      -0.08064804       0.01287648       0.07136270
I        0.02496946       4.50314086       3.07104286      -0.01539983      -0.05904910       0.01722916
I        4.49979056       8.93595495       3.09834086       0.00611880      -0.11005118      -0.03387100
I        2.06335103       1.94327940       6.32890547      -0.20153647       0.06590776      -0.01969625
I        2.54246934       6.44173733       6.31970966       0.12030031       0.15844672      -0.04725216
I        6.45416240       2.68080282       6.32248928      -0.18375071      -0.37431519      -0.08713001
I        6.97538243       6.95315789       6.15288270      -0.00510360      -0.10898256       0.07530956
24
Lattice="8.95158397 0.0 0.0 0.0 8.95158397 0.0 0.0 0.0 6.32897243" Properties=species:S:1:pos:R:3:forces:R:3 config_id=t-FAPI3_al_global_rattle_02__global_rattle__sev-0.224__seed-new phase=t-FAPI3 mode=active_learning seed=3775353260 source=t-FAPI3/CONTCAR energy=-107.75009249 stress="-0.018269302897070464 0.010098105046571906 -7.763721451502035e-05 0.010098105046571906 -0.023312469895703528 -0.02451182707958286 -7.763721451502035e-05 -0.02451182707958286 -0.02421683486470208" pbc="T T T"
C        4.42199878       4.38204008       3.57556272       6.64411646       8.02639524       3.90757795
C        0.04285213       8.86555012       3.59029537     -16.69885473      18.44499606       8.53550413
N        5.27538587       5.32608469       3.03245518      -3.51569843      -3.31700562       2.96104036
N        3.79176887       3.56986752       2.94149304      -2.51121427      -6.63003856      10.02621852
N        0.73790001       8.14271678       3.17470643      18.01756429     -18.01714685     -15.01035916
N        8.14395219       0.89122355       3.04424238       0.61376757      -1.22382875      -3.61485942
H        4.41506721       4.53774885       4.69721904      -0.28339790      -1.04313776      -1.03715409
H        5.86520144       5.85376883       3.59725629       1.12335412       1.21557988       1.32732432
H        5.35620623       5.35604966       2.09390414       0.72657825       0.39950934      -4.05971114
H        3.48329935       3.54731087       2.14199749      -3.42240321      -0.08466021     -11.68977479
H        3.18301810       2.90070726       3.57237494       1.19099508       1.26371158      -1.35082308
H        0.08270744       0.05680980       4.62823558      -0.40723179       0.12392261       2.16593854
H        1.49738006       7.49342000       3.56134487      -1.51452478       1.22924423       0.50250900
H        1.00632991       7.98439200       1.94302681      -1.28824298       0.64015502       3.50371074
H        7.96671745       1.02231502       1.92347307       0.75298990      -0.69918908       3.18554488
H        7.48489236       1.49737540       3.54485429       0.62333511      -0.66466826       0.60404618
Pb       8.93913993       4.49233183       0.04931928      -0.14751057      -0.12975717      -0.09881735
Pb       4.44765975       8.90306370       6.32214916       0.16273043       0.22170125      -0.14822283
I        8.91474426       4.41871382       3.12586923       0.11921274       0.14548055       0.10051175
I        4.47616759       8.79723261       3.01834828      -0.14302290       0.11364014       0.25176572
I        1.85575234       1.99545639       0.04675490       0.34996426      -0.27409684      -0.10413591
I        2.47666141       6.50473294       6.18936688      -0.22981129      -0.15351318       0.11647925
I        6.42800507       2.41853090       6.31172807       0.05716376       0.16857725      -0.02820627
I        6.97766455       6.90117380       6.26538632      -0.21985912       0.24412913      -0.04610731
24
Lattice="8.95158397 0.0 0.0 0.0 8.95158397 0.0 0.0 0.0 6.32897243" Properties=species:S:1:pos:R:3:forces:R:3 config_id=t-FAPI3_al_global_rattle_03__global_rattle__sev-0.240__seed-parity phase=t-FAPI3 mode=active_learning seed=347544039 source=t-FAPI3/CONTCAR energy=-111.74942518 stress="0.006068611883217414 0.0031335373858427484 0.0021109223952545646 0.0031335373858427484 0.008256120366676618 -0.00390955202359173 0.0021109223952545646 -0.00390955202359173 0.010619036602534352" pbc="T T T"
C        4.39580520       4.45336800       3.65414020       1.74938021       1.47770577      -7.14730724
C        0.01546064       0.10031798       3.65347199       0.26316227      -1.02816413      -2.29298947
N        5.30048718       5.28487123       2.97764362       0.24442409       0.79024329       2.73481663
N        3.56524761       3.65676448       2.98263731       0.95539061       0.20642547       0.51120569
N        0.84698974       8.13931805       3.02004312      -3.62995280       4.22211010      -2.86446627
N        8.11378124       0.99349745       3.00096323       5.97675628      -4.77117350       0.95817838
H        4.37191798       4.49684951       4.66180534      -0.00488830       0.10853732       3.37124016
H        5.89375019       5.91319052       3.71357945      -1.57642170      -1.66169570      -2.40263954
H        5.46710651       5.52981271       1.91206535      -0.70060472      -0.93772288       2.48316745
H        3.68611332       3.47220216       1.97477186      -0.16416449       0.16171145       0.45510761
H        3.11080818       2.93566695       3.53349898      -0.38954396      -0.14670174      -0.04027924
H        0.05422279       0.01248039       4.76420659      -0.37501848       0.51903673      -0.76299520
H        1.38710702       7.48757945       3.49838071       1.22214008      -1.36094615       1.37463777
H        0.85387280       8.11008853       1.92629725       0.14418176      -0.12914269       2.44191390
H        7.97283962       0.99778303       2.03189907      -0.11125397      -0.07408958      -1.87670385
H        7.46845680       1.38646832       3.53916056      -3.52191444       2.45215403       2.95913318
Pb       0.03635364       4.39546871       6.24221937      -0.23816187       0.29259998       0.24787041
Pb       4.56276253       8.91857357       6.26662452      -0.17743923       0.00366255      -0.04314129
I        8.92958993       4.42975730       3.25130567      -0.04559010       0.15483550      -0.35644767
I        4.51702200       8.94872877       3.05785822      -0.04276402       0.04305160       0.08175701
I        1.89394839       2.06451402       6.21464581       0.40880607      -0.55547231       0.06035997
I        2.48047873       6.37900553       6.16085176       0.13448591       0.23991295       0.09915070
I        6.33010562       2.57489386       6.30368122      -0.06155612      -0.00170373       0.01145065
I        7.05001698       7.07852634       0.00604670      -0.05945307      -0.00517431      -0.00301972
24
Lattice="8.95158397 0.0 0.0 0.0 8.95158397 0.0 0.0 0.0 6.32897243" Properties=species:S:1:pos:R:3:forces:R:3 config_id=t-FAPI3_al_global_rattle_04__global_rattle__sev-0.256__seed-new phase=t-FAPI3 mode=active_learning seed=3065620901 source=t-FAPI3/CONTCAR energy=-108.39203962 stress="-0.0027814842334765895 -0.0013230101303947327 -0.0005272686912496483 -0.0013230101303947327 -0.0019056082271850362 -0.0007257036115153379 -0.0005272686912496483 -0.0007257036115153379 -0.03209285411013283" pbc="T T T"
C        4.38131733       4.42133502       3.75947431       2.85305152       1.69274166     -20.25644477
C        8.91654478       0.00134748       3.79156384      -0.71654398       1.51025232     -17.22249287
N        5.30976532       5.22999910       3.09395773      -4.78351496      -4.27322793      -2.67728258
N        3.63553562       3.60493105       3.00902741       1.53132838       2.74049064       6.36134332
N        0.86012593       8.22342999       3.18434868       1.34440728      -2.23490866      -3.27692945
N        8.12906248       0.77105328       3.03516284      -1.76338849       1.21937788      -0.77911367
H        4.38910520       4.42002738       4.60909531      -0.30259776      -0.09862683      16.96912317
H        5.91379690       5.84639541       3.49469364       2.06724048       2.13745828       1.82403140
H        5.27773208       5.19681030       2.00075938       0.37009956       0.28680524       2.50004349
H        3.72948894       3.52929044       2.09639744       0.33590366      -0.60781440      -5.57955727
H        3.03344430       3.07700745       3.54618958      -1.98514376      -1.91010781       0.80871679
H        0.04374720       8.86545523       4.64841076       0.18570053      -0.31898779      15.24890687
H        1.56085323       7.67971580       3.72053688      -0.58937309       0.22887910      -0.22899495
H        0.85060806       7.99619368       2.08287160       0.06506137       0.86416760       3.07220557
H        8.06684987       0.79996305       1.81622383       0.27615600      -0.14054803       4.50938274
H        7.45644852       1.40177750       3.60042830       1.02140808      -1.10276722      -1.48771131
Pb       0.13168380       4.42540513       6.32247289      -0.53470941      -0.00019997      -0.00737902
Pb       4.37582669       8.89896199       6.21503675       0.54159977       0.00665965       0.04803481
I        8.91080583       4.48929438       3.12050960       0.06303694      -0.01103992      -0.02218057
I        4.44579039       8.93207892       3.06916790       0.02319744      -0.01105626      -0.01734129
I        1.99427183       1.89937940       6.30868915      -0.14048480       0.07520809      -0.02037161
I        2.45019928       6.43108638       6.06965671       0.19194337       0.09234466       0.13517177
I        6.44960605       2.52653203       6.25218459      -0.05649859      -0.17108585       0.03433546
I        6.98078829       6.92189529       6.24002233       0.00212046       0.02598556       0.06450397
24
Lattice="8.95158397 0.0 0.0 0.0 8.95158397 0.0 0.0 0.0 6.32897243" Properties=species:S:1:pos:R:3:forces:R:3 config_id=t-FAPI3_al_global_rattle_05__global_rattle__sev-0.272__seed-new phase=t-FAPI3 mode=active_learning seed=732447489 source=t-FAPI3/CONTCAR energy=-110.00113807 stress="0.02159430863666239 0.007794207191567079 0.0020877789231063533 0.007794207191567079 0.019623286822336335 0.0019017651427709562 0.0020877789231063533 0.0019017651427709562 -0.0029398857085107706" pbc="T T T"
C        4.59718262       4.48048808       3.60154676      -1.99579535       0.03192848      -0.28276271
C        0.04412182       0.03015771       3.66752060      -0.95702737      -0.11347996      -1.49565624
N        5.38109468       5.43745940       2.92199081      -1.76155713      -2.30663048      12.65584161
N        3.55632449       3.71666723       3.02689600       0.90677798      -0.47191098      -0.19037589
N        0.83612673       8.08549701       3.00627912      -1.58373399       2.08510307      15.98314815
N        8.11775646       0.84935305       3.05684103      -0.63512780       1.10379257       0.24631544
H        4.62880195       4.38752042       4.85684129       0.19218625       0.54221784      -3.57906760
H        5.89240217       6.08736382       3.68171389      -1.00277104      -1.63931628      -2.41645428
H        5.49661755       5.56112338       2.04034287       0.70317461       0.92568083      -7.58864414
H        3.47104140       3.53470605       1.94652946       0.32356433       0.75847150       2.25835526
H        2.84618620       3.00928970       3.56427772       2.52471341       2.18345949      -0.84213949
H        8.90822366       0.05314475       4.78031326       0.63399641      -0.22468051      -0.82461002
H        1.52126709       7.56879242       3.57851645      -0.40106565       0.17677837      -0.34109406
H        0.88755716       8.04086074       2.16935315       0.82355582      -0.65926363     -14.14104159
H        7.98023005       0.98138220       2.00295218       0.47759585      -0.42786387       1.59718653
H        7.49867547       1.56878219       3.63131015       1.66622488      -1.94601619      -1.05870734
Pb       8.93046163       4.62757263       0.08740975       0.32778167      -0.35145220      -0.14777305
Pb       4.45304171       0.06843173       0.01579332      -0.10493584       0.00577548      -0.03959624
I        8.83433944       4.40444455       3.11179954       0.12463295       0.02515686       0.16120814
I        4.48243773       0.07689205       3.12132591       0.00924883      -0.02894797       0.04862320
I        1.91312286       1.99265750       6.28186190       0.16373447      -0.13627608      -0.00892885
I        2.70790070       6.38402173       6.22405788      -0.19269614      -0.08616597       0.03678018
I        6.43209254       2.52178662       6.30087097       0.16209333       0.09716884      -0.01189350
I        7.11037984       6.99284975       6.17712848      -0.40457046       0.45647078      -0.01871349
24
Lattice="8.95158397 0.0 0.0 0.0 8.95158397 0.0 0.0 0.0 6.32897243" Properties=species:S:1:pos:R:3:forces:R:3 config_id=t-FAPI3_al_global_rattle_06__global_rattle__sev-0.288__seed-new phase=t-FAPI3 mode=active_learning seed=3468941427 source=t-FAPI3/CONTCAR energy=-109.82155585 stress="-0.00827605102824379 0.021333396203805102 -0.009537600768615586 0.021333396203805102 -0.006254727837057201 0.010608906845434354 -0.009537600768615586 0.010608906845434354 0.023582868729624645" pbc="T T T"
C        4.52506347       4.47184308       3.71550061      -0.83092841       0.12069419      -4.48628789
C        8.90526713       0.08211404       3.67091578       8.56250817      -9.42678641       9.07155586
N        5.29658832       5.29974232       2.98529332       2.92950233       1.60913489       4.26353625
N        3.61581519       3.71849971       3.07442152      -1.53839628      -2.60935473      -1.69234628
N        0.71776334       8.17343943       3.06947258       1.50270695      -1.31459958      -1.73977218
N        8.16719650       0.78550122       3.15424638     -11.56787653      13.66722914      -9.40394185
H        4.58760631       4.53497431       4.77408377      -0.08685396      -0.12930257       0.97762572
H        6.07869099       5.85868853       3.66275121      -2.45476062      -1.62412958      -2.34089979
H        5.50147396       5.38511823       1.98714469      -0.51214245      -0.41127121       0.06796322
H        3.58100875       3.55577916       1.84777559       0.20016379       0.76133289       4.41821445
H        2.91172316       2.98043615       3.59321517       2.29998621       2.36568433      -1.22562578
H        8.90579608       8.88264173       4.83120876       0.00603724       0.61301930      -1.74215205
H        1.42070455       7.61970814       3.49132846       0.56600947      -0.52111636       1.49247489
H        0.88295998       8.07792549       2.07270853      -0.58846059       0.54553465      -0.52512543
H        8.17695444       1.03944271       1.98371261      -0.09062101      -1.06312147       3.65580523
H        7.56560360       1.61496780       3.64732333       1.66943792      -2.52762158      -0.97558447
Pb       0.08117538       4.41404038       6.27659259       0.13296004       0.51286367       0.02238188
Pb       4.59730902       0.14369092       6.25049786      -0.12637179      -0.51134181      -0.06321953
I        0.00645355       4.26852128       3.13545579      -0.05748033       0.08647225      -0.05435706
I        4.51317264       0.02888094       3.00459517      -0.02396906       0.01665632       0.12065315
I        2.01892611       2.00060203       6.24748533       0.12871378      -0.08837361       0.06117513
I        2.48502371       6.44490808       6.32178557       0.14149181       0.11475406      -0.00187115
I        6.53567660       2.52636974       6.29109707      -0.08197107      -0.05128873       0.03086289
I        7.08978466       7.04137709       6.13963831      -0.17968558      -0.13506806       0.06893478
24
Lattice="8.95158397 0.0 0.0 0.0 8.95158397 0.0 0.0 0.0 6.32897243" Properties=species:S:1:pos:R:3:forces:R:3 config_id=t-FAPI3_al_global_rattle_07__global_rattle__sev-0.304__seed-new phase=t-FAPI3 mode=active_learning seed=1137749044 source=t-FAPI3/CONTCAR energy=-109.14936347 stress="-0.011574227878035456 0.010434668015347938 0.0022852629869057695 0.010434668015347938 -0.009845873934999314 -0.0030805337351231432 0.0022852629869057695 -0.0030805337351231432 0.01571302923982849" pbc="T T T"
C        4.38949522       4.47095151       3.58189669      -0.32391292      -0.55556958      -1.24913097
C        0.01097831       8.85854631       3.69939774       1.23318432       0.24541188       1.00809006
N        5.19657729       5.34145536       3.04367189       1.92939950       0.43314902      -1.86001167
N        3.56400835       3.64895109       2.89917594       0.64744944       1.40576959      13.45931444
N        0.87417007       8.32596323       2.95209672       6.77797227      -8.20733501      -0.60349051
N        8.32060320       0.77633552       3.10224482      -8.18922717       6.92411699      -4.66022816
H        4.36454725       4.36719235       4.65137867       0.04375731       0.11216481       0.55498222
H        6.02461527       5.78530792       3.55734250      -1.59238705      -0.67330427      -0.53701355
H        5.33893665       5.29075806       1.97147453      -0.16745538       0.45593091       1.92697852
H        3.58015020       3.54811239       2.03000911      -0.16152233      -1.58372227      -9.73673870
H        3.21257605       2.99455799       3.67358907      -0.25569556       0.34701203      -2.48240368
H        0.02708051       8.91444027       4.77848374       0.08153076      -0.79770945       0.46538834
H        1.49444823       7.44325944       3.69994171      -1.65859714       2.72168888      -3.10137004
H        0.98664251       8.19542210       1.79484633      -0.67004745       0.54707643       3.88925196
H        8.17734581       0.83847750       1.90410325       0.62323706      -0.24042934       4.22330324
H        7.55374454       1.37821926       3.60987373       1.73402845      -1.39363607      -1.15786288
Pb       0.00518610       4.51096133       6.23631222       0.01983958       0.07796618       0.06444331
Pb       4.43710055       0.20480195       6.24864037       0.33191732      -1.02321062       0.01537230
I        8.85071564       4.44767676       3.14266980      -0.03007186       0.01479807      -0.03519027
I        4.46470178       8.92013938       3.13591325       0.10460861       0.05802171      -0.02740925
I        2.04829536       1.85373886       0.03755834      -0.75151901       0.51441456      -0.09083452
I        2.51973518       6.35323320       6.13466266      -0.09995742       0.16207032      -0.01172957
I        6.43373149       2.39668554       0.03104912       0.39043728       0.42261877       0.00954885
I        7.00184690       6.89889428       0.07929171      -0.01696864       0.03270646      -0.06325945
24
Lattice="8.95158397 0.0 0.0 0.0 8.95158397 0.0 0.0 0.0 6.32897243" Properties=species:S:1:pos:R:3:forces:R:3 config_id=t-FAPI3_al_global_rattle_08__global_rattle__sev-0.320__seed-parity phase=t-FAPI3 mode=active_learning seed=2130594558 source=t-FAPI3/CONTCAR energy=-109.33017388 stress="0.01700193907860074 0.008735711667675835 0.003748581824269246 0.008735711667675835 0.01591834274629805 -0.0009319216374874217 0.003748581824269246 -0.0009319216374874217 0.004661585934433827" pbc="T T T"
C        4.54078415       4.52448090       3.68011874      -1.57644309      -1.82129019      -5.17700948
C        0.03647985       8.92657459       3.73103190      -1.52147299       0.06731621     -13.81744202
N        5.38121803       5.37670097       2.87486066      -1.97783032      -2.27124444       6.90767020
N        3.59722848       3.50975826       2.96917090       3.59393827       3.28675707       9.52114562
N        0.72054513       8.06005678       2.91858026       1.51355245      -1.03096095      11.16495732
N        8.16919163       0.78795817       2.98926760      -1.41900420       2.01430146       4.95205580
H        4.58633286       4.50119031       4.84749682       0.03100848       0.17624069      -2.22385899
H        5.90438521       5.93099307       3.63330573      -0.31007843      -0.27155328      -2.13548753
H        5.40062193       5.58203312       1.88806747      -0.16896082      -0.02328312      -0.51612053
H        3.52123159       3.56674646       2.04849262      -0.63103104       0.27720963      -5.24434395
H        2.89116809       3.01766919       3.58439740       1.05094729       0.75369440      -1.02172398
H        0.13763383       8.86011427       4.66866632       0.37329132       0.06088795       7.39133940
H        1.39146769       7.46570661       3.67071496      -1.54090809       1.23805680      -3.58176845
H        0.73232891       8.13179657       1.98813897       0.48495630      -0.05034269      -4.67506493
H        7.92445282       0.87948874       2.00650369       0.71689312      -0.77151677      -0.31747231
H        7.53565975       1.48317067       3.54786081       1.43778865      -1.51545964      -1.01306870
Pb       8.89499412       4.41310610       6.27232952       0.14506541       0.01476139      -0.04792636
Pb       4.48386819       0.01494001       0.00339670      -0.35629662      -0.29625529      -0.14706827
I        0.06353879       4.46332861       3.02089348      -0.10965216      -0.05070914       0.19802227
I        4.51875968       8.94286620       3.05147248      -0.02632552      -0.06029604       0.21967267
I        1.90289541       1.83057744       0.09338006      -0.29976674       0.12347040      -0.14123155
I        2.55061474       6.32145651       0.02156832      -0.16977740      -0.10258462      -0.19431799
I        6.21378722       2.47340250       6.25459428       0.50597209       0.48388952       0.02050039
I        6.96336699       7.04123037       6.30309402       0.25413403      -0.23108935      -0.12145864
24
Lattice="8.95158397 0.0 0.0 0.0 8.95158397 0.0 0.0 0.0 6.32897243" Properties=species:S:1:pos:R:3:forces:R:3 config_id=t-FAPI3_al_global_rattle_09__global_rattle__sev-0.336__seed-new phase=t-FAPI3 mode=active_learning seed=3683584627 source=t-FAPI3/CONTCAR energy=-108.92013877 stress="-0.036919362604645 -0.018410006404457453 0.03185055197879467 -0.018410006404457453 -0.02837157616699134 0.0008874909741786191 0.03185055197879467 0.0008874909741786191 -0.0035036130643306415" pbc="T T T"
C        4.49291824       4.57189467       3.63409293     -14.70430305     -14.15289847      13.25326577
C        0.04579756       8.93797228       3.68154269      -4.01368237       3.82387527       2.15813619
N        5.26257955       5.20086214       3.18817366      17.60641656      17.07964502     -13.58391194
N        3.75862984       3.66743549       3.05659034      -2.22341238      -1.30156374      -4.33962649
N        0.73665565       8.07489368       3.10681168       4.52278735      -4.01617940      -0.28260380
N        8.13679603       0.89599072       3.15509997       9.98462730      -9.11897139      -7.65134603
H        4.52276981       4.45373761       4.83247842      -0.48606060       0.31774047      -2.18516182
H        5.88208959       5.91229877       3.64821306      -0.56726093      -0.86937115       0.01083057
H        5.27241582       5.44901831       2.05829208       0.22990535      -0.89721446       2.88690910
H        3.40730201       3.59565077       2.00593104       1.67630216       0.72725727       2.02779019
H        2.97986325       3.33147833       3.53419010      -1.44864319      -0.90322831       1.79983642
H        0.06445203       8.90092355       4.76498170      -0.01344111       0.15321648       0.31150214
H        1.43480580       7.48160167       3.72421092      -1.70264860       1.31330267      -1.19110731
H        0.96489374       7.94590735       2.12894108      -0.38070940       0.20244880      -0.64592512
H        8.09601091       0.89205990       2.12682226      -0.33968381       0.35865649       0.37900049
H        7.58390995       1.38416338       3.57675238      -8.04576906       7.21050144       6.85262911
Pb       8.85292991       4.44602824       6.22096795      -0.06897852      -0.05555146       0.28975004
Pb       4.35111844       8.91373605       6.27947904       0.19945238       0.06221607       0.04473297
I        0.01148721       4.47738581       3.23337657      -0.01538512       0.03651136      -0.36716659
I        4.48252089       8.77544329       3.16795873      -0.02243881      -0.02305912      -0.08454161
I        2.01145261       2.00663889       6.10499294      -0.01679919       0.04748075       0.19823426
I        2.40139345       6.42401964       0.01255124       0.10383910       0.05874805       0.01128847
I        6.47193890       2.39539911       6.30289396      -0.09654637       0.02853738       0.04728616
I        7.04948293       7.03774516       6.32381204      -0.17756770      -0.08210000       0.06019883
24
Lattice="8.95158397 0.0 0.0 0.0 8.95158397 0.0 0.0 0.0 6.32897243" Properties=species:S:1:pos:R:3:forces:R:3 config_id=t-FAPI3_al_global_rattle_10__global_rattle__sev-0.352__seed-new phase=t-FAPI3 mode=active_learning seed=2715035719 source=t-FAPI3/CONTCAR energy=-109.34165671 stress="-0.022433186100327348 0.003848411142662456 0.0032552166797914124 0.003848411142662456 -0.018292303781942694 -0.0004944055166679911 0.0032552166797914124 -0.0004944055166679911 -0.01455666568667983" pbc="T T T"
C        4.49866328       4.59322943       3.72528279      -7.03019074      -8.64676533      -0.38250912
C        0.08813309       8.94898533       3.59016562      -3.16284347       2.32687387       0.03160704
N        5.34099623       5.16856715       3.11016920       4.68898503       4.65571003      -8.94797896
N        3.72377577       3.58152329       2.97150426      -0.26411720       1.29405436      11.48880970
N        0.78114655       8.09209808       2.98984233       0.54605464      -0.47285399       0.52757580
N        8.23621563       0.83327404       2.93772356       4.43633016      -1.04750290       6.35665090
H        4.57495745       4.54613926       4.80916470      -0.64562402      -0.07288364       0.14799741
H        5.86121610       5.80146544       3.61655567       2.18597507       2.18280391       1.03650535
H        5.36950005       5.30223220       1.90682193       0.10611994      -0.46147835       4.02940938
H        3.57466243       3.56771377       2.03148300      -0.83252432       0.11935197      -3.30963040
H        3.01187644       3.14376299       3.87940954       1.86309565       0.99547649      -4.17577769
H        0.02266935       8.93732696       4.67991499       0.31067582       0.24026499      -0.04882160
H        1.33695102       7.56314093       3.55751540       2.16889021      -2.27158048       1.57003845
H        0.86101079       7.99302974       2.04139170       0.23057711      -0.31062668      -3.16427072
H        7.89354577       0.77785738       2.11390736      -2.23139513      -0.93189097      -7.87266781
H        7.65095919       1.31833218       3.49644822      -2.38519416       2.38411866       2.56710999
Pb       0.11317514       4.45702893       6.30694849      -0.52601228       0.36015144      -0.09343240
Pb       4.38871196       0.02977592       6.07848107       0.22405235       0.28359472       0.73995554
I        8.86661661       4.48175795       3.05117774       0.03484914       0.08261699       0.10635718
I        4.54508897       0.04470296       3.22017921      -0.02801756      -0.10733324      -0.85228393
I        1.80567019       2.02270851       6.21175499       0.30990300      -0.32824637      -0.05615378
I        2.69648134       6.41533401       6.19488283      -0.52513373      -0.32336207       0.14647343
I        6.34745191       2.50914931       6.27376221       0.24365496       0.27993909       0.05889170
I        6.82775372       7.06518884       6.26505069       0.28188952      -0.23043249       0.09614455
24
Lattice="8.95158397 0.0 0.0 0.0 8.95158397 0.0 0.0 0.0 6.32897243" Properties=species:S:1:pos:R:3:forces:R:3 config_id=t-FAPI3_al_global_rattle_11__global_rattle__sev-0.368__seed-new phase=t-FAPI3 mode=active_learning seed=1677727419 source=t-FAPI3/CONTCAR energy=-110.89679062 stress="-0.007627737479965107 -0.012468092119597604 0.002646225456643488 -0.012468092119597604 -0.01019891461893937 -0.0016248906432675867 0.002646225456643488 -0.0016248906432675867 -0.004231645158206518" pbc="T T T"
C        4.39824656       4.43851678       3.56412620       2.16317364       0.74737600       7.47162173
C        0.06646623       0.01445242       3.57970605      -4.29333836       4.13043188      -0.05683492
N        5.23918799       5.24923516       3.13955070       2.55447226       2.85729505      -5.15523123
N        3.74318128       3.54647542       2.98353324      -3.23073839      -2.98855714       1.76609867
N        0.88393777       8.17921445       2.99509209      -1.35154385       1.36791700      -4.90988384
N        8.08692013       1.02688400       2.95312980       5.99629046      -5.44805314       2.96689418
H        4.57557162       4.50083091       4.72922370      -1.54352075      -0.97326994      -1.61213022
H        5.92786163       5.83401376       3.56655444       0.08438711       0.32039589       1.43193133
H        5.37465455       5.29589690       2.13108470       0.10317309       0.19831304      -0.45829232
H        3.57371428       3.57103373       2.00272630      -0.53400313      -0.56612395      -1.06001065
H        3.18577242       3.00281663       3.74131851       0.40370701       0.42403843      -2.35744336
H        8.95041409       8.94267150       4.71323710       0.12473411       0.07853728      -1.34410711
H        1.39391622       7.50538862       3.39686792       2.41079546      -2.94898310       3.26634476
H        0.99027300       7.92730148       1.96188475      -0.64400571       1.19004838       0.83174232
H        7.99740214       1.05164775       1.98565649      -0.49042431       0.21336480      -2.10986249
H        7.46909711       1.38288482       3.60553794      -1.76691416       1.12582759       1.32331580
Pb       8.94274115       4.43083444       6.30329421      -0.09377728       0.29684570       0.26921379
Pb       4.46818108       0.01510302       0.05060849       0.03716532      -0.08733548      -0.04507465
I        0.06566658       4.37927663       3.30780491      -0.00625103       0.27682392      -0.41645500
I        4.43456591       8.91950015       3.16968281       0.01237697      -0.02297241       0.00140897
I        1.80941536       1.97897832       6.26201507       0.53108477      -0.34109410       0.01864432
I        2.44110098       6.46034956       0.00446395       0.17504043       0.10328778       0.08499409
I        6.55429849       2.44004997       6.25776978      -0.39362024      -0.03466721      -0.01079162
I        7.06117155       7.04511867       6.17402191      -0.24826342       0.08055372       0.10390743
24
Lattice="8.95158397 0.0 0.0 0.0 8.95158397 0.0 0.0 0.0 6.32897243" Properties=species:S:1:pos:R:3:forces:R:3 config_id=t-FAPI3_al_global_rattle_12__global_rattle__sev-0.384__seed-new phase=t-FAPI3 mode=active_learning seed=3334769154 source=t-FAPI3/CONTCAR energy=-105.8206158 stress="-0.01439156005065581 -0.016415449987572307 -0.013888135703097137 -0.016415449987572307 -0.017550915651209083 -0.016306365796896295 -0.013888135703097137 -0.016306365796896295 -0.017825323506305904" pbc="T T T"
C        4.41201168       4.43268787       3.55088555       5.81954466       5.16806317       5.28847005
C        0.02706735       8.90860930       3.63464887      -3.69437432       5.74413059      -0.49272025
N        5.41982845       5.32597574       3.14880043     -23.78194819     -26.41730125     -26.23568780
N        3.52462872       3.74808702       2.97699363      -0.42005794      -0.44507703       3.45661052
N        0.76952551       8.10504664       2.97874018      -2.75587284       2.84166963      -3.07780460
N        8.14979865       1.04150417       3.12637169       4.37414320      -6.30569421      -5.12323252
H        4.47638413       4.42854069       4.72320535      -0.70815703      -0.50797263      -1.94454250
H        5.79944946       5.78222679       3.57279386      18.60563926      22.41234006      20.69812691
H        5.23138283       5.30769580       1.99640543       2.01438553       1.38386203       3.59225913
H        3.44173034       3.51338347       2.07437135      -0.53497533      -0.95361933      -4.68097200
H        3.14078068       3.13166233       3.67934325      -1.00228944      -0.71753353      -0.19962621
H        0.13052466       0.02372107       4.68352453      -0.07438760      -0.53172534       1.38866638
H        1.33768183       7.53845962       3.40738984       3.88929084      -4.16322303       3.85185265
H        1.08426732       8.17365749       2.04339349      -0.39536296       0.40042914      -1.90496543
H        8.09435308       0.83734862       1.84742806      -0.51514848       1.57862900       4.66764010
H        7.52989940       1.59478421       3.67522651      -0.75875885       0.40759831       0.62315467
Pb       0.18056562       4.45547270       6.13496778      -0.09945727      -0.09521533       0.71895418
Pb       4.72364747       0.02480126       0.04589359      -0.05730621      -0.07777004      -0.02990167
I        0.04443065       4.53577109       3.26882793       0.00896517       0.03059893      -0.81033643
I        4.48071840       0.01831888       3.22910629      -0.05470206       0.02689577      -0.07344537
I        2.00310123       1.89860894       0.02749856       0.21587852      -0.17190658      -0.00860965
I        2.47588835       6.43854959       6.32611496       0.59752762       0.35274881       0.08159050
I        6.54447216       2.62984128       6.23375469      -0.35400586      -0.30319631       0.10447739
I        7.19866179       6.95116518       6.28959515      -0.31857041       0.34326916       0.11004194
24
Lattice="8.95158397 0.0 0.0 0.0 8.95158397 0.0 0.0 0.0 6.32897243" Properties=species:S:1:pos:R:3:forces:R:3 config_id=t-FAPI3_al_global_rattle_13__global_rattle__sev-0.400__seed-parity phase=t-FAPI3 mode=active_learning seed=896969109 source=t-FAPI3/CONTCAR energy=-110.71344577 stress="-0.013340112290071933 0.0007570501181039329 -0.00766791483567253 0.0007570501181039329 -0.01301402616871839 -0.011954433756770496 -0.00766791483567253 -0.011954433756770496 -0.01891785754236366" pbc="T T T"
C        4.47004006       4.52630622       3.42808963       2.86690886       1.58146364       6.06837260
C        0.01026702       8.94192521       3.62678347      -1.07232813       0.31158562      -0.70530093
N        5.36920715       5.36626450       2.98830237      -2.76907668      -2.21199494      -3.75345055
N        3.74025483       3.67672750       2.87753225      -3.75640023      -3.30482426       7.12724563
N        0.72101509       8.01406623       3.09038863      -0.29435313       0.34936433      -1.18460424
N        8.11397728       0.80804418       3.05662090       1.56719454      -0.52465174      -5.50404332
H        4.46175671       4.40330179       4.59809062       0.05728621       0.64005503      -1.94189467
H        5.87877777       5.85929107       3.62651892       1.93748803       1.92229535       1.77116132
H        5.40573310       5.45430467       1.95458776       0.79541655       0.62216108       0.73905432
H        3.61134307       3.62367567       1.97853191      -1.31954161      -0.84816602      -6.62806875
H        3.03778698       3.14119433       3.67501366       1.96781661       1.36314781      -3.17691745
H        0.00859227       0.06661384       4.66621638       0.16321028      -0.06762624       1.96450333
H        1.47262463       7.51722074       3.41787125       2.10856016      -1.21331590       3.23085366
H        0.92322636       7.82260062       2.15528751      -0.99631367       0.51477198      -3.04742708
H        7.89263065       1.00257042       1.98312009       1.10699765      -0.99972941       2.31173627
H        7.37947278       1.15447773       3.53817849      -2.67696653       1.74666850       2.77307904
Pb       8.93748182       4.67588764       6.18202337      -0.01637126      -0.70559513       0.17509999
Pb       4.36590198       0.00836382       0.01544187       0.07302519       0.32552070      -0.34409926
I        8.83960243       4.56245048       3.16983945       0.14118532      -0.08499249      -0.30222699
I        4.42905209       8.80103220       2.98055368      -0.04333740       0.14004151       0.37743101
I        1.71871128       2.06344242       6.13862352       0.66690503      -0.45126321      -0.02772997
I        2.48540622       6.39853368       6.25553293       0.33482246       0.21102722       0.06175737
I        6.38835850       2.56276500       6.14952828      -0.14890293      -0.24910748       0.15374978
I        6.95725547       6.83954349       0.06992204      -0.69322533       0.93316409      -0.13828112
24
Lattice="8.95158397 0.0 0.0 0.0 8.95158397 0.0 0.0 0.0 6.32897243" Properties=species:S:1:pos:R:3:forces:R:3 config_id=t-FAPI3_al_global_rattle_14__global_rattle__sev-0.416__seed-new phase=t-FAPI3 mode=active_learning seed=3847535413 source=t-FAPI3/CONTCAR energy=-100.95704999 stress="-0.029319144225525326 -0.010154082564178683 0.003985596248940097 -0.010154082564178683 -0.04522136350599281 -0.0483268632152044 0.003985596248940097 -0.0483268632152044 -0.013966398485347316" pbc="T T T"
C        4.50248382       4.39264099       3.64879956       1.65410744       4.73271103      -3.06394413
C        0.04983705       0.00480020       3.54645641     -14.89241357      15.49495728      11.65308543
N        5.41129651       5.31625307       3.16137534     -34.06543360     -43.06645306     -29.44274134
N        3.48992065       3.90890160       2.90371977      -0.29904020      -1.14955227      15.29813750
N        0.64227042       8.26376118       2.91659752      14.15534808     -15.46008377      -8.68871524
N        8.07528593       0.95638652       2.98616476       5.26361535      -4.49332500      -4.03974996
H        4.48805485       4.50568231       4.68139161      -0.65187115      -0.99980204       2.15320543
H        5.77687231       5.80031033       3.44637415      30.42227179      39.72997892      24.12201631
H        5.19574595       5.33265434       1.91902159       1.65098698       0.67829147       4.53099871
H        3.52631538       3.68890201       2.06644595       0.58336217      -2.56649718     -10.84243538
H        3.07599843       3.04420428       3.61393420       0.60158870       2.63539358      -2.79852941
H        8.93081719       8.93635661       4.75488249       0.50615732      -0.04879856      -2.68773026
H        1.28133734       7.58688877       3.49988979      -0.96769193       0.95416124      -1.32524666
H        0.85404207       8.06474589       1.92904137      -0.66320837       0.60072004      -0.21411247
H        8.06214492       0.82276515       1.82371454      -0.90145314       1.17796449       4.04656206
H        7.47808199       1.32587120       3.63879624      -2.39008734       1.58209676       1.21480704
Pb       8.89222038       4.55390780       6.25042716      -0.12336372      -0.47693732      -0.00758173
Pb       4.44223357       8.94882455       6.26114091      -0.01708224       0.16777025      -0.17468663
I        8.90087710       4.47754891       3.09276649       0.04778609       0.16625601       0.02070163
I        4.48637544       0.00515933       2.94675184      -0.12276334      -0.00268780       0.30154621
I        1.85328591       1.95409802       0.02847114       0.19721956      -0.19056373      -0.12740733
I        2.36320671       6.38217717       6.32819745       0.54588901       0.45765867      -0.04795048
I        6.31335927       2.66903659       6.14178294      -0.20699864      -0.33809485       0.09782400
I        7.06637206       7.00918191       6.29304918      -0.32692525       0.41483583       0.02194670
24
Lattice="8.95158397 0.0 0.0 0.0 8.95158397 0.0 0.0 0.0 6.32897243" Properties=species:S:1:pos:R:3:forces:R:3 config_id=t-FAPI3_al_global_rattle_15__global_rattle__sev-0.432__seed-new phase=t-FAPI3 mode=active_learning seed=2221333174 source=t-FAPI3/CONTCAR energy=-107.11092088 stress="-0.0029258270899367752 -0.00765972504571451 -0.002606937091563882 -0.00765972504571451 -0.006695010538004226 -0.004535415044548377 -0.002606937091563882 -0.004535415044548377 -0.06681599095894135" pbc="T T T"
C        4.34964412       4.50702415       3.61512361       5.14653306       4.27992182      -3.00039855
C        8.87946428       8.87790670       3.65514151      -0.38074639       2.85605245      -4.83475035
N        5.30544108       5.37165102       2.93286120      -1.65228142       1.49581438      31.23903807
N        3.59644853       3.73193505       2.99041941      -0.64215540      -1.45397641      -3.24094012
N        0.83960666       8.18917944       3.02261129       0.02383036      -1.01597237       8.17157047
N        8.11550522       0.79599436       2.92372274      -1.71135914       0.38284532      13.36490022
H        4.42765278       4.51045628       4.63587471      -0.30370157       0.10955849       2.71864003
H        5.78643448       5.86380786       3.79180884      -0.03887693      -0.37162191      -3.32943767
H        5.24021214       5.23451320       2.17870154      -0.49397500      -3.05698989     -25.98469596
H        3.73509961       3.39803918       2.03150066       0.06913222       0.76377703      -0.39617954
H        3.08567930       3.04411226       3.42331461      -1.86264575      -1.90673339       2.07292052
H        0.04133457       0.03996184       4.67874793      -0.47668402       0.02592065       2.11059784
H        1.52858206       7.63679787       3.54093419      -0.34229354       0.08638715       0.24313085
H        0.96616657       8.12436407       2.14108340       0.63051862      -0.23833111      -8.16673138
H        8.08238821       0.96978023       2.05367175       0.05510541       1.10916091      -8.61249678
H        7.48100263       1.62315859       3.58640798       2.18756206      -3.10874533      -2.19542714
Pb       0.03934642       4.45795694       6.28155083      -0.03197772      -0.44292090      -0.07000245
Pb       4.27947417       8.81634102       6.12385961       1.14639690       1.24056534       0.28155921
I        0.06286823       4.49370142       3.04110359       0.02932091      -0.04190736       0.07919742
I        4.42665021       0.09486083       3.14035916      -0.01328496       0.04005539      -0.34871991
I        1.94848636       1.95872169       6.25272394       0.35940976      -0.32095895       0.02286549
I        2.57697555       6.60990152       6.22684522      -0.90927287      -1.37517836       0.05647718
I        6.54778272       2.39582028       6.19063305       0.07615394       0.20221421      -0.10452788
I        7.27474175       6.82312673       6.14844634      -0.86470853       0.74106284      -0.07658957
24
Lattice="8.95158397 0.0 0.0 0.0 8.95158397 0.0 0.0 0.0 6.32897243" Properties=species:S:1:pos:R:3:forces:R:3 config_id=t-FAPI3_al_global_rattle_16__global_rattle__sev-0.448__seed-new phase=t-FAPI3 mode=active_learning seed=2672412283 source=t-FAPI3/CONTCAR energy=-108.00278959 stress="-0.0018110768452925864 0.011724044001229257 -0.00467837618692582 0.011724044001229257 -0.0032601766385730053 0.00284062084099536 -0.00467837618692582 0.00284062084099536 -0.02075390306431814" pbc="T T T"
C        4.39333563       4.36863803       3.75430676       1.53307954       2.60712496     -15.80486269
C        0.15289350       0.05413166       3.58927438       1.59616791      -3.53329966       7.43676991
N        5.38087661       5.20619263       3.08418928      -1.96205387      -0.57439214       3.12454726
N        3.57575542       3.59828181       2.98485555       4.16712863       2.26011050      14.64323156
N        0.88526009       8.11080009       3.00090386       1.32800513      -0.68744001       3.20571467
N        8.24371267       0.74590139       3.10230526      -8.76653890       7.86110809      -7.05800886
H        4.61781620       4.39597886       4.62812824       1.25814335      -0.72719522      11.17345731
H        5.94663427       5.99924147       3.60806231      -1.55730080      -2.11321421      -0.91332492
H        5.25114167       5.36565355       2.10004457       0.12698717       0.19219380      -0.67612950
H        3.47472086       3.62815826       2.13619844      -1.45258712       0.40879798     -11.98484083
H        3.12262015       3.02624982       3.62309368      -2.01773454      -2.09362094       0.52562124
H        8.94937472       8.94870246       4.87154482       1.13820434       0.16211583      -3.35728680
H        1.42761687       7.55898623       3.76294651      -0.44185330       0.37184954      -2.54492527
H        0.80560433       8.12198017       2.01272158       0.81839425      -0.99266588      -1.31583459
H        7.91542344       0.91141107       1.90659750       1.63525020      -0.97646963       3.45930843
H        7.54255703       1.52084001       3.51002064       2.34667878      -2.32550727       0.08220030
Pb       8.87420012       4.50589133       0.15673283       0.10747587      -0.07564258      -0.19422842
Pb       4.22793981       0.04678563       0.10235151       0.49763691       0.32150570      -0.38928314
I        0.15547478       4.30161439       3.15743669      -0.11747984       0.11938820       0.21369885
I        4.43392740       8.81508861       3.02712618       0.18125590       0.10020274       0.50629225
I        1.80255173       1.94120111       6.29007476       0.29110956      -0.14220371       0.03193617
I        2.61896913       6.52413434       6.19448898      -0.47447610      -0.64592796      -0.13059959
I        6.46172139       2.48065704       0.01159347       0.09121414      -0.08603844       0.06508564
I        6.99592793       6.82314446       0.03309356      -0.32670722       0.56922032      -0.09853896
24
Lattice="8.95158397 0.0 0.0 0.0 8.95158397 0.0 0.0 0.0 6.32897243" Properties=species:S:1:pos:R:3:forces:R:3 config_id=t-FAPI3_al_global_rattle_17__global_rattle__sev-0.464__seed-new phase=t-FAPI3 mode=active_learning seed=2062456882 source=t-FAPI3/CONTCAR energy=-107.47908756 stress="-0.009989670996452479 -0.007959603800505038 -0.0016862964013611454 -0.007959603800505038 -0.018982833169050823 -0.0005156164053795187 -0.0016862964013611454 -0.0005156164053795187 0.012172857827785375" pbc="T T T"
C        4.56866530       4.50455593       3.39932691      -8.89370852     -10.19463493      12.59393527
C        0.03191061       8.92595773       3.49522274       6.17083390      -5.64881527       5.94987149
N        5.22687007       5.35773355       3.02127745       9.70859422      11.92456099      -1.68591679
N        3.74754688       3.59000384       3.02143081      -3.42092022      -2.75068679      -3.48528639
N        0.99404368       8.09024403       2.91838178      -3.48182844       2.30658721       0.30322225
N        8.03311968       0.66439184       3.19777288      -3.39268936       4.18549302      -9.77763793
H        4.45113879       4.38934403       4.60256001       0.92205813       0.90654765      -1.95206126
H        5.85281504       6.08797682       3.58141696      -1.67839738      -1.97401634      -0.08317849
H        5.50937938       5.52889777       2.14375998       0.78106408       0.55486819      -5.00537774
H        3.60522368       3.58637979       1.93890760      -0.37732675      -0.81188809       2.13951660
H        2.97563846       2.99428711       3.71955494       2.97254571       2.25858205      -2.39589541
H        0.04008788       8.80564191       4.64150452       0.56259820       0.10652546      -1.05641679
H        1.38526210       7.42206602       3.67850213      -0.48712837       0.75821124      -2.19013856
H        0.76724903       8.01377333       1.87257295       1.34914077      -0.95801622       1.58908389
H        8.07205182       1.01405951       1.88491919      -0.51563964      -1.21846538       3.30382243
H        7.60129231       1.51387353       3.46995166      -0.43510305       0.72682522       1.84157093
Pb       0.09728465       4.41417179       6.31059594      -0.32279882       0.15327063      -0.02327567
Pb       4.41481344       8.86944647       6.24892175       0.39300569       0.25058937       0.09126909
I        8.92235114       4.64632288       3.10568924       0.01522985      -0.24746750       0.01831661
I        4.38556324       8.78166975       3.16479766       0.19312984       0.16378111      -0.10663153
I        1.84719498       1.92928593       0.04923479       0.32081592      -0.40188454      -0.12389847
I        2.51822657       6.49597668       6.24022327      -0.10405216      -0.19936595      -0.10308322
I        6.37623922       2.71740782       0.03450417       0.00623161      -0.39963026       0.10614130
I        6.96888421       6.77116816       6.11389749      -0.28565520       0.50902913       0.05204838
24
Lattice="8.95158397 0.0 0.0 0.0 8.95158397 0.0 0.0 0.0 6.32897243" Properties=species:S:1:pos:R:3:forces:R:3 config_id=t-FAPI3_al_global_rattle_18__global_rattle__sev-0.480__seed-parity phase=t-FAPI3 mode=active_learning seed=2856594127 source=t-FAPI3/CONTCAR energy=-107.60080001 stress="-0.014359786849537334 0.01347933715898097 0.005766992877093916 0.01347933715898097 -0.02434841801056944 0.0014640272985813377 0.005766992877093916 0.0014640272985813377 -0.03429903175878373" pbc="T T T"
C        4.44060975       4.50921765       3.64338304      -0.00792138       0.18710370     -13.68346143
C        0.18266002       8.88868549       3.48886510     -10.41866203      11.53848149      10.37657913
N        5.37403241       5.30762715       2.97774830      -3.81417191      -3.58721712       4.30985368
N        3.53366669       3.60420839       3.13462758       9.28210127      13.33701920     -13.99759719
N        0.93722619       8.12481639       3.11453246       9.21113436      -9.88914918      -8.06886234
N        8.28889105       0.75862302       2.91376821      -2.80706567       2.96360460       2.81742800
H        4.42701928       4.37338891       4.52686209       0.91319047      -0.40917087      12.10006955
H        5.82319953       5.88034367       3.62965683       1.32806917       1.41100268       0.97877132
H        5.43153408       5.52560305       2.04416101      -0.07597412       0.38764188      -2.91390321
H        3.64448461       3.62205534       1.99401871      -1.42872036      -1.29731638       3.46020541
H        3.23950206       3.08428634       3.71498486      -6.08790787     -10.10392328       9.67776979
H        0.20888181       0.08575349       4.66793298      -0.41388074      -0.15553606      -2.00481240
H        1.38540272       7.39370597       3.61112636       0.80720444      -0.73286215       1.00186631
H        0.92596169       8.03976166       2.10889481       0.77430047      -0.88980961      -0.97751137
H        7.95237129       0.89200475       1.98432747       0.33955285      -0.44808152      -1.35249192
H        7.63273690       1.45533993       3.58433632       2.45920099      -2.41923064      -1.82783124
Pb       8.93747502       4.59303186       6.16648448      -0.34412665      -0.89801439       0.31639668
Pb       4.45430765       0.01524795       6.14008286      -0.01274528       0.21490194       0.24146235
I        0.02132079       4.36651096       3.18477620      -0.05941173       0.09748751      -0.40484251
I        4.54684644       0.05024515       3.14544765       0.00797501      -0.04362259      -0.21873908
I        1.93006722       2.04003904       0.01100678       0.41877633      -0.49713989      -0.00291227
I        2.41050196       6.19322731       6.07790652       1.14939261       0.93268496       0.12253260
I        6.49303099       2.55997595       0.02443363      -0.50072497      -0.42837050      -0.05545849
I        7.22583907       7.00304659       6.16338430      -0.71958524       0.72951623       0.10548861
24
Lattice="8.95158397 0.0 0.0 0.0 8.95158397 0.0 0.0 0.0 6.32897243" Properties=species:S:1:pos:R:3:forces:R:3 config_id=t-FAPI3_al_global_rattle_19__global_rattle__sev-0.496__seed-new phase=t-FAPI3 mode=active_learning seed=3228527386 source=t-FAPI3/CONTCAR energy=-106.21651055 stress="-0.0103142279605532 0.010036615571116441 -0.015233065495496712 0.010036615571116441 -0.004389617011443038 -0.005504572052484665 -0.015233065495496712 -0.005504572052484665 0.0013599774155436237" pbc="T T T"
C        4.40943255       4.54541839       3.86105843       3.59265331       1.67850877     -23.03577726
C        0.00334986       8.87203644       3.64876507      -1.67538618       2.04543264       5.08819337
N        5.38396026       5.31905152       2.97800849      -3.01814649      -2.23514456       5.90096206
N        3.69515854       3.87835826       2.87997745      -4.12711650      -1.56509186      13.95135288
N        0.86494617       8.09867025       3.24749487       0.71356441      -1.09323973     -10.09100823
N        8.14329210       0.69571111       3.05586985      -3.38349903       4.79253043      -2.66331550
H        4.34453330       4.50252016       4.75397644      -0.81339135      -0.25536068      11.69238433
H        5.97428356       5.85764943       3.50973419       1.96168159       1.81707313       1.68173912
H        5.58751561       5.44870483       2.01279677      -0.84226051      -0.69860857      -1.49452180
H        3.74644342       3.54363669       2.02637615       1.21562768      -1.44297369      -5.71770511
H        2.98034260       3.03927026       3.60434613       1.92858582       2.57510620      -2.88151942
H        8.88600565       0.06216436       4.70949819       0.01764017      -0.36306394       1.09306016
H        1.52770015       7.47729909       3.46836031       2.84721960      -2.67084034       2.87975821
H        0.92098640       7.98341556       2.03860892      -0.19255884       0.47738092       3.49151872
H        8.27730215       0.88905557       1.95722099      -0.80901581      -0.29167152       2.86916316
H        7.48031622       1.50727523       3.75250528       2.46508194      -2.93312346      -2.71147221
Pb       8.86361846       4.33276814       6.31677289       0.62266518       0.60783518       0.03679572
Pb       4.50722485       8.92058956       0.11220439      -0.21211133      -0.07338229       0.10268018
I        8.91871393       4.38273678       3.17939645       0.03638544       0.03185856      -0.06033287
I        4.39332167       8.90341738       3.34919000       0.02771516       0.18316991      -0.26277236
I        1.94110282       1.92152696       6.20661960       0.00981944       0.20051463       0.00586012
I        2.43956542       6.53201934       0.03063868      -0.01786917      -0.01735300       0.10845473
I        6.55017253       2.54023055       0.05773403      -0.67055030      -0.49787222      -0.16176044
I        6.82155206       6.95412716       6.13504797       0.32326580      -0.27168450       0.17826243
24
Lattice="8.95158397 0.0 0.0 0.0 8.95158397 0.0 0.0 0.0 6.32897243" Properties=species:S:1:pos:R:3:forces:R:3 config_id=t-FAPI3_al_global_rattle_20__global_rattle__sev-0.512__seed-new phase=t-FAPI3 mode=active_learning seed=4223592017 source=t-FAPI3/CONTCAR energy=-109.51310037 stress="-0.002573323469132474 0.009574774079739213 -0.005638211070318472 0.009574774079739213 0.007618297503246154 0.009444030061083264 -0.005638211070318472 0.009444030061083264 -0.0034088496418534188" pbc="T T T"
C        4.49277860       4.44634163       3.65913921       1.84612054       2.69523741      -3.07618538
C        0.00040873       0.13321228       3.70004975       5.77038759      -8.10110517      -2.38033280
N        5.29756601       5.46671120       2.88662964      -3.31780980      -4.50663758       5.16024730
N        3.76034201       3.52735725       2.93727433       1.50247762       1.87039329      13.24926108
N        0.82036048       7.99271679       3.11013642      -4.70866895       6.07524022      -1.79599421
N        8.20551671       0.81031358       2.95784970      -2.63891082       2.43118552       2.56161098
H        4.51380533       4.60208299       4.84748289      -0.38108123      -0.75468527      -2.65124603
H        5.91664431       5.87590995       3.65914104      -0.03706605      -0.06151128      -2.37561872
H        5.29779088       5.18284189       1.89571933       1.17629147       1.00751257       0.31955181
H        3.73582469       3.56609013       2.05622144      -0.72298201       0.05251910      -9.14631026
H        3.07420533       3.13110626       3.60869793      -0.01818966      -0.52637434      -1.38075232
H        0.02543172       8.83920507       4.74344648      -0.87560400       1.10411954       0.90766385
H        1.39501592       7.48055263       3.64617393       2.68342913      -2.13647339       2.71117343
H        0.98273667       7.96270750       2.09262587      -0.08270278       0.00626684       0.53319193
H        8.16169137       1.13269557       2.03562335       0.44926485      -0.00239637      -2.31150306
H        7.56210917       1.31014363       3.56446512      -0.66569849       0.72951307      -0.23622583
Pb       0.01672711       4.45117790       6.21693791       0.28336741       0.23995221       0.51197714
Pb       4.44152434       0.04256881       6.18829241       0.38881502      -0.43710696       0.17498033
I        8.93112566       4.64411855       3.31710882       0.09026992      -0.28064700      -0.66895082
I        4.53895275       8.72898959       3.17739586       0.02794395       0.31246714      -0.17301163
I        2.06163993       1.84119661       6.22081384      -0.36733598       0.28126166       0.00794397
I        2.71360769       6.27687816       6.32412178       0.01259182       0.09156922       0.10587291
I        6.59454812       2.52689520       0.08590333      -0.35241086      -0.29856818      -0.01289415
I        7.05468935       6.86644783       6.26537436      -0.06249870       0.20826777      -0.03444953
24
Lattice="8.95158397 0.0 0.0 0.0 8.95158397 0.0 0.0 0.0 6.32897243" Properties=species:S:1:pos:R:3:forces:R:3 config_id=t-FAPI3_al_global_rattle_21__global_rattle__sev-0.528__seed-new phase=t-FAPI3 mode=active_learning seed=1056656662 source=t-FAPI3/CONTCAR energy=-109.56107623 stress="0.0007547360785955117 -0.001705456648490873 -0.0029744459556652644 -0.001705456648490873 0.0027201311287540168 -0.014388627103102467 -0.0029744459556652644 -0.014388627103102467 -0.0064371949235223795" pbc="T T T"
C        4.44453422       4.63894329       3.52837333       0.28427590      -2.36640614       0.48614474
C        0.05859966       8.88181336       3.54280086      -5.53101875       6.18660970      -2.34301255
N        5.37294086       5.39923452       2.94793992      -6.15289235      -5.46374206      -7.67718518
N        3.81834478       3.59862162       2.95633106      -4.20980097      -0.68682353       1.58049434
N        0.95252462       8.23277795       2.98539902       3.88647853      -4.60208348       3.99913604
N        8.17885128       0.88975066       2.94436076       1.46962901      -2.20962745       1.96495498
H        4.28706431       4.49983460       4.63552618       0.82911169       1.17516009      -0.67691768
H        5.81718505       5.86582134       3.58487308       4.32289519       4.56691862       3.70157554
H        5.33381080       5.29369526       1.68021560       1.03598603       1.00525251       4.70938810
H        3.42835399       3.65100655       1.99420181       0.65612335      -0.23140827       0.14439468
H        2.92306760       3.08245422       3.64589811       3.26471962       1.86231751      -2.23023983
H        8.79977522       0.05079612       4.52568996       0.35595109      -0.77435261       3.59358256
H        1.42734260       7.46846289       3.63646579      -0.83288933       1.91950141      -1.23996709
H        1.07249178       7.92209255       2.09577194       0.08082445      -0.36044914      -3.96236805
H        8.09445575       0.91311751       1.97423460      -0.08100462       0.22045855      -2.28180696
H        7.38857009       1.32593574       3.43491808       0.51245567      -0.35433220       0.31290399
Pb       0.10127366       4.56599665       6.19776271      -0.50434205      -0.58355579      -0.01838158
Pb       4.56238889       8.77065017       6.31825488       0.04758948       0.69120686       0.35056219
I        0.01734155       4.47973417       3.02255388       0.07086297       0.13965740       0.13785667
I        4.30336416       0.05447889       3.39398988       0.16715668      -0.03861007      -0.47717050
I        1.94732668       2.04570047       0.08416628       0.12900582      -0.08237890      -0.15802731
I        2.47659231       6.45997082       6.31296443       0.32651521       0.09171597       0.03225764
I        6.44983315       2.58452531       6.19688709      -0.11254221       0.06268966       0.05822461
I        7.22335393       7.24622621       0.07038621      -0.01509042      -0.16771866      -0.00639935
24
Lattice="8.95158397 0.0 0.0 0.0 8.95158397 0.0 0.0 0.0 6.32897243" Properties=species:S:1:pos:R:3:forces:R:3 config_id=t-FAPI3_al_global_rattle_22__global_rattle__sev-0.544__seed-new phase=t-FAPI3 mode=active_learning seed=2748656156 source=t-FAPI3/CONTCAR energy=-105.66777903 stress="-0.013178403389419877 0.001898052000335368 -0.014186441934629436 0.001898052000335368 -0.011808651246298351 0.004311102271952464 -0.014186441934629436 0.004311102271952464 -0.03585212339530851" pbc="T T T"
C        4.50739895       4.38568534       3.72436104       8.15577006       8.11797175     -16.98139537
C        8.75264495       8.76274771       3.60392823      10.28021542      -8.02495080       6.04722704
N        5.35744173       5.21039540       2.77085717      -0.28048824      -0.89936037      24.59977710
N        3.76092556       3.71969922       3.09313060      -7.34229234      -7.76823248       1.26373802
N        0.76033179       7.92673306       3.01642604      -2.16475158       1.90628537      -0.35392466
N        8.08589419       0.58416050       3.01473855      -7.77876390       8.68176879      -6.18938103
H        4.42487618       4.32008831       4.58490148       0.30516211       0.13017499      15.10476789
H        5.83041138       6.05471086       3.56817795      -1.32765784      -2.86855979      -3.67940730
H        5.42493506       5.38572193       1.95826521       0.25885820       2.53983942     -14.78461747
H        3.49148709       3.59899132       2.22397908      -0.45885647       0.45114833      -6.49715354
H        3.13195540       3.00516007       3.51137112       0.36965486       0.34164542       1.07621987
H        0.04130977       8.75511183       4.80462303      -1.43606970       0.37299210      -2.66084610
H        1.48068661       7.59346558       3.65007624       0.12147501      -0.19747681      -0.21768565
H        0.98998494       8.18797402       2.02830288       0.13125575      -0.75263537       1.01036875
H        7.86362895       0.75429797       1.88262348       0.98002540      -0.73713237       3.17113126
H        7.65376131       1.34625736       3.60875711      -0.01832858      -0.82271623      -0.90860140
Pb       8.91229887       4.45167794       0.11624354       0.16125767       0.09014640      -0.13767860
Pb       4.61557204       8.87516000       0.13104688      -0.39202449       0.01496411      -0.18485617
I        8.82231155       4.48196903       3.14290094       0.17770823      -0.25471259       0.21223524
I        4.35398769       0.08353564       3.15954221       0.00286751       0.02266095       0.18943466
I        1.67655156       1.93041392       6.26793645       0.42102983      -0.29177412       0.06051228
I        2.54034781       6.46582426       6.28318244       0.00430282      -0.17633912      -0.07368257
I        6.42384867       2.47599362       0.04799051      -0.01564272       0.09165624      -0.02625313
I        7.10343923       7.10396692       0.07495744      -0.15470703       0.03263620      -0.03992912
24
Lattice="8.95158397 0.0 0.0 0.0 8.95158397 0.0 0.0 0.0 6.32897243" Properties=species:S:1:pos:R:3:forces:R:3 config_id=t-FAPI3_al_global_rattle_23__global_rattle__sev-0.560__seed-parity phase=t-FAPI3 mode=active_learning seed=3728018837 source=t-FAPI3/CONTCAR energy=-102.94780399 stress="-0.024772674675643352 0.010454643359878942 0.015498139360941049 0.010454643359878942 -0.021172936029400836 0.022041231560579768 0.015498139360941049 0.022041231560579768 -0.04122252110820466" pbc="T T T"
C        4.49575411       4.40631650       3.60941601      -4.14915775      -4.00950370      -3.28605989
C        0.12395330       8.74858908       3.71527302     -10.79838267      10.84965929      -2.96277894
N        5.17742752       5.04417702       2.68902659      -1.09874420      -6.13928551      23.99591032
N        3.54957410       3.43022907       2.95420338       5.19356476       6.52256654       9.15209416
N        0.88466580       8.19831650       3.00839907      -0.71727559       0.63067301     -12.13451976
N        8.20393309       0.82234371       2.91185591       1.82616684      -0.81210532      13.49923924
H        4.48498284       4.47554089       4.79576405       0.45803901       0.12549900      -2.53701025
H        5.76706594       5.82798469       3.56891850      -1.00550255      -1.79222414      -2.87606301
H        5.35938950       5.46059477       2.03056391       3.61168171       9.63147851     -17.71675874
H        3.65991696       3.56665309       2.09068902       0.07082373      -0.00209121      -9.08711321
H        3.16699360       2.84930243       3.55542918      -2.88488878      -3.99508798       2.66216429
H        0.01517777       8.93946478       4.70975471       0.18729612      -0.26292245       2.96240314
H        1.38843713       7.71386161       3.48592776       9.20114974      -8.62119749       6.18629259
H        0.83791946       8.08966182       1.93997055       0.28837445       0.20020792       1.78631385
H        7.93670217       0.89592170       2.04754498      -1.61905324      -0.24516585      -6.70982696
H        7.55596203       1.41400563       3.65247087       1.86697172      -1.87841146      -2.55486639
Pb       0.02192780       4.19691747       0.12887623       0.05522075       1.61926525      -1.27066943
Pb       4.38981148       0.05086711       6.16185882       0.38052905      -0.29218279       0.24919231
I        0.02867309       4.56897001       2.88592592      -0.02730796       0.19683854       1.51102293
I        4.77635117       0.01153045       3.16173419      -0.26317657      -0.15262795      -0.19032093
I        1.90368708       2.03614609       6.31169668       0.87445427      -1.09186905      -0.15615939
I        2.66569622       6.45112683       0.05355621      -0.11734807       0.04720691      -0.09471219
I        6.68299756       2.49587661       6.31446510      -1.12148849      -0.73887851      -0.18028798
I        6.96709891       6.85705789       6.23377551      -0.21194630       0.21015845      -0.24748574
24
Lattice="8.95158397 0.0 0.0 0.0 8.95158397 0.0 0.0 0.0 6.32897243" Properties=species:S:1:pos:R:3:forces:R:3 config_id=t-FAPI3_al_global_rattle_24__global_rattle__sev-0.576__seed-new phase=t-FAPI3 mode=active_learning seed=2530019190 source=t-FAPI3/CONTCAR energy=-106.45263258 stress="-0.021139902586450227 -0.024725886325952812 0.0316682480828271 -0.024725886325952812 -0.0397694887335108 0.001475567455740021 0.0316682480828271 0.001475567455740021 -0.006725234908633115" pbc="T T T"
C        4.54524598       4.64732779       3.58084406     -22.84316598     -23.81908202      11.11839911
C        0.02467298       0.03931392       3.62051305      -8.05800111       6.32408395       2.41350438
N        5.18483478       5.40269064       3.21933695      17.59071360      18.32917586     -18.38364716
N        3.52803140       3.77160408       2.96601660       2.34864843       1.37348974       1.45332388
N        0.69150028       8.13385686       3.07559877       5.51153032      -4.45959491       1.52156659
N        7.90436242       0.88199957       3.08893233       8.44125121      -8.22872969      -7.30045179
H        4.41215544       4.63736091       4.65114646      -0.35739680      -0.65050653       0.89588355
H        5.70177237       6.07170535       3.63328434       2.46752150       2.94298714       2.21266117
H        5.33595211       5.35873442       2.09216740       0.05955181       1.00380157       2.35834929
H        3.43617579       3.55283489       1.88723015       0.12272775       0.27569516       2.70240476
H        3.01425156       3.29259534       3.79440352       0.78322185       0.39266198      -2.37987349
H        8.92355396       8.85935079       4.66007202       0.12285285       0.87642825       1.89384552
H        1.46324695       7.55945637       3.69225315      -2.18926103       1.36671353      -2.07282719
H        0.60267873       8.09418702       2.13701773       0.61942429      -1.08211241      -4.40046176
H        7.87960619       0.94795860       1.94578201      -0.28712879       0.19688078       3.49203196
H        7.42772835       1.46290276       3.57627960      -3.84814956       5.00801814       4.56203492
Pb       8.93196326       4.39862405       0.06659199       0.12029971      -0.24968559      -0.20123123
Pb       4.59009252       8.76898750       0.04243494      -0.52338858       0.39603195      -0.04381363
I        8.88419842       4.54887102       3.07190132      -0.12522948       0.04694874       0.26164808
I        4.51562591       0.01993992       3.12238488      -0.17146428      -0.15524955       0.13504300
I        2.18784375       1.92737136       6.30467399      -0.34871463       0.25332307      -0.07689124
I        2.44639136       6.26707528       6.32552061       0.34361693       0.45052622      -0.11538651
I        6.51640429       2.43570487       0.08810695      -0.26272422      -0.10631253      -0.11006216
I        7.01697731       7.04054853       6.21059115       0.48326419      -0.48549286       0.06394996
24
Lattice="8.95158397 0.0 0.0 0.0 8.95158397 0.0 0.0 0.0 6.32897243" Properties=species:S:1:pos:R:3:forces:R:3 config_id=t-FAPI3_al_global_rattle_25__global_rattle__sev-0.592__seed-new phase=t-FAPI3 mode=active_learning seed=4160889706 source=t-FAPI3/CONTCAR energy=-101.86444651 stress="-0.021572278162904527 0.010107743247379184 0.027440636362579984 0.010107743247379184 -0.013742229504638645 0.002049795645101951 0.027440636362579984 0.002049795645101951 -0.02725005995793395" pbc="T T T"
C        4.65545538       4.54851456       3.48741969      -8.97596344      -8.34017744       3.03625752
C        0.05822334       8.78608789       3.52930053     -17.33057832      14.30492597      11.36273323
N        5.24571271       5.36115815       2.78780065      -0.14470826      -1.59662072      23.91224816
N        3.57307093       3.63130340       3.18055807       5.27663122       4.83722441      -5.62750060
N        0.98301703       8.30409970       3.10941175      12.37856969     -12.14780309      -9.52333227
N        7.93705369       0.77947090       3.04939170      11.90556752     -15.97005666     -11.85156024
H        4.59044960       4.32287172       4.52702196       1.92249898       1.51680038       1.52081394
H        5.94844857       5.78666472       3.50642268      -0.72414170       0.04174006      -1.78701602
H        5.42286124       5.54729891       2.05596131       4.66345958       5.35525245     -23.87962056
H        3.48993005       3.59519656       2.15130520      -0.58037441      -0.23996338       0.22539849
H        2.92317027       3.02842514       3.54922711      -1.38148649      -1.61555763       2.73054554
H        8.85662064       0.19214047       4.71827895       1.02097884      -1.89080663      -2.03228843
H        1.50104466       7.38031763       3.63069326      -1.25499785       2.89335920      -1.32797203
H        0.78674890       7.93911990       1.78442574       1.30943133       0.93507437       3.03507211
H        8.10770150       0.75013844       1.81467468      -1.28009632       0.80733079       4.23904954
H        7.50945882       1.43590667       3.35431146      -6.64379362      10.75068363       6.10270344
Pb       8.79281733       4.55408379       0.04606213       0.65895438      -0.57563556      -0.10698438
Pb       4.61438766       8.88845588       6.17658913      -0.53089017       0.27407001      -0.19527177
I        0.02404646       4.40654889       3.11958140      -0.14736233       0.23097799       0.16904649
I        4.24795716       8.85800698       2.81621470       0.20798465       0.05524670       0.39292820
I        1.74275130       2.09100372       6.32855320       0.50235540      -0.42437767      -0.05947879
I        2.48738058       6.28596482       0.07138701       0.00683510       0.35109536      -0.12434295
I        6.71136164       2.24199134       6.25617323      -0.48391296       0.00624176      -0.11173981
I        6.98227641       6.93367843       6.21501447      -0.37496082       0.44097570      -0.09968878
