C  N  H  Pb I                           
   1.0000000000000000     
     9.0193899931757802    0.0000000000000000    0.0000000000000000
     0.0000000000000000    8.7777678445653162    0.0000000000000000
     0.0000000000000000    0.0000000000000000   12.7961868062944486
  C               N               H               Pb              I             
     4     8    20     4    12
Direct
     0.5081075022793584    0.0403508923565639    0.2476578563316068
     0.0079545554343809    0.4593040156808073    0.7475946208954554
     0.9920318484512407    0.5404200508093098    0.2477084040298720
     0.4903547109532482    0.9600871704862186    0.7469155440836133
     0.5748045288126775    0.9542408737818349    0.1782848997890198
     0.0705946740239369    0.5645637727658510    0.6897252201605895
     0.1307476347694987    0.5844622106269597    0.2398686346921579
     0.6243212691335600    0.9036779956418570    0.7359478139755637
     0.3646447967412172    0.0654000877018177    0.2513282328196311
     0.8689663414621833    0.4161005194902572    0.7399588873068410
     0.9297035375445688    0.4351040030426248    0.1897200422109506
     0.4375488979009461    0.0763399616112181    0.6943125268564359
     0.5769304094459642    0.0950381504606099    0.3072784431404045
     0.0763163041439370    0.4035986538439502    0.8070350065760294
     0.9236376652095828    0.5954207657868835    0.3074383116655284
     0.4176803162205402    0.9062915671391210    0.8046163249051048
     0.6880090864465913    0.9480637878993505    0.1788287137960864
     0.1816203953774504    0.5846650008662735    0.6981420678013563
     0.1722669535438328    0.6623742150681267    0.2915917736995866
     0.6588877549665852    0.8172657319570433    0.7837059310351222
     0.5174993494106062    0.9011132026099844    0.1195495761951193
     0.0137159530701183    0.6200135182310191    0.6317994618654623
     0.2024993126384942    0.5381047866843716    0.1872207144032458
     0.6995983071879337    0.9478781107215113    0.6848966739125757
     0.2923987254680398    0.0176727342949050    0.1996002306367899
     0.7972319185576211    0.4631449498156996    0.6875867489999621
     0.9866204064859048    0.3802849306458782    0.1315310444919930
     0.4987934394252704    0.1309163430476588    0.6382375700070781
     0.3210326365886758    0.1284028668707293    0.3111225741738366
     0.8272559591671822    0.3381575261065066    0.7915835908767335
     0.8188275574910477    0.4143204322469671    0.1983353955589280
     0.3291586455893665    0.1068772943673864    0.7047748799817413
     0.5023441722619779    0.4879288203356396    0.9810849892003191
     0.0023441785924945    0.0120711836670608    0.4810849868122489
     0.9976558244282359    0.9879288178551917    0.9810849914872719
     0.4976558298475950    0.5120711849063113    0.4810849885500943
     0.7958928941106862    0.7105293335369609    0.5032699314851357
     0.9606598229172718    0.9944623124655507    0.2320592544955247
     0.7060293635732506    0.1956508126848462    0.9614522052702341
     0.2041070863312058    0.2894707010478257    0.0032699320500740
     0.2060293779368507    0.3043491755398549    0.4614522129329686
     0.2939706246777973    0.8043491828284957    0.4614522154174097
     0.7939706408800902    0.6956508110307098    0.9614522100061293
     0.7041071043942750    0.2105293303375291    0.5032699287679776
     0.4606598128207438    0.5055376617516671    0.7320592563212429
     0.0393401777688851    0.0055376740307977    0.7320592521911493
     0.2958929104798855    0.7894706933117490    0.0032699289927791
     0.5393401671427824    0.4944623109760684    0.2320592517272502

  0.00000000E+00  0.00000000E+00  0.00000000E+00
  0.00000000E+00  0.00000000E+00  0.00000000E+00
  0.00000000E+00  0.00000000E+00  0.00000000E+00
  0.00000000E+00  0.00000000E+00  0.00000000E+00
  0.00000000E+00  0.00000000E+00  0.00000000E+00
  0.00000000E+00  0.00000000E+00  0.00000000E+00
  0.00000000E+00  0.00000000E+00  0.00000000E+00
  0.00000000E+00  0.00000000E+00  0.00000000E+00
  0.00000000E+00  0.00000000E+00  0.00000000E+00
  0.00000000E+00  0.00000000E+00  0.00000000E+00
  0.00000000E+00  0.00000000E+00  0.00000000E+00
  0.00000000E+00  0.00000000E+00  0.00000000E+00
  0.00000000E+00  0.00000000E+00  0.00000000E+00
  0.00000000E+00  0.00000000E+00  0.00000000E+00
  0.00000000E+00  0.00000000E+00  0.00000000E+00
  0.00000000E+00  0.00000000E+00  0.00000000E+00
  0.00000000E+00  0.00000000E+00  0.00000000E+00
  0.00000000E+00  0.00000000E+00  0.00000000E+00
  0.00000000E+00  0.00000000E+00  0.00000000E+00
  0.00000000E+00  0.00000000E+00  0.00000000E+00
  0.00000000E+00  0.00000000E+00  0.00000000E+00
  0.00000000E+00  0.00000000E+00  0.00000000E+00
  0.00000000E+00  0.00000000E+00  0.00000000E+00
  0.00000000E+00  0.00000000E+00  0.00000000E+00
  0.00000000E+00  0.00000000E+00  0.00000000E+00
  0.00000000E+00  0.00000000E+00  0.00000000E+00
  0.00000000E+00  0.00000000E+00  0.00000000E+00
  0.00000000E+00  0.00000000E+00  0.00000000E+00
  0.00000000E+00  0.00000000E+00  0.00000000E+00
  0.00000000E+00  0.00000000E+00  0.00000000E+00
  0.00000000E+00  0.00000000E+00  0.00000000E+00
  0.00000000E+00  0.00000000E+00  0.00000000E+00
  0.00000000E+00  0.00000000E+00  0.00000000E+00
  0.00000000E+00  0.00000000E+00  0.00000000E+00
  0.00000000E+00  0.00000000E+00  0.00000000E+00
  0.00000000E+00  0.00000000E+00  0.00000000E+00
  0.00000000E+00  0.00000000E+00  0.00000000E+00
  0.00000000E+00  0.00000000E+00  0.00000000E+00
  0.00000000E+00  0.00000000E+00  0.00000000E+00
  0.00000000E+00  0.00000000E+00  0.00000000E+00
  0.00000000E+00  0.00000000E+00  0.00000000E+00
  0.00000000E+00  0.00000000E+00  0.00000000E+00
  0.00000000E+00  0.00000000E+00  0.00000000E+00
  0.00000000E+00  0.00000000E+00  0.00000000E+00
  0.00000000E+00  0.00000000E+00  0.00000000E+00
  0.00000000E+00  0.00000000E+00  0.00000000E+00
  0.00000000E+00  0.00000000E+00  0.00000000E+00
  0.00000000E+00  0.00000000E+00  0.00000000E+00
