C  N  H  Pb I 
 1.0000000000000000
     9.0193899931757802    0.0000000000000000    0.0000000000000000
     0.0000000000000000    8.7777678445653162    0.0000000000000000
     0.0000000000000000    0.0000000000000000   12.7961868062944486
 C   N   H   Pb  I  
   4   8  20   4  12
Direct
  0.5081075022793594  0.0403508923565640  0.2476578563316076
  0.0079545554343785  0.4593040156808086  0.7475946208954544
  0.9920318484512433  0.5404200508093099  0.2477084040298708
  0.4903547109532499  0.9600871704862219  0.7469155440836129
  0.5748045288126786  0.9542408737818364  0.1782848997890226
  0.0705946740239366  0.5645637727658527  0.6897252201605891
  0.1307476347694965  0.5844622106269616  0.2398686346921552
  0.6243212691335636  0.9036779956418585  0.7359478139755632
  0.3646447967412143  0.0654000877018156  0.2513282328196322
  0.8689663414621858  0.4161005194902583  0.7399588873068387
  0.9297035375445655  0.4351040030426212  0.1897200422109479
  0.4375488979009458  0.0763399616112180  0.6943125268564376
  0.5769304094459671  0.0950381504606096  0.3072784431404070
  0.0763163041439384  0.4035986538439506  0.8070350065760273
  0.9236376652095860  0.5954207657868842  0.3074383116655299
  0.4176803162205394  0.9062915671391187  0.8046163249051073
  0.6880090864465930  0.9480637878993476  0.1788287137960899
  0.1816203953774488  0.5846650008662724  0.6981420678013572
  0.1722669535438349  0.6623742150681275  0.2915917736995865
  0.6588877549665851  0.8172657319570453  0.7837059310351219
  0.5174993494106092  0.9011132026099833  0.1195495761951204
  0.0137159530701184  0.6200135182310215  0.6317994618654601
  0.2024993126384954  0.5381047866843697  0.1872207144032474
  0.6995983071879346  0.9478781107215086  0.6848966739125738
  0.2923987254680421  0.0176727342949076  0.1996002306367917
  0.7972319185576198  0.4631449498156998  0.6875867489999620
  0.9866204064859070  0.3802849306458801  0.1315310444919943
  0.4987934394252699  0.1309163430476573  0.6382375700070798
  0.3210326365886776  0.1284028668707264  0.3111225741738342
  0.8272559591671836  0.3381575261065085  0.7915835908767332
  0.8188275574910451  0.4143204322469676  0.1983353955589279
  0.3291586455893685  0.1068772943673837  0.7047748799817380
  0.5023441722619808  0.4879288203356366  0.9810849892003165
  0.0023441785924915  0.0120711836670638  0.4810849868122521
  0.9976558244282330  0.9879288178551918  0.9810849914872694
  0.4976558298475982  0.5120711849063111  0.4810849885500975
  0.7958928941106866  0.7105293335369601  0.5032699314851331
  0.9606598229172731  0.9944623124655482  0.2320592544955259
  0.7060293635732524  0.1956508126848427  0.9614522052702348
  0.2041070863312036  0.2894707010478275  0.0032699320500760
  0.2060293779368493  0.3043491755398582  0.4614522129329701
  0.2939706246777947  0.8043491828284943  0.4614522154174112
  0.7939706408800884  0.6956508110307111  0.9614522100061302
  0.7041071043942746  0.2105293303375289  0.5032699287679750
  0.4606598128207440  0.5055376617516696  0.7320592563212425
  0.0393401777688836  0.0055376740307987  0.7320592521911489
  0.2958929104798871  0.7894706933117497  0.0032699289927811
  0.5393401671427811  0.4944623109760681  0.2320592517272514
Cartesian
  0.0000000000000000  0.0000000000000000  0.0000000000000000
  0.0000000000000000  0.0000000000000000  0.0000000000000000
  0.0000000000000000  0.0000000000000000  0.0000000000000000
  0.0000000000000000  0.0000000000000000  0.0000000000000000
  0.0000000000000000  0.0000000000000000  0.0000000000000000
  0.0000000000000000  0.0000000000000000  0.0000000000000000
  0.0000000000000000  0.0000000000000000  0.0000000000000000
  0.0000000000000000  0.0000000000000000  0.0000000000000000
  0.0000000000000000  0.0000000000000000  0.0000000000000000
  0.0000000000000000  0.0000000000000000  0.0000000000000000
  0.0000000000000000  0.0000000000000000  0.0000000000000000
  0.0000000000000000  0.0000000000000000  0.0000000000000000
  0.0000000000000000  0.0000000000000000  0.0000000000000000
  0.0000000000000000  0.0000000000000000  0.0000000000000000
  0.0000000000000000  0.0000000000000000  0.0000000000000000
  0.0000000000000000  0.0000000000000000  0.0000000000000000
  0.0000000000000000  0.0000000000000000  0.0000000000000000
  0.0000000000000000  0.0000000000000000  0.0000000000000000
  0.0000000000000000  0.0000000000000000  0.0000000000000000
  0.0000000000000000  0.0000000000000000  0.0000000000000000
  0.0000000000000000  0.0000000000000000  0.0000000000000000
  0.0000000000000000  0.0000000000000000  0.0000000000000000
  0.0000000000000000  0.0000000000000000  0.0000000000000000
  0.0000000000000000  0.0000000000000000  0.0000000000000000
  0.0000000000000000  0.0000000000000000  0.0000000000000000
  0.0000000000000000  0.0000000000000000  0.0000000000000000
  0.0000000000000000  0.0000000000000000  0.0000000000000000
  0.0000000000000000  0.0000000000000000  0.0000000000000000
  0.0000000000000000  0.0000000000000000  0.0000000000000000
  0.0000000000000000  0.0000000000000000  0.0000000000000000
  0.0000000000000000  0.0000000000000000  0.0000000000000000
  0.0000000000000000  0.0000000000000000  0.0000000000000000
  0.0000000000000000  0.0000000000000000  0.0000000000000000
  0.0000000000000000  0.0000000000000000  0.0000000000000000
  0.0000000000000000  0.0000000000000000  0.0000000000000000
  0.0000000000000000  0.0000000000000000  0.0000000000000000
  0.0000000000000000  0.0000000000000000  0.0000000000000000
  0.0000000000000000  0.0000000000000000  0.0000000000000000
  0.0000000000000000  0.0000000000000000  0.0000000000000000
  0.0000000000000000  0.0000000000000000  0.0000000000000000
  0.0000000000000000  0.0000000000000000  0.0000000000000000
  0.0000000000000000  0.0000000000000000  0.0000000000000000
  0.0000000000000000  0.0000000000000000  0.0000000000000000
  0.0000000000000000  0.0000000000000000  0.0000000000000000
  0.0000000000000000  0.0000000000000000  0.0000000000000000
  0.0000000000000000  0.0000000000000000  0.0000000000000000
  0.0000000000000000  0.0000000000000000  0.0000000000000000
  0.0000000000000000  0.0000000000000000  0.0000000000000000
