C  N  H  Pb I 
 1.0000000000000000
     8.9515839677080429    0.0000000000000000    0.0000000000000000
     0.0000000000000000    8.9515839677080429    0.0000000000000000
     0.0000000000000000    0.0000000000000000    6.3289724258144924
 C   N   H   Pb  I  
   2   4  10   2   6
Direct
  0.4740380162803601  0.5391570014590078  0.5047924976465222
  0.0000007410375673  0.9999987646105949  0.5710173459562399
  0.5405378022153503  0.5036536168648397  0.3268116060264086
  0.4813317857955220  0.4633639515546816  0.6821351905646911
  0.0923596624104001  0.9076399465760637  0.4765807909973080
  0.9076407520067939  0.0923588334847715  0.4765810251555297
  0.4066850536216309  0.6407354316244043  0.5053865324955958
  0.5269826281146367  0.5709908184260997  0.1985327292358768
  0.6061467481360351  0.4115062583362825  0.3076121301635644
  0.5407254970682348  0.3669873939787923  0.7002355693859792
  0.4249256937468761  0.5015413312359116  0.8110245403104833
  0.0000003891983269  0.9999991386351894  0.7434028011511010
  0.1592037642541199  0.8407958108961853  0.5661101690442600
  0.1020541224786791  0.8979456517450166  0.3166108718828011
  0.8979457520127502  0.1020539951781196  0.3166116306627342
  0.8407959940430518  0.1592035362748205  0.5661129987487663
  0.9999996702832874  0.4999998411152120  0.9927896685767361
  0.4999997010236399  0.0000000324883942  0.9927896646371461
 -0.0000000897965151  0.4999996263576136  0.4921929684839212
  0.4999999142446682  0.0000003677771616  0.4921929568124041
  0.2185734085131937  0.2185737368091121  0.9905351307177016
  0.2814254933831534  0.7185740284663772  0.9905345394682984
  0.7185734566697085  0.2814260629724074  0.9905349485405626
  0.7814255204687662  0.7814258469398120  0.9905345050794724
Cartesian
  0.0000000000000000  0.0000000000000000  0.0000000000000000
  0.0000000000000000  0.0000000000000000  0.0000000000000000
  0.0000000000000000  0.0000000000000000  0.0000000000000000
  0.0000000000000000  0.0000000000000000  0.0000000000000000
  0.0000000000000000  0.0000000000000000  0.0000000000000000
  0.0000000000000000  0.0000000000000000  0.0000000000000000
  0.0000000000000000  0.0000000000000000  0.0000000000000000
  0.0000000000000000  0.0000000000000000  0.0000000000000000
  0.0000000000000000  0.0000000000000000  0.0000000000000000
  0.0000000000000000  0.0000000000000000  0.0000000000000000
  0.0000000000000000  0.0000000000000000  0.0000000000000000
  0.0000000000000000  0.0000000000000000  0.0000000000000000
  0.0000000000000000  0.0000000000000000  0.0000000000000000
  0.0000000000000000  0.0000000000000000  0.0000000000000000
  0.0000000000000000  0.0000000000000000  0.0000000000000000
  0.0000000000000000  0.0000000000000000  0.0000000000000000
  0.0000000000000000  0.0000000000000000  0.0000000000000000
  0.0000000000000000  0.0000000000000000  0.0000000000000000
  0.0000000000000000  0.0000000000000000  0.0000000000000000
  0.0000000000000000  0.0000000000000000  0.0000000000000000
  0.0000000000000000  0.0000000000000000  0.0000000000000000
  0.0000000000000000  0.0000000000000000  0.0000000000000000
  0.0000000000000000  0.0000000000000000  0.0000000000000000
  0.0000000000000000  0.0000000000000000  0.0000000000000000
