C  N  H  Pb I                           
   1.0000000000000000     
     9.0193899931757802    0.0000000000000000    0.0000000000000000
     0.0000000000000000    8.7777678445653162    0.0000000000000000
     0.0000000000000000    0.0000000000000000   12.7961868062944486
  C               N               H               Pb              I             
     4     8    20     4    12
Direct
     0.5118093114029065    0.0392913082667263    0.2476725241092694
     0.0089508030067407    0.4629660982721830    0.7507911307017139
     0.9955064159206444    0.5414577213188068    0.2467276393932636
     0.4941032364124922    0.9599195620522423    0.7449689829240072
     0.5727595458030734    0.9305020672225055    0.1862107380765892
     0.0736860680604821    0.5728990454953831    0.6908623932708409
     0.1242313525827754    0.5823707849560833    0.2403913376201103
     0.6320548000336856    0.9093399961593178    0.7403796950960810
     0.3646583771603460    0.0902748030221332    0.2401381768889124
     0.8723937813240212    0.4179406322768529    0.7448425331954027
     0.9299983231630691    0.4459704155201081    0.1858304694858148
     0.4259990046164361    0.0692837998862075    0.6875942671979871
     0.5753575462713485    0.0886667674161572    0.3050790821390237
     0.0824735983164473    0.3983654920170707    0.8059089991524502
     0.9235331364065047    0.5977120089338754    0.3020754350421555
     0.4197387699033612    0.9115096778549159    0.8106784756058332
     0.6768697780456989    0.9157982711026307    0.1968062015013246
     0.1841205024196668    0.5800124167188017    0.6959420127136795
     0.1686464065193007    0.6586319413704231    0.2902304557528268
     0.6721559182309349    0.8387860529968165    0.7927578828982789
     0.5110494074309671    0.8813085686789250    0.1317123286111581
     0.0113726361498294    0.6177540454690487    0.6363814152942524
     0.1933951722416438    0.5369500628042658    0.1894092882175400
     0.6968856986850298    0.9665432654776112    0.6856747070868963
     0.2965141050487077    0.0306506437270713    0.1879905051807285
     0.7960746159336907    0.4623181122402613    0.6858576359221331
     0.9931445981202174    0.3746372643484861    0.1318824285026281
     0.4937191865073558    0.1208899353896271    0.6335591476498195
     0.3274514858394255    0.1604888749223221    0.2932248237923574
     0.8305320242559446    0.3505072497542514    0.7868343618695235
     0.8145660580433756    0.4146453308854632    0.2007754578570768
     0.3195700183477754    0.0859677266576213    0.6962557570851615
     0.5005254567985702    0.4870040383709977    0.9781776234523463
     0.0049869826348612    0.0120945053792454    0.4829516856579588
     0.9943595215839025    0.9865814306463321    0.9837440338180485
     0.4912513304097104    0.5136096594235227    0.4884039637960598
     0.8056242816457129    0.7069576989386590    0.4967059197943726
     0.9566091903364509    0.9946395563403811    0.2293932466868469
     0.7045153060039340    0.1937701998421559    0.9570166830373665
     0.2020551854553432    0.2934198873611678    0.0067013898395842
     0.1987617692139025    0.3073478716746578    0.4616986670782524
     0.2934029969915741    0.8036584261687025    0.4549666770137648
     0.7957104743685335    0.6975122383987653    0.9617339235167819
     0.7039229096558373    0.2098188576397320    0.5027128121750764
     0.4585124856135110    0.5063657297166202    0.7340620760762491
     0.0322175226150350    0.0052348826653699    0.7369118255098712
     0.2896376169527812    0.7889556844710626    0.0069215486833158
     0.5498862801424309    0.4849662286830565    0.2353155809551311

  0.00000000E+00  0.00000000E+00  0.00000000E+00
  0.00000000E+00  0.00000000E+00  0.00000000E+00
  0.00000000E+00  0.00000000E+00  0.00000000E+00
  0.00000000E+00  0.00000000E+00  0.00000000E+00
  0.00000000E+00  0.00000000E+00  0.00000000E+00
  0.00000000E+00  0.00000000E+00  0.00000000E+00
  0.00000000E+00  0.00000000E+00  0.00000000E+00
  0.00000000E+00  0.00000000E+00  0.00000000E+00
  0.00000000E+00  0.00000000E+00  0.00000000E+00
  0.00000000E+00  0.00000000E+00  0.00000000E+00
  0.00000000E+00  0.00000000E+00  0.00000000E+00
  0.00000000E+00  0.00000000E+00  0.00000000E+00
  0.00000000E+00  0.00000000E+00  0.00000000E+00
  0.00000000E+00  0.00000000E+00  0.00000000E+00
  0.00000000E+00  0.00000000E+00  0.00000000E+00
  0.00000000E+00  0.00000000E+00  0.00000000E+00
  0.00000000E+00  0.00000000E+00  0.00000000E+00
  0.00000000E+00  0.00000000E+00  0.00000000E+00
  0.00000000E+00  0.00000000E+00  0.00000000E+00
  0.00000000E+00  0.00000000E+00  0.00000000E+00
  0.00000000E+00  0.00000000E+00  0.00000000E+00
  0.00000000E+00  0.00000000E+00  0.00000000E+00
  0.00000000E+00  0.00000000E+00  0.00000000E+00
  0.00000000E+00  0.00000000E+00  0.00000000E+00
  0.00000000E+00  0.00000000E+00  0.00000000E+00
  0.00000000E+00  0.00000000E+00  0.00000000E+00
  0.00000000E+00  0.00000000E+00  0.00000000E+00
  0.00000000E+00  0.00000000E+00  0.00000000E+00
  0.00000000E+00  0.00000000E+00  0.00000000E+00
  0.00000000E+00  0.00000000E+00  0.00000000E+00
  0.00000000E+00  0.00000000E+00  0.00000000E+00
  0.00000000E+00  0.00000000E+00  0.00000000E+00
  0.00000000E+00  0.00000000E+00  0.00000000E+00
  0.00000000E+00  0.00000000E+00  0.00000000E+00
  0.00000000E+00  0.00000000E+00  0.00000000E+00
  0.00000000E+00  0.00000000E+00  0.00000000E+00
  0.00000000E+00  0.00000000E+00  0.00000000E+00
  0.00000000E+00  0.00000000E+00  0.00000000E+00
  0.00000000E+00  0.00000000E+00  0.00000000E+00
  0.00000000E+00  0.00000000E+00  0.00000000E+00
  0.00000000E+00  0.00000000E+00  0.00000000E+00
  0.00000000E+00  0.00000000E+00  0.00000000E+00
  0.00000000E+00  0.00000000E+00  0.00000000E+00
  0.00000000E+00  0.00000000E+00  0.00000000E+00
  0.00000000E+00  0.00000000E+00  0.00000000E+00
  0.00000000E+00  0.00000000E+00  0.00000000E+00
  0.00000000E+00  0.00000000E+00  0.00000000E+00
  0.00000000E+00  0.00000000E+00  0.00000000E+00
