C  N  H  Pb I 
 1.0000000000000000
     9.0193899931757802    0.0000000000000000    0.0000000000000000
     0.0000000000000000    8.7777678445653162    0.0000000000000000
     0.0000000000000000    0.0000000000000000   12.7961868062944486
 C   N   H   Pb  I  
   4   8  20   4  12
Direct
  0.5118093114029032  0.0392913082667297  0.2476725241092700
  0.0089508030067407  0.4629660982721803  0.7507911307017119
  0.9955064159206477  0.5414577213188101  0.2467276393932623
  0.4941032364124890  0.9599195620522433  0.7449689829240058
  0.5727595458030732  0.9305020672225048  0.1862107380765884
  0.0736860680604817  0.5728990454953824  0.6908623932708379
  0.1242313525827732  0.5823707849560807  0.2403913376201082
  0.6320548000336840  0.9093399961593148  0.7403796950960777
  0.3646583771603444  0.0902748030221320  0.2401381768889113
  0.8723937813240196  0.4179406322768531  0.7448425331954055
  0.9299983231630705  0.4459704155201065  0.1858304694858131
  0.4259990046164335  0.0692837998862054  0.6875942671979850
  0.5753575462713494  0.0886667674161562  0.3050790821390254
  0.0824735983164500  0.3983654920170693  0.8059089991524478
  0.9235331364065061  0.5977120089338767  0.3020754350421576
  0.4197387699033588  0.9115096778549189  0.8106784756058359
  0.6768697780456973  0.9157982711026323  0.1968062015013224
  0.1841205024196688  0.5800124167187988  0.6959420127136788
  0.1686464065193023  0.6586319413704202  0.2902304557528294
  0.6721559182309351  0.8387860529968146  0.7927578828982772
  0.5110494074309682  0.8813085686789229  0.1317123286111561
  0.0113726361498292  0.6177540454690517  0.6363814152942499
  0.1933951722416414  0.5369500628042643  0.1894092882175379
  0.6968856986850310  0.9665432654776146  0.6856747070868933
  0.2965141050487058  0.0306506437270711  0.1879905051807312
  0.7960746159336888  0.4623181122402605  0.6858576359221333
  0.9931445981202174  0.3746372643484867  0.1318824285026316
  0.4937191865073580  0.1208899353896268  0.6335591476498211
  0.3274514858394262  0.1604888749223243  0.2932248237923561
  0.8305320242559424  0.3505072497542489  0.7868343618695230
  0.8145660580433767  0.4146453308854632  0.2007754578570750
  0.3195700183477779  0.0859677266576211  0.6962557570851591
  0.5005254567985670  0.4870040383709948  0.9781776234523457
  0.0049869826348584  0.0120945053792457  0.4829516856579555
  0.9943595215839023  0.9865814306463319  0.9837440338180451
  0.4912513304097081  0.5136096594235259  0.4884039637960629
  0.8056242816457104  0.7069576989386592  0.4967059197943733
  0.9566091903364484  0.9946395563403798  0.2293932466868444
  0.7045153060039325  0.1937701998421562  0.9570166830373654
  0.2020551854553445  0.2934198873611646  0.0067013898395867
  0.1987617692138998  0.3073478716746603  0.4616986670782543
  0.2934029969915742  0.8036584261687006  0.4549666770137665
  0.7957104743685369  0.6975122383987624  0.9617339235167817
  0.7039229096558397  0.2098188576397352  0.5027128121750752
  0.4585124856135113  0.5063657297166169  0.7340620760762483
  0.0322175226150373  0.0052348826653679  0.7369118255098689
  0.2896376169527787  0.7889556844710595  0.0069215486833124
  0.5498862801424291  0.4849662286830534  0.2353155809551323
Cartesian
  0.0000000000000000  0.0000000000000000  0.0000000000000000
  0.0000000000000000  0.0000000000000000  0.0000000000000000
  0.0000000000000000  0.0000000000000000  0.0000000000000000
  0.0000000000000000  0.0000000000000000  0.0000000000000000
  0.0000000000000000  0.0000000000000000  0.0000000000000000
  0.0000000000000000  0.0000000000000000  0.0000000000000000
  0.0000000000000000  0.0000000000000000  0.0000000000000000
  0.0000000000000000  0.0000000000000000  0.0000000000000000
  0.0000000000000000  0.0000000000000000  0.0000000000000000
  0.0000000000000000  0.0000000000000000  0.0000000000000000
  0.0000000000000000  0.0000000000000000  0.0000000000000000
  0.0000000000000000  0.0000000000000000  0.0000000000000000
  0.0000000000000000  0.0000000000000000  0.0000000000000000
  0.0000000000000000  0.0000000000000000  0.0000000000000000
  0.0000000000000000  0.0000000000000000  0.0000000000000000
  0.0000000000000000  0.0000000000000000  0.0000000000000000
  0.0000000000000000  0.0000000000000000  0.0000000000000000
  0.0000000000000000  0.0000000000000000  0.0000000000000000
  0.0000000000000000  0.0000000000000000  0.0000000000000000
  0.0000000000000000  0.0000000000000000  0.0000000000000000
  0.0000000000000000  0.0000000000000000  0.0000000000000000
  0.0000000000000000  0.0000000000000000  0.0000000000000000
  0.0000000000000000  0.0000000000000000  0.0000000000000000
  0.0000000000000000  0.0000000000000000  0.0000000000000000
  0.0000000000000000  0.0000000000000000  0.0000000000000000
  0.0000000000000000  0.0000000000000000  0.0000000000000000
  0.0000000000000000  0.0000000000000000  0.0000000000000000
  0.0000000000000000  0.0000000000000000  0.0000000000000000
  0.0000000000000000  0.0000000000000000  0.0000000000000000
  0.0000000000000000  0.0000000000000000  0.0000000000000000
  0.0000000000000000  0.0000000000000000  0.0000000000000000
  0.0000000000000000  0.0000000000000000  0.0000000000000000
  0.0000000000000000  0.0000000000000000  0.0000000000000000
  0.0000000000000000  0.0000000000000000  0.0000000000000000
  0.0000000000000000  0.0000000000000000  0.0000000000000000
  0.0000000000000000  0.0000000000000000  0.0000000000000000
  0.0000000000000000  0.0000000000000000  0.0000000000000000
  0.0000000000000000  0.0000000000000000  0.0000000000000000
  0.0000000000000000  0.0000000000000000  0.0000000000000000
  0.0000000000000000  0.0000000000000000  0.0000000000000000
  0.0000000000000000  0.0000000000000000  0.0000000000000000
  0.0000000000000000  0.0000000000000000  0.0000000000000000
  0.0000000000000000  0.0000000000000000  0.0000000000000000
  0.0000000000000000  0.0000000000000000  0.0000000000000000
  0.0000000000000000  0.0000000000000000  0.0000000000000000
  0.0000000000000000  0.0000000000000000  0.0000000000000000
  0.0000000000000000  0.0000000000000000  0.0000000000000000
  0.0000000000000000  0.0000000000000000  0.0000000000000000
