C  N  H  Pb I                           
   1.0000000000000000     
     9.0193899931757802    0.0000000000000000    0.0000000000000000
     0.0000000000000000    8.7777678445653162    0.0000000000000000
     0.0000000000000000    0.0000000000000000   12.7961868062944486
  C               N               H               Pb              I             
     4     8    20     4    12
Direct
     0.5111371067513844    0.0374048683131605    0.2469854152662592
     0.0079290780051906    0.4594297037475101    0.7476650124075732
     0.9913678641082058    0.5377062051311157    0.2484205020871713
     0.4926049703678785    0.9576393726367769    0.7471427541287099
     0.5612139584485050    0.9298828715290881    0.1851315832929217
     0.0705426806864224    0.5646191491345292    0.6897212436879769
     0.1341179161981785    0.5664386169965709    0.2530676747201639
     0.6281894187598027    0.9082872153110770    0.7311793773759163
     0.3756692442399512    0.0922012990108811    0.2450564304970229
     0.8690394074909307    0.4159400687442201    0.7399038227518560
     0.9268757075064116    0.4554156847374173    0.1759017163757903
     0.4317896363222786    0.0737759874792872    0.6988969663799764
     0.5876607085535852    0.0847210343390685    0.3048848385136580
     0.0762243945299872    0.4040460612493391    0.8072845309787198
     0.9212097148477696    0.5856100580371333    0.3099825305045343
     0.4257072040992682    0.8975904991374151    0.8054089827905244
     0.6707264102360355    0.9003683856019720    0.1892398239202535
     0.1815088648767471    0.5849565269773507    0.6982603319657699
     0.1761325220790155    0.6257811632934462    0.3151486109446324
     0.6692093139078068    0.8213076107812185    0.7758135353314159
     0.4962456347550415    0.8818124100221638    0.1283412380591500
     0.0137265947950738    0.6197736988501461    0.6316325624794885
     0.2075252204397913    0.5249486470778137    0.1996484890711372
     0.6984850939654947    0.9585516373530538    0.6792474765424643
     0.2969562217131525    0.0534861346291180    0.1944861696063995
     0.7973671799921576    0.4626794010411572    0.6873611156964046
     0.9854803701292880    0.4086750032010258    0.1152786893053275
     0.4873362820044207    0.1339760531044334    0.6425827851793287
     0.3438398666880218    0.1710562155724631    0.2994516036857178
     0.8273242542730017    0.3380863986765945    0.7915899969251399
     0.8138780751320027    0.4460326704524817    0.1761792836192129
     0.3228457869608974    0.0985500184130359    0.7130280317373021
     0.5023441722619779    0.4879288203356396    0.9810849892003191
     0.0023441785924945    0.0120711836670608    0.4810849868122489
     0.9976558244282359    0.9879288178551917    0.9810849914872719
     0.4976558298475950    0.5120711849063113    0.4810849885500943
     0.7958928941106862    0.7105293335369609    0.5032699314851357
     0.9606598229172718    0.9944623124655507    0.2320592544955247
     0.7060293635732506    0.1956508126848462    0.9614522052702341
     0.2041070863312058    0.2894707010478257    0.0032699320500740
     0.2060293779368507    0.3043491755398549    0.4614522129329686
     0.2939706246777973    0.8043491828284957    0.4614522154174097
     0.7939706408800902    0.6956508110307098    0.9614522100061293
     0.7041071043942750    0.2105293303375291    0.5032699287679776
     0.4606598128207438    0.5055376617516671    0.7320592563212429
     0.0393401777688851    0.0055376740307977    0.7320592521911493
     0.2958929104798855    0.7894706933117490    0.0032699289927791
     0.5393401671427824    0.4944623109760684    0.2320592517272502

  0.00000000E+00  0.00000000E+00  0.00000000E+00
  0.00000000E+00  0.00000000E+00  0.00000000E+00
  0.00000000E+00  0.00000000E+00  0.00000000E+00
  0.00000000E+00  0.00000000E+00  0.00000000E+00
  0.00000000E+00  0.00000000E+00  0.00000000E+00
  0.00000000E+00  0.00000000E+00  0.00000000E+00
  0.00000000E+00  0.00000000E+00  0.00000000E+00
  0.00000000E+00  0.00000000E+00  0.00000000E+00
  0.00000000E+00  0.00000000E+00  0.00000000E+00
  0.00000000E+00  0.00000000E+00  0.00000000E+00
  0.00000000E+00  0.00000000E+00  0.00000000E+00
  0.00000000E+00  0.00000000E+00  0.00000000E+00
  0.00000000E+00  0.00000000E+00  0.00000000E+00
  0.00000000E+00  0.00000000E+00  0.00000000E+00
  0.00000000E+00  0.00000000E+00  0.00000000E+00
  0.00000000E+00  0.00000000E+00  0.00000000E+00
  0.00000000E+00  0.00000000E+00  0.00000000E+00
  0.00000000E+00  0.00000000E+00  0.00000000E+00
  0.00000000E+00  0.00000000E+00  0.00000000E+00
  0.00000000E+00  0.00000000E+00  0.00000000E+00
  0.00000000E+00  0.00000000E+00  0.00000000E+00
  0.00000000E+00  0.00000000E+00  0.00000000E+00
  0.00000000E+00  0.00000000E+00  0.00000000E+00
  0.00000000E+00  0.00000000E+00  0.00000000E+00
  0.00000000E+00  0.00000000E+00  0.00000000E+00
  0.00000000E+00  0.00000000E+00  0.00000000E+00
  0.00000000E+00  0.00000000E+00  0.00000000E+00
  0.00000000E+00  0.00000000E+00  0.00000000E+00
  0.00000000E+00  0.00000000E+00  0.00000000E+00
  0.00000000E+00  0.00000000E+00  0.00000000E+00
  0.00000000E+00  0.00000000E+00  0.00000000E+00
  0.00000000E+00  0.00000000E+00  0.00000000E+00
  0.00000000E+00  0.00000000E+00  0.00000000E+00
  0.00000000E+00  0.00000000E+00  0.00000000E+00
  0.00000000E+00  0.00000000E+00  0.00000000E+00
  0.00000000E+00  0.00000000E+00  0.00000000E+00
  0.00000000E+00  0.00000000E+00  0.00000000E+00
  0.00000000E+00  0.00000000E+00  0.00000000E+00
  0.00000000E+00  0.00000000E+00  0.00000000E+00
  0.00000000E+00  0.00000000E+00  0.00000000E+00
  0.00000000E+00  0.00000000E+00  0.00000000E+00
  0.00000000E+00  0.00000000E+00  0.00000000E+00
  0.00000000E+00  0.00000000E+00  0.00000000E+00
  0.00000000E+00  0.00000000E+00  0.00000000E+00
  0.00000000E+00  0.00000000E+00  0.00000000E+00
  0.00000000E+00  0.00000000E+00  0.00000000E+00
  0.00000000E+00  0.00000000E+00  0.00000000E+00
  0.00000000E+00  0.00000000E+00  0.00000000E+00
