C  N  H  Pb I 
 1.0000000000000000
     9.0193899931757802    0.0000000000000000    0.0000000000000000
     0.0000000000000000    8.7777678445653162    0.0000000000000000
     0.0000000000000000    0.0000000000000000   12.7961868062944486
 C   N   H   Pb  I  
   4   8  20   4  12
Direct
  0.5111371067513857  0.0374048683131634  0.2469854152662579
  0.0079290780051939  0.4594297037475101  0.7476650124075752
  0.9913678641082088  0.5377062051311122  0.2484205020871710
  0.4926049703678764  0.9576393726367778  0.7471427541287128
  0.5612139584485080  0.9298828715290889  0.1851315832929182
  0.0705426806864239  0.5646191491345277  0.6897212436879795
  0.1341179161981792  0.5664386169965735  0.2530676747201621
  0.6281894187598018  0.9082872153110738  0.7311793773759189
  0.3756692442399506  0.0922012990108802  0.2450564304970199
  0.8690394074909297  0.4159400687442195  0.7399038227518572
  0.9268757075064104  0.4554156847374147  0.1759017163757876
  0.4317896363222800  0.0737759874792899  0.6988969663799752
  0.5876607085535839  0.0847210343390678  0.3048848385136610
  0.0762243945299878  0.4040460612493412  0.8072845309787163
  0.9212097148477715  0.5856100580371310  0.3099825305045316
  0.4257072040992690  0.8975904991374131  0.8054089827905275
  0.6707264102360366  0.9003683856019746  0.1892398239202563
  0.1815088648767491  0.5849565269773473  0.6982603319657683
  0.1761325220790149  0.6257811632934461  0.3151486109446354
  0.6692093139078044  0.8213076107812188  0.7758135353314145
  0.4962456347550387  0.8818124100221660  0.1283412380591511
  0.0137265947950720  0.6197736988501477  0.6316325624794886
  0.2075252204397889  0.5249486470778103  0.1996484890711357
  0.6984850939654933  0.9585516373530559  0.6792474765424644
  0.2969562217131518  0.0534861346291192  0.1944861696063967
  0.7973671799921577  0.4626794010411543  0.6873611156964037
  0.9854803701292875  0.4086750032010251  0.1152786893053288
  0.4873362820044185  0.1339760531044323  0.6425827851793272
  0.3438398666880225  0.1710562155724646  0.2994516036857146
  0.8273242542729994  0.3380863986765963  0.7915899969251416
  0.8138780751319993  0.4460326704524843  0.1761792836192156
  0.3228457869608998  0.0985500184130351  0.7130280317373027
  0.5023441722619808  0.4879288203356366  0.9810849892003165
  0.0023441785924915  0.0120711836670638  0.4810849868122521
  0.9976558244282330  0.9879288178551918  0.9810849914872694
  0.4976558298475982  0.5120711849063111  0.4810849885500975
  0.7958928941106866  0.7105293335369601  0.5032699314851331
  0.9606598229172731  0.9944623124655482  0.2320592544955259
  0.7060293635732524  0.1956508126848427  0.9614522052702348
  0.2041070863312036  0.2894707010478275  0.0032699320500760
  0.2060293779368493  0.3043491755398582  0.4614522129329701
  0.2939706246777947  0.8043491828284943  0.4614522154174112
  0.7939706408800884  0.6956508110307111  0.9614522100061302
  0.7041071043942746  0.2105293303375289  0.5032699287679750
  0.4606598128207440  0.5055376617516696  0.7320592563212425
  0.0393401777688836  0.0055376740307987  0.7320592521911489
  0.2958929104798871  0.7894706933117497  0.0032699289927811
  0.5393401671427811  0.4944623109760681  0.2320592517272514
Cartesian
  0.0000000000000000  0.0000000000000000  0.0000000000000000
  0.0000000000000000  0.0000000000000000  0.0000000000000000
  0.0000000000000000  0.0000000000000000  0.0000000000000000
  0.0000000000000000  0.0000000000000000  0.0000000000000000
  0.0000000000000000  0.0000000000000000  0.0000000000000000
  0.0000000000000000  0.0000000000000000  0.0000000000000000
  0.0000000000000000  0.0000000000000000  0.0000000000000000
  0.0000000000000000  0.0000000000000000  0.0000000000000000
  0.0000000000000000  0.0000000000000000  0.0000000000000000
  0.0000000000000000  0.0000000000000000  0.0000000000000000
  0.0000000000000000  0.0000000000000000  0.0000000000000000
  0.0000000000000000  0.0000000000000000  0.0000000000000000
  0.0000000000000000  0.0000000000000000  0.0000000000000000
  0.0000000000000000  0.0000000000000000  0.0000000000000000
  0.0000000000000000  0.0000000000000000  0.0000000000000000
  0.0000000000000000  0.0000000000000000  0.0000000000000000
  0.0000000000000000  0.0000000000000000  0.0000000000000000
  0.0000000000000000  0.0000000000000000  0.0000000000000000
  0.0000000000000000  0.0000000000000000  0.0000000000000000
  0.0000000000000000  0.0000000000000000  0.0000000000000000
  0.0000000000000000  0.0000000000000000  0.0000000000000000
  0.0000000000000000  0.0000000000000000  0.0000000000000000
  0.0000000000000000  0.0000000000000000  0.0000000000000000
  0.0000000000000000  0.0000000000000000  0.0000000000000000
  0.0000000000000000  0.0000000000000000  0.0000000000000000
  0.0000000000000000  0.0000000000000000  0.0000000000000000
  0.0000000000000000  0.0000000000000000  0.0000000000000000
  0.0000000000000000  0.0000000000000000  0.0000000000000000
  0.0000000000000000  0.0000000000000000  0.0000000000000000
  0.0000000000000000  0.0000000000000000  0.0000000000000000
  0.0000000000000000  0.0000000000000000  0.0000000000000000
  0.0000000000000000  0.0000000000000000  0.0000000000000000
  0.0000000000000000  0.0000000000000000  0.0000000000000000
  0.0000000000000000  0.0000000000000000  0.0000000000000000
  0.0000000000000000  0.0000000000000000  0.0000000000000000
  0.0000000000000000  0.0000000000000000  0.0000000000000000
  0.0000000000000000  0.0000000000000000  0.0000000000000000
  0.0000000000000000  0.0000000000000000  0.0000000000000000
  0.0000000000000000  0.0000000000000000  0.0000000000000000
  0.0000000000000000  0.0000000000000000  0.0000000000000000
  0.0000000000000000  0.0000000000000000  0.0000000000000000
  0.0000000000000000  0.0000000000000000  0.0000000000000000
  0.0000000000000000  0.0000000000000000  0.0000000000000000
  0.0000000000000000  0.0000000000000000  0.0000000000000000
  0.0000000000000000  0.0000000000000000  0.0000000000000000
  0.0000000000000000  0.0000000000000000  0.0000000000000000
  0.0000000000000000  0.0000000000000000  0.0000000000000000
  0.0000000000000000  0.0000000000000000  0.0000000000000000
