C  N  H  Pb I                           
   1.0000000000000000     
     9.0643589914761424    0.0623693411203545   -0.0175177151905608
     0.0606985170158063    8.8338433222993817    0.0262203363762952
    -0.0248531171362455    0.0382238774522484   12.7076823655989628
  C               N               H               Pb              I             
     4     8    20     4    12
Direct
     0.5078726009034398    0.0454134707529121    0.2468718798848712
     0.0085576786234469    0.4576020169210864    0.7492936295463224
     0.9908222577833854    0.5506410263822090    0.2342490005291324
     0.5006836884700903    0.9628583475932402    0.7492049993944221
     0.5714332133324191    0.9313930123488561    0.1932818547132342
     0.0712383270584098    0.5635790294147682    0.6880698284304572
     0.1253120199356772    0.5796874033817829    0.2532331449895224
     0.6418327441660381    0.9373627668499225    0.7435303361667280
     0.3704399263124500    0.0860023396721701    0.2396555702504770
     0.8666525934642095    0.4171650854533979    0.7406016412561769
     0.9366537817996559    0.4319137969286047    0.1858559139804470
     0.4180975985701494    0.0380201881022941    0.6821120032991246
     0.5780638310398061    0.0998856483712345    0.3060161850988266
     0.0766098141540752    0.4029644530388055    0.8030079601926232
     0.9092230652548352    0.6344303905534900    0.2629317940903775
     0.4408605169948956    0.9230596153856538    0.8214007097734637
     0.6797237127503735    0.9080293679811859    0.2011061927545228
     0.1844487985828280    0.5848857855474492    0.6947535692668581
     0.1586235887532013    0.6696988402731492    0.2980593609936122
     0.6938557400419256    0.8844680317732383    0.8046554428558679
     0.5126010055576700    0.8742623386213424    0.1376691987346845
     0.0100316296950922    0.6216331657219598    0.6311690407777633
     0.2149654127271674    0.5050252061835607    0.2318426354482810
     0.7013703222132079    0.9750167605742206    0.6827387767054063
     0.2965336736390185    0.0350004774666033    0.1893690939799200
     0.7948655346981042    0.4602859140165307    0.6874425873014189
     0.0032793809878768    0.3499028619704774    0.1567497515538179
     0.4616509738553134    0.0819998706557641    0.6155122153543502
     0.3288410057695756    0.1688173224660190    0.2840496611973649
     0.8280243267018506    0.3397215881525355    0.7921194824206026
     0.8229241002652117    0.4277494584094867    0.1720368099228153
     0.3106636788769563    0.0525756641396313    0.6937639181605206
     0.4991891833430131    0.4849768403538590    0.9819362907067557
     0.0037175643349840    0.0130926101864617    0.4800184989621172
     0.9983903922085986    0.9881030740848260    0.9823591003728325
     0.5005486743032534    0.5152711405333434    0.4825566693885222
     0.7960885492151206    0.7131631166314776    0.5049555779187145
     0.9642209879719204    0.9938971820156510    0.2314023620823491
     0.7072953925773362    0.1941656690282869    0.9611956976530323
     0.2004963267611686    0.2898928173432296    0.0043888301453734
     0.2036989374815974    0.3055715283323153    0.4601251066128142
     0.2901498376588165    0.8038696287614329    0.4622757471361609
     0.7952045700595960    0.6909324588142667    0.9633677521445847
     0.7038592563380277    0.2113377993952952    0.4997775524982870
     0.4622081242039258    0.5026539332162727    0.7325507284530204
     0.0429508269965524    0.0034928087672768    0.7335757524394921
     0.2938768369009068    0.7924244758865129    0.0006246984206371
     0.5391064195711763    0.4938240826823304    0.2333025381903369

  0.00000000E+00  0.00000000E+00  0.00000000E+00
  0.00000000E+00  0.00000000E+00  0.00000000E+00
  0.00000000E+00  0.00000000E+00  0.00000000E+00
  0.00000000E+00  0.00000000E+00  0.00000000E+00
  0.00000000E+00  0.00000000E+00  0.00000000E+00
  0.00000000E+00  0.00000000E+00  0.00000000E+00
  0.00000000E+00  0.00000000E+00  0.00000000E+00
  0.00000000E+00  0.00000000E+00  0.00000000E+00
  0.00000000E+00  0.00000000E+00  0.00000000E+00
  0.00000000E+00  0.00000000E+00  0.00000000E+00
  0.00000000E+00  0.00000000E+00  0.00000000E+00
  0.00000000E+00  0.00000000E+00  0.00000000E+00
  0.00000000E+00  0.00000000E+00  0.00000000E+00
  0.00000000E+00  0.00000000E+00  0.00000000E+00
  0.00000000E+00  0.00000000E+00  0.00000000E+00
  0.00000000E+00  0.00000000E+00  0.00000000E+00
  0.00000000E+00  0.00000000E+00  0.00000000E+00
  0.00000000E+00  0.00000000E+00  0.00000000E+00
  0.00000000E+00  0.00000000E+00  0.00000000E+00
  0.00000000E+00  0.00000000E+00  0.00000000E+00
  0.00000000E+00  0.00000000E+00  0.00000000E+00
  0.00000000E+00  0.00000000E+00  0.00000000E+00
  0.00000000E+00  0.00000000E+00  0.00000000E+00
  0.00000000E+00  0.00000000E+00  0.00000000E+00
  0.00000000E+00  0.00000000E+00  0.00000000E+00
  0.00000000E+00  0.00000000E+00  0.00000000E+00
  0.00000000E+00  0.00000000E+00  0.00000000E+00
  0.00000000E+00  0.00000000E+00  0.00000000E+00
  0.00000000E+00  0.00000000E+00  0.00000000E+00
  0.00000000E+00  0.00000000E+00  0.00000000E+00
  0.00000000E+00  0.00000000E+00  0.00000000E+00
  0.00000000E+00  0.00000000E+00  0.00000000E+00
  0.00000000E+00  0.00000000E+00  0.00000000E+00
  0.00000000E+00  0.00000000E+00  0.00000000E+00
  0.00000000E+00  0.00000000E+00  0.00000000E+00
  0.00000000E+00  0.00000000E+00  0.00000000E+00
  0.00000000E+00  0.00000000E+00  0.00000000E+00
  0.00000000E+00  0.00000000E+00  0.00000000E+00
  0.00000000E+00  0.00000000E+00  0.00000000E+00
  0.00000000E+00  0.00000000E+00  0.00000000E+00
  0.00000000E+00  0.00000000E+00  0.00000000E+00
  0.00000000E+00  0.00000000E+00  0.00000000E+00
  0.00000000E+00  0.00000000E+00  0.00000000E+00
  0.00000000E+00  0.00000000E+00  0.00000000E+00
  0.00000000E+00  0.00000000E+00  0.00000000E+00
  0.00000000E+00  0.00000000E+00  0.00000000E+00
  0.00000000E+00  0.00000000E+00  0.00000000E+00
  0.00000000E+00  0.00000000E+00  0.00000000E+00
