C  N  H  Pb I 
 1.0000000000000000
     9.0643589914761424    0.0623693411203545   -0.0175177151905608
     0.0606985170158063    8.8338433222993817    0.0262203363762952
    -0.0248531171362455    0.0382238774522484   12.7076823655989628
 C   N   H   Pb  I  
   4   8  20   4  12
Direct
  0.5078726009034420  0.0454134707529106  0.2468718798848694
  0.0085576786234452  0.4576020169210874  0.7492936295463197
  0.9908222577833850  0.5506410263822114  0.2342490005291309
  0.5006836884700906  0.9628583475932379  0.7492049993944252
  0.5714332133324201  0.9313930123488579  0.1932818547132329
  0.0712383270584116  0.5635790294147673  0.6880698284304601
  0.1253120199356766  0.5796874033817828  0.2532331449895240
  0.6418327441660416  0.9373627668499254  0.7435303361667269
  0.3704399263124484  0.0860023396721681  0.2396555702504735
  0.8666525934642081  0.4171650854533945  0.7406016412561740
  0.9366537817996592  0.4319137969286043  0.1858559139804456
  0.4180975985701509  0.0380201881022931  0.6821120032991225
  0.5780638310398027  0.0998856483712354  0.3060161850988274
  0.0766098141540748  0.4029644530388054  0.8030079601926249
  0.9092230652548364  0.6344303905534930  0.2629317940903790
  0.4408605169948939  0.9230596153856537  0.8214007097734642
  0.6797237127503742  0.9080293679811886  0.2011061927545228
  0.1844487985828247  0.5848857855474476  0.6947535692668563
  0.1586235887531982  0.6696988402731496  0.2980593609936127
  0.6938557400419259  0.8844680317732355  0.8046554428558665
  0.5126010055576674  0.8742623386213433  0.1376691987346817
  0.0100316296950909  0.6216331657219615  0.6311690407777661
  0.2149654127271644  0.5050252061835633  0.2318426354482812
  0.7013703222132091  0.9750167605742208  0.6827387767054059
  0.2965336736390194  0.0350004774666053  0.1893690939799235
  0.7948655346981048  0.4602859140165342  0.6874425873014154
  0.0032793809878802  0.3499028619704794  0.1567497515538184
  0.4616509738553131  0.0819998706557664  0.6155122153543467
  0.3288410057695724  0.1688173224660195  0.2840496611973667
  0.8280243267018513  0.3397215881525333  0.7921194824206015
  0.8229241002652106  0.4277494584094844  0.1720368099228176
  0.3106636788769598  0.0525756641396287  0.6937639181605172
  0.4991891833430148  0.4849768403538579  0.9819362907067540
  0.0037175643349817  0.0130926101864589  0.4800184989621168
  0.9983903922086018  0.9881030740848237  0.9823591003728306
  0.5005486743032554  0.5152711405333447  0.4825566693885254
  0.7960885492151200  0.7131631166314798  0.5049555779187155
  0.9642209879719218  0.9938971820156521  0.2314023620823512
  0.7072953925773368  0.1941656690282897  0.9611956976530309
  0.2004963267611701  0.2898928173432328  0.0043888301453741
  0.2036989374815948  0.3055715283323172  0.4601251066128150
  0.2901498376588150  0.8038696287614332  0.4622757471361635
  0.7952045700595970  0.6909324588142685  0.9633677521445815
  0.7038592563380294  0.2113377993952967  0.4997775524982856
  0.4622081242039291  0.5026539332162698  0.7325507284530218
  0.0429508269965559  0.0034928087672739  0.7335757524394949
  0.2938768369009098  0.7924244758865114  0.0006246984206380
  0.5391064195711764  0.4938240826823275  0.2333025381903370
Cartesian
  0.0000000000000000  0.0000000000000000  0.0000000000000000
  0.0000000000000000  0.0000000000000000  0.0000000000000000
  0.0000000000000000  0.0000000000000000  0.0000000000000000
  0.0000000000000000  0.0000000000000000  0.0000000000000000
  0.0000000000000000  0.0000000000000000  0.0000000000000000
  0.0000000000000000  0.0000000000000000  0.0000000000000000
  0.0000000000000000  0.0000000000000000  0.0000000000000000
  0.0000000000000000  0.0000000000000000  0.0000000000000000
  0.0000000000000000  0.0000000000000000  0.0000000000000000
  0.0000000000000000  0.0000000000000000  0.0000000000000000
  0.0000000000000000  0.0000000000000000  0.0000000000000000
  0.0000000000000000  0.0000000000000000  0.0000000000000000
  0.0000000000000000  0.0000000000000000  0.0000000000000000
  0.0000000000000000  0.0000000000000000  0.0000000000000000
  0.0000000000000000  0.0000000000000000  0.0000000000000000
  0.0000000000000000  0.0000000000000000  0.0000000000000000
  0.0000000000000000  0.0000000000000000  0.0000000000000000
  0.0000000000000000  0.0000000000000000  0.0000000000000000
  0.0000000000000000  0.0000000000000000  0.0000000000000000
  0.0000000000000000  0.0000000000000000  0.0000000000000000
  0.0000000000000000  0.0000000000000000  0.0000000000000000
  0.0000000000000000  0.0000000000000000  0.0000000000000000
  0.0000000000000000  0.0000000000000000  0.0000000000000000
  0.0000000000000000  0.0000000000000000  0.0000000000000000
  0.0000000000000000  0.0000000000000000  0.0000000000000000
  0.0000000000000000  0.0000000000000000  0.0000000000000000
  0.0000000000000000  0.0000000000000000  0.0000000000000000
  0.0000000000000000  0.0000000000000000  0.0000000000000000
  0.0000000000000000  0.0000000000000000  0.0000000000000000
  0.0000000000000000  0.0000000000000000  0.0000000000000000
  0.0000000000000000  0.0000000000000000  0.0000000000000000
  0.0000000000000000  0.0000000000000000  0.0000000000000000
  0.0000000000000000  0.0000000000000000  0.0000000000000000
  0.0000000000000000  0.0000000000000000  0.0000000000000000
  0.0000000000000000  0.0000000000000000  0.0000000000000000
  0.0000000000000000  0.0000000000000000  0.0000000000000000
  0.0000000000000000  0.0000000000000000  0.0000000000000000
  0.0000000000000000  0.0000000000000000  0.0000000000000000
  0.0000000000000000  0.0000000000000000  0.0000000000000000
  0.0000000000000000  0.0000000000000000  0.0000000000000000
  0.0000000000000000  0.0000000000000000  0.0000000000000000
  0.0000000000000000  0.0000000000000000  0.0000000000000000
  0.0000000000000000  0.0000000000000000  0.0000000000000000
  0.0000000000000000  0.0000000000000000  0.0000000000000000
  0.0000000000000000  0.0000000000000000  0.0000000000000000
  0.0000000000000000  0.0000000000000000  0.0000000000000000
  0.0000000000000000  0.0000000000000000  0.0000000000000000
  0.0000000000000000  0.0000000000000000  0.0000000000000000
