C  N  H  Pb I 
 1.0000000000000000
     8.9613644894612055    0.0506254035077631   -0.0850233085151115
     0.0506254035077631    9.0784376010319914   -0.0492338759692395
    -0.0601134030675285   -0.0348094643975137    6.2520048249378393
 C   N   H   Pb  I  
   2   4  10   2   6
Direct
  0.5000018554397698  0.5000022537173052  0.5710180843918635
  0.0000007410375673  0.9999987646105944  0.5710173459562398
  0.5923581034953975  0.5923585163879725  0.4765803103999292
  0.4076407503633792  0.4076411399921031  0.4765811169345088
  0.0923596624104001  0.9076399465760634  0.4765807909973079
  0.9076407520067939  0.0923588334847715  0.4765810251555297
  0.5000002811686741  0.5000006754111792  0.7434031870421925
  0.6592043223742973  0.6592047228670137  0.5661117567204832
  0.6020540182598020  0.6020543629609085  0.3166118097023156
  0.3979460835827361  0.3979464056777409  0.3166130108747678
  0.3407963330843803  0.3407967026589521  0.5661133888189646
  0.0000003891983269  0.9999991386351891  0.7434028011511008
  0.1592037642541199  0.8407958108961849  0.5661101690442599
  0.1020541224786791  0.8979456517450165  0.3166108718828011
  0.8979457520127502  0.1020539951781196  0.3166116306627341
  0.8407959940430519  0.1592035362748204  0.5661129987487663
  0.9997225546107815  0.4962134738351489  0.9948370376613993
  0.4984699036125336  0.0061559306936596  0.9859164916060696
  0.9983904440454223  0.5030753724249125  0.4895041295245744
  0.5016249277913826  0.9966437737812057  0.4963865867977991
  0.2157006188291131  0.2188392437586553  0.9985111432975792
  0.2842422739193473  0.7196267948747620  0.9933216251962116
  0.7149309357871485  0.2828452988104865  0.9910760832324917
  0.7808915197950682  0.7787778199884408  0.9939236925885210
Cartesian
  0.0000000000000000  0.0000000000000000  0.0000000000000000
  0.0000000000000000  0.0000000000000000  0.0000000000000000
  0.0000000000000000  0.0000000000000000  0.0000000000000000
  0.0000000000000000  0.0000000000000000  0.0000000000000000
  0.0000000000000000  0.0000000000000000  0.0000000000000000
  0.0000000000000000  0.0000000000000000  0.0000000000000000
  0.0000000000000000  0.0000000000000000  0.0000000000000000
  0.0000000000000000  0.0000000000000000  0.0000000000000000
  0.0000000000000000  0.0000000000000000  0.0000000000000000
  0.0000000000000000  0.0000000000000000  0.0000000000000000
  0.0000000000000000  0.0000000000000000  0.0000000000000000
  0.0000000000000000  0.0000000000000000  0.0000000000000000
  0.0000000000000000  0.0000000000000000  0.0000000000000000
  0.0000000000000000  0.0000000000000000  0.0000000000000000
  0.0000000000000000  0.0000000000000000  0.0000000000000000
  0.0000000000000000  0.0000000000000000  0.0000000000000000
  0.0000000000000000  0.0000000000000000  0.0000000000000000
  0.0000000000000000  0.0000000000000000  0.0000000000000000
  0.0000000000000000  0.0000000000000000  0.0000000000000000
  0.0000000000000000  0.0000000000000000  0.0000000000000000
  0.0000000000000000  0.0000000000000000  0.0000000000000000
  0.0000000000000000  0.0000000000000000  0.0000000000000000
  0.0000000000000000  0.0000000000000000  0.0000000000000000
  0.0000000000000000  0.0000000000000000  0.0000000000000000
