C  N  H  Pb I 
 1.0000000000000000
     9.0193899931757802    0.0000000000000000    0.0000000000000000
     0.0000000000000000    8.7777678445653162    0.0000000000000000
     0.0000000000000000    0.0000000000000000   12.7961868062944486
 C   N   H   Pb  I  
   4   8  20   4  12
Direct
  0.5118238214777552  0.0480203275719448  0.2402025765780758
  0.0012777132087891  0.4884886678809685  0.6947109028134659
  0.9920454334685082  0.5406959860585880  0.2475946299923702
  0.4920454478785191  0.9593040127881087  0.7475946256013861
  0.5602932102625747  0.9147201139005892  0.2088429048999297
  0.0288512491262758  0.3588602231201946  0.7419033979389293
  0.1310336582348178  0.5838994807281044  0.2399588818968306
  0.6310336640152745  0.9161005167449353  0.7399588856927697
  0.3760154893396686  0.0984803505409327  0.2270644364825364
  0.9162076544257415  0.5970288590313977  0.7320600860096309
  0.9294053217315231  0.4354362199708706  0.1897252216917170
  0.4294053329446625  0.0645637684645837  0.6897252229388682
  0.5901191665265361  0.1227151948642296  0.2807511779591464
  0.0524314416926301  0.5075820752275250  0.6182678747343546
  0.9236836942065133  0.5964013535599978  0.3070350101048526
  0.4236837047439705  0.9035986570811895  0.8070350168177974
  0.6700865707300557  0.8890432936312570  0.2181131263184040
  0.1026350131517009  0.2847971886995142  0.7087485590183604
  0.1727440398663828  0.6618424652955209  0.2915835922463332
  0.6727440483713266  0.8381575300147407  0.7915835946568774
  0.4935933006266419  0.8398726402308651  0.1693067010120995
  0.9861377028821465  0.3341854587044072  0.8141292143512384
  0.2027680669080062  0.5368550561063354  0.1875867459194599
  0.7027680811919139  0.9631449364772252  0.6875867437071860
  0.2957438794648730  0.0357154563499930  0.1912059282446962
  0.8630317808196172  0.5879395727006443  0.8020391540265990
  0.9862840415021580  0.3799864786951983  0.1317994707683488
  0.4862840485959766  0.1200135117898101  0.6317994631872471
  0.3456864545086340  0.2010537361238899  0.2583740159405324
  0.8950659348580777  0.6915927249181409  0.6878084147742478
  0.8183796010724744  0.4153349919539673  0.1981420818729491
  0.3183796102733418  0.0846649986020452  0.6981420736952382
  0.5023441722619808  0.4879288203356366  0.9810849892003165
  0.0023441785924915  0.0120711836670638  0.4810849868122521
  0.9976558244282330  0.9879288178551918  0.9810849914872694
  0.4976558298475982  0.5120711849063111  0.4810849885500975
  0.7958928941106866  0.7105293335369601  0.5032699314851331
  0.9606598229172731  0.9944623124655482  0.2320592544955259
  0.7060293635732524  0.1956508126848427  0.9614522052702348
  0.2041070863312036  0.2894707010478275  0.0032699320500760
  0.2060293779368493  0.3043491755398582  0.4614522129329701
  0.2939706246777947  0.8043491828284943  0.4614522154174112
  0.7939706408800884  0.6956508110307111  0.9614522100061302
  0.7041071043942746  0.2105293303375289  0.5032699287679750
  0.4606598128207440  0.5055376617516696  0.7320592563212425
  0.0393401777688836  0.0055376740307987  0.7320592521911489
  0.2958929104798871  0.7894706933117497  0.0032699289927811
  0.5393401671427811  0.4944623109760681  0.2320592517272514
Cartesian
  0.0000000000000000  0.0000000000000000  0.0000000000000000
  0.0000000000000000  0.0000000000000000  0.0000000000000000
  0.0000000000000000  0.0000000000000000  0.0000000000000000
  0.0000000000000000  0.0000000000000000  0.0000000000000000
  0.0000000000000000  0.0000000000000000  0.0000000000000000
  0.0000000000000000  0.0000000000000000  0.0000000000000000
  0.0000000000000000  0.0000000000000000  0.0000000000000000
  0.0000000000000000  0.0000000000000000  0.0000000000000000
  0.0000000000000000  0.0000000000000000  0.0000000000000000
  0.0000000000000000  0.0000000000000000  0.0000000000000000
  0.0000000000000000  0.0000000000000000  0.0000000000000000
  0.0000000000000000  0.0000000000000000  0.0000000000000000
  0.0000000000000000  0.0000000000000000  0.0000000000000000
  0.0000000000000000  0.0000000000000000  0.0000000000000000
  0.0000000000000000  0.0000000000000000  0.0000000000000000
  0.0000000000000000  0.0000000000000000  0.0000000000000000
  0.0000000000000000  0.0000000000000000  0.0000000000000000
  0.0000000000000000  0.0000000000000000  0.0000000000000000
  0.0000000000000000  0.0000000000000000  0.0000000000000000
  0.0000000000000000  0.0000000000000000  0.0000000000000000
  0.0000000000000000  0.0000000000000000  0.0000000000000000
  0.0000000000000000  0.0000000000000000  0.0000000000000000
  0.0000000000000000  0.0000000000000000  0.0000000000000000
  0.0000000000000000  0.0000000000000000  0.0000000000000000
  0.0000000000000000  0.0000000000000000  0.0000000000000000
  0.0000000000000000  0.0000000000000000  0.0000000000000000
  0.0000000000000000  0.0000000000000000  0.0000000000000000
  0.0000000000000000  0.0000000000000000  0.0000000000000000
  0.0000000000000000  0.0000000000000000  0.0000000000000000
  0.0000000000000000  0.0000000000000000  0.0000000000000000
  0.0000000000000000  0.0000000000000000  0.0000000000000000
  0.0000000000000000  0.0000000000000000  0.0000000000000000
  0.0000000000000000  0.0000000000000000  0.0000000000000000
  0.0000000000000000  0.0000000000000000  0.0000000000000000
  0.0000000000000000  0.0000000000000000  0.0000000000000000
  0.0000000000000000  0.0000000000000000  0.0000000000000000
  0.0000000000000000  0.0000000000000000  0.0000000000000000
  0.0000000000000000  0.0000000000000000  0.0000000000000000
  0.0000000000000000  0.0000000000000000  0.0000000000000000
  0.0000000000000000  0.0000000000000000  0.0000000000000000
  0.0000000000000000  0.0000000000000000  0.0000000000000000
  0.0000000000000000  0.0000000000000000  0.0000000000000000
  0.0000000000000000  0.0000000000000000  0.0000000000000000
  0.0000000000000000  0.0000000000000000  0.0000000000000000
  0.0000000000000000  0.0000000000000000  0.0000000000000000
  0.0000000000000000  0.0000000000000000  0.0000000000000000
  0.0000000000000000  0.0000000000000000  0.0000000000000000
  0.0000000000000000  0.0000000000000000  0.0000000000000000
