C  N  H  Pb I 
 1.0000000000000000
     8.8750748715167571    0.0454282264464218    0.0113420955605628
     0.0454282264464218    8.8506521433577880   -0.0135482022382667
     0.0080191182155815   -0.0095788855575359    6.2135091431227378
 C   N   H   Pb  I  
   2   4  10   2   6
Direct
  0.5000018554397698  0.5000022537173052  0.5710180843918635
  0.0000007410375673  0.9999987646105952  0.5710173459562399
  0.5923581034953975  0.5923585163879727  0.4765803103999292
  0.4076407503633792  0.4076411399921032  0.4765811169345087
  0.0923596624104001  0.9076399465760639  0.4765807909973080
  0.9076407520067938  0.0923588334847715  0.4765810251555296
  0.5000002811686741  0.5000006754111797  0.7434031870421925
  0.6592043223742974  0.6592047228670139  0.5661117567204834
  0.6020540182598020  0.6020543629609089  0.3166118097023156
  0.3979460835827360  0.3979464056777411  0.3166130108747678
  0.3407963330843803  0.3407967026589522  0.5661133888189647
  0.0000003891983269  0.9999991386351893  0.7434028011511008
  0.1592037642541199  0.8407958108961854  0.5661101690442600
  0.1020541224786791  0.8979456517450167  0.3166108718828011
  0.8979457520127502  0.1020539951781196  0.3166116306627341
  0.8407959940430517  0.1592035362748205  0.5661129987487663
  0.9953394779848289  0.4993965791861752  0.9941525987582531
  0.5013922696607421  0.0017336109070605  0.9960604213191870
  0.9995889726692657  0.4998770392133286  0.4963132635332833
  0.5018917426995977  0.0010461299980005  0.4900404185926537
  0.2106485551142928  0.2220360330656729  0.9938107525200512
  0.2749353134386032  0.7187374272656618  0.9936110008697847
  0.7191308242651232  0.2766250956856407  0.9831915790038156
  0.7757357984273371  0.7852451948653936  0.9838862009499195
Cartesian
  0.0000000000000000  0.0000000000000000  0.0000000000000000
  0.0000000000000000  0.0000000000000000  0.0000000000000000
  0.0000000000000000  0.0000000000000000  0.0000000000000000
  0.0000000000000000  0.0000000000000000  0.0000000000000000
  0.0000000000000000  0.0000000000000000  0.0000000000000000
  0.0000000000000000  0.0000000000000000  0.0000000000000000
  0.0000000000000000  0.0000000000000000  0.0000000000000000
  0.0000000000000000  0.0000000000000000  0.0000000000000000
  0.0000000000000000  0.0000000000000000  0.0000000000000000
  0.0000000000000000  0.0000000000000000  0.0000000000000000
  0.0000000000000000  0.0000000000000000  0.0000000000000000
  0.0000000000000000  0.0000000000000000  0.0000000000000000
  0.0000000000000000  0.0000000000000000  0.0000000000000000
  0.0000000000000000  0.0000000000000000  0.0000000000000000
  0.0000000000000000  0.0000000000000000  0.0000000000000000
  0.0000000000000000  0.0000000000000000  0.0000000000000000
  0.0000000000000000  0.0000000000000000  0.0000000000000000
  0.0000000000000000  0.0000000000000000  0.0000000000000000
  0.0000000000000000  0.0000000000000000  0.0000000000000000
  0.0000000000000000  0.0000000000000000  0.0000000000000000
  0.0000000000000000  0.0000000000000000  0.0000000000000000
  0.0000000000000000  0.0000000000000000  0.0000000000000000
  0.0000000000000000  0.0000000000000000  0.0000000000000000
  0.0000000000000000  0.0000000000000000  0.0000000000000000
