C  N  H  Pb I                           
   1.0000000000000000     
     9.0193899931757802    0.0000000000000000    0.0000000000000000
     0.0000000000000000    8.7777678445653162    0.0000000000000000
     0.0000000000000000    0.0000000000000000   12.7961868062944486
  C               N               H               Pb              I             
     4     8    20     4    12
Direct
     0.5058709320067649    0.0402389609673151    0.2489191909568547
     0.0079545554343809    0.4593040156808073    0.7475946208954554
     0.9999334741623471    0.5437416105470874    0.2499316663097844
     0.4847489877304270    0.9632434591482166    0.7441237808863832
     0.5742057872145949    0.9377979736519322    0.1918770935153091
     0.0705946740239369    0.5645637727658510    0.6897252201605895
     0.1400253726358756    0.5688602351305079    0.2278705875145945
     0.6118763411198529    0.8903574968097629    0.7418899046037453
     0.3671021890481541    0.0819218979548566    0.2366992287875647
     0.8689663414621833    0.4161005194902572    0.7399588873068410
     0.9137908271374897    0.4479391348776858    0.1998678972790842
     0.4547078715966322    0.0870268722120073    0.6907057973945427
     0.5688754515114383    0.0947548612996414    0.3117243416365696
     0.0763163041439370    0.4035986538439502    0.8070350065760294
     0.9518065244845673    0.6071628320826079    0.3152898773372925
     0.3976683531547707    0.9174356918876825    0.7947237566011864
     0.6846891755323838    0.9188268061454323    0.2041776236844299
     0.1816203953774504    0.5846650008662735    0.6981420678013563
     0.2010294460121287    0.6403089501440959    0.2740991467148959
     0.6282373171417888    0.7986779249678406    0.7898488012986178
     0.5225483299060016    0.8836316635291297    0.1310237091126965
     0.0137159530701183    0.6200135182310191    0.6317994618654623
     0.1939660374991163    0.5135264221138129    0.1690956389049916
     0.6993452065306016    0.9261016768752341    0.6978609206540582
     0.3000785166918902    0.0357785273507361    0.1809579011126417
     0.7972319185576211    0.4631449498156996    0.6875867489999621
     0.9509888512608669    0.3862285457996322    0.1371775468215901
     0.5303541706142880    0.1350322149030063    0.6408847895581431
     0.3205014768384018    0.1575360999034103    0.2878736526432490
     0.8272559591671822    0.3381575261065066    0.7915835908767335
     0.8041063078994384    0.4421473536597560    0.2196733213428246
     0.3498037966644532    0.1309681330798753    0.6937270640170894
     0.5023441722619779    0.4879288203356396    0.9810849892003191
     0.0023441785924945    0.0120711836670608    0.4810849868122489
     0.9976558244282359    0.9879288178551917    0.9810849914872719
     0.4976558298475950    0.5120711849063113    0.4810849885500943
     0.7958928941106862    0.7105293335369609    0.5032699314851357
     0.9606598229172718    0.9944623124655507    0.2320592544955247
     0.7060293635732506    0.1956508126848462    0.9614522052702341
     0.2041070863312058    0.2894707010478257    0.0032699320500740
     0.2060293779368507    0.3043491755398549    0.4614522129329686
     0.2939706246777973    0.8043491828284957    0.4614522154174097
     0.7939706408800902    0.6956508110307098    0.9614522100061293
     0.7041071043942750    0.2105293303375291    0.5032699287679776
     0.4606598128207438    0.5055376617516671    0.7320592563212429
     0.0393401777688851    0.0055376740307977    0.7320592521911493
     0.2958929104798855    0.7894706933117490    0.0032699289927791
     0.5393401671427824    0.4944623109760684    0.2320592517272502

  0.00000000E+00  0.00000000E+00  0.00000000E+00
  0.00000000E+00  0.00000000E+00  0.00000000E+00
  0.00000000E+00  0.00000000E+00  0.00000000E+00
  0.00000000E+00  0.00000000E+00  0.00000000E+00
  0.00000000E+00  0.00000000E+00  0.00000000E+00
  0.00000000E+00  0.00000000E+00  0.00000000E+00
  0.00000000E+00  0.00000000E+00  0.00000000E+00
  0.00000000E+00  0.00000000E+00  0.00000000E+00
  0.00000000E+00  0.00000000E+00  0.00000000E+00
  0.00000000E+00  0.00000000E+00  0.00000000E+00
  0.00000000E+00  0.00000000E+00  0.00000000E+00
  0.00000000E+00  0.00000000E+00  0.00000000E+00
  0.00000000E+00  0.00000000E+00  0.00000000E+00
  0.00000000E+00  0.00000000E+00  0.00000000E+00
  0.00000000E+00  0.00000000E+00  0.00000000E+00
  0.00000000E+00  0.00000000E+00  0.00000000E+00
  0.00000000E+00  0.00000000E+00  0.00000000E+00
  0.00000000E+00  0.00000000E+00  0.00000000E+00
  0.00000000E+00  0.00000000E+00  0.00000000E+00
  0.00000000E+00  0.00000000E+00  0.00000000E+00
  0.00000000E+00  0.00000000E+00  0.00000000E+00
  0.00000000E+00  0.00000000E+00  0.00000000E+00
  0.00000000E+00  0.00000000E+00  0.00000000E+00
  0.00000000E+00  0.00000000E+00  0.00000000E+00
  0.00000000E+00  0.00000000E+00  0.00000000E+00
  0.00000000E+00  0.00000000E+00  0.00000000E+00
  0.00000000E+00  0.00000000E+00  0.00000000E+00
  0.00000000E+00  0.00000000E+00  0.00000000E+00
  0.00000000E+00  0.00000000E+00  0.00000000E+00
  0.00000000E+00  0.00000000E+00  0.00000000E+00
  0.00000000E+00  0.00000000E+00  0.00000000E+00
  0.00000000E+00  0.00000000E+00  0.00000000E+00
  0.00000000E+00  0.00000000E+00  0.00000000E+00
  0.00000000E+00  0.00000000E+00  0.00000000E+00
  0.00000000E+00  0.00000000E+00  0.00000000E+00
  0.00000000E+00  0.00000000E+00  0.00000000E+00
  0.00000000E+00  0.00000000E+00  0.00000000E+00
  0.00000000E+00  0.00000000E+00  0.00000000E+00
  0.00000000E+00  0.00000000E+00  0.00000000E+00
  0.00000000E+00  0.00000000E+00  0.00000000E+00
  0.00000000E+00  0.00000000E+00  0.00000000E+00
  0.00000000E+00  0.00000000E+00  0.00000000E+00
  0.00000000E+00  0.00000000E+00  0.00000000E+00
  0.00000000E+00  0.00000000E+00  0.00000000E+00
  0.00000000E+00  0.00000000E+00  0.00000000E+00
  0.00000000E+00  0.00000000E+00  0.00000000E+00
  0.00000000E+00  0.00000000E+00  0.00000000E+00
  0.00000000E+00  0.00000000E+00  0.00000000E+00
