C  N  H  Pb I 
 1.0000000000000000
     9.0193899931757802    0.0000000000000000    0.0000000000000000
     0.0000000000000000    8.7777678445653162    0.0000000000000000
     0.0000000000000000    0.0000000000000000   12.7961868062944486
 C   N   H   Pb  I  
   4   8  20   4  12
Direct
  0.5058709320067681  0.0402389609673117  0.2489191909568511
  0.0079545554343785  0.4593040156808086  0.7475946208954544
  0.9999334741623487  0.5437416105470891  0.2499316663097823
  0.4847489877304247  0.9632434591482133  0.7441237808863841
  0.5742057872145933  0.9377979736519338  0.1918770935153075
  0.0705946740239366  0.5645637727658527  0.6897252201605891
  0.1400253726358723  0.5688602351305051  0.2278705875145942
  0.6118763411198515  0.8903574968097598  0.7418899046037459
  0.3671021890481530  0.0819218979548561  0.2366992287875633
  0.8689663414621858  0.4161005194902583  0.7399588873068387
  0.9137908271374865  0.4479391348776880  0.1998678972790824
  0.4547078715966329  0.0870268722120074  0.6907057973945397
  0.5688754515114349  0.0947548612996386  0.3117243416365670
  0.0763163041439384  0.4035986538439506  0.8070350065760273
  0.9518065244845643  0.6071628320826098  0.3152898773372930
  0.3976683531547682  0.9174356918876821  0.7947237566011842
  0.6846891755323823  0.9188268061454359  0.2041776236844322
  0.1816203953774488  0.5846650008662724  0.6981420678013572
  0.2010294460121314  0.6403089501440949  0.2740991467148940
  0.6282373171417858  0.7986779249678394  0.7898488012986153
  0.5225483299060011  0.8836316635291267  0.1310237091126930
  0.0137159530701184  0.6200135182310215  0.6317994618654601
  0.1939660374991191  0.5135264221138127  0.1690956389049895
  0.6993452065306007  0.9261016768752370  0.6978609206540551
  0.3000785166918917  0.0357785273507395  0.1809579011126388
  0.7972319185576198  0.4631449498156998  0.6875867489999620
  0.9509888512608649  0.3862285457996331  0.1371775468215875
  0.5303541706142906  0.1350322149030093  0.6408847895581430
  0.3205014768384041  0.1575360999034091  0.2878736526432514
  0.8272559591671836  0.3381575261065085  0.7915835908767332
  0.8041063078994352  0.4421473536597579  0.2196733213428245
  0.3498037966644528  0.1309681330798756  0.6937270640170916
  0.5023441722619808  0.4879288203356366  0.9810849892003165
  0.0023441785924915  0.0120711836670638  0.4810849868122521
  0.9976558244282330  0.9879288178551918  0.9810849914872694
  0.4976558298475982  0.5120711849063111  0.4810849885500975
  0.7958928941106866  0.7105293335369601  0.5032699314851331
  0.9606598229172731  0.9944623124655482  0.2320592544955259
  0.7060293635732524  0.1956508126848427  0.9614522052702348
  0.2041070863312036  0.2894707010478275  0.0032699320500760
  0.2060293779368493  0.3043491755398582  0.4614522129329701
  0.2939706246777947  0.8043491828284943  0.4614522154174112
  0.7939706408800884  0.6956508110307111  0.9614522100061302
  0.7041071043942746  0.2105293303375289  0.5032699287679750
  0.4606598128207440  0.5055376617516696  0.7320592563212425
  0.0393401777688836  0.0055376740307987  0.7320592521911489
  0.2958929104798871  0.7894706933117497  0.0032699289927811
  0.5393401671427811  0.4944623109760681  0.2320592517272514
Cartesian
  0.0000000000000000  0.0000000000000000  0.0000000000000000
  0.0000000000000000  0.0000000000000000  0.0000000000000000
  0.0000000000000000  0.0000000000000000  0.0000000000000000
  0.0000000000000000  0.0000000000000000  0.0000000000000000
  0.0000000000000000  0.0000000000000000  0.0000000000000000
  0.0000000000000000  0.0000000000000000  0.0000000000000000
  0.0000000000000000  0.0000000000000000  0.0000000000000000
  0.0000000000000000  0.0000000000000000  0.0000000000000000
  0.0000000000000000  0.0000000000000000  0.0000000000000000
  0.0000000000000000  0.0000000000000000  0.0000000000000000
  0.0000000000000000  0.0000000000000000  0.0000000000000000
  0.0000000000000000  0.0000000000000000  0.0000000000000000
  0.0000000000000000  0.0000000000000000  0.0000000000000000
  0.0000000000000000  0.0000000000000000  0.0000000000000000
  0.0000000000000000  0.0000000000000000  0.0000000000000000
  0.0000000000000000  0.0000000000000000  0.0000000000000000
  0.0000000000000000  0.0000000000000000  0.0000000000000000
  0.0000000000000000  0.0000000000000000  0.0000000000000000
  0.0000000000000000  0.0000000000000000  0.0000000000000000
  0.0000000000000000  0.0000000000000000  0.0000000000000000
  0.0000000000000000  0.0000000000000000  0.0000000000000000
  0.0000000000000000  0.0000000000000000  0.0000000000000000
  0.0000000000000000  0.0000000000000000  0.0000000000000000
  0.0000000000000000  0.0000000000000000  0.0000000000000000
  0.0000000000000000  0.0000000000000000  0.0000000000000000
  0.0000000000000000  0.0000000000000000  0.0000000000000000
  0.0000000000000000  0.0000000000000000  0.0000000000000000
  0.0000000000000000  0.0000000000000000  0.0000000000000000
  0.0000000000000000  0.0000000000000000  0.0000000000000000
  0.0000000000000000  0.0000000000000000  0.0000000000000000
  0.0000000000000000  0.0000000000000000  0.0000000000000000
  0.0000000000000000  0.0000000000000000  0.0000000000000000
  0.0000000000000000  0.0000000000000000  0.0000000000000000
  0.0000000000000000  0.0000000000000000  0.0000000000000000
  0.0000000000000000  0.0000000000000000  0.0000000000000000
  0.0000000000000000  0.0000000000000000  0.0000000000000000
  0.0000000000000000  0.0000000000000000  0.0000000000000000
  0.0000000000000000  0.0000000000000000  0.0000000000000000
  0.0000000000000000  0.0000000000000000  0.0000000000000000
  0.0000000000000000  0.0000000000000000  0.0000000000000000
  0.0000000000000000  0.0000000000000000  0.0000000000000000
  0.0000000000000000  0.0000000000000000  0.0000000000000000
  0.0000000000000000  0.0000000000000000  0.0000000000000000
  0.0000000000000000  0.0000000000000000  0.0000000000000000
  0.0000000000000000  0.0000000000000000  0.0000000000000000
  0.0000000000000000  0.0000000000000000  0.0000000000000000
  0.0000000000000000  0.0000000000000000  0.0000000000000000
  0.0000000000000000  0.0000000000000000  0.0000000000000000
