C  N  H  Pb I                           
   1.0000000000000000     
     9.0531376093352769   -0.0137926002517076   -0.0599356626471515
    -0.0137926002517076    9.0322955942816314   -0.0796074290030348
    -0.0423758697438511   -0.0562842536994258    6.3027394637884697
  C               N               H               Pb              I             
     2     4    10     2     6
Direct
     0.5000018554397698    0.5000022537173052    0.5710180843918664
     0.0000007410375673    0.9999987646105950    0.5710173459562427
     0.5923581034953997    0.5923585163879750    0.4765803103999318
     0.4076407503633774    0.4076411399921014    0.4765811169345113
     0.0923596624104022    0.9076399465760616    0.4765807909973105
     0.9076407520067917    0.0923588334847736    0.4765810251555322
     0.5000002811686741    0.5000006754111794    0.7434031870421904
     0.6592043223743005    0.6592047228670168    0.5661117567204812
     0.6020540182597998    0.6020543629609065    0.3166118097023158
     0.3979460835827382    0.3979464056777431    0.3166130108747680
     0.3407963330843771    0.3407967026589489    0.5661133888189624
     0.0000003891983269    0.9999991386351894    0.7434028011510989
     0.1592037642541229    0.8407958108961822    0.5661101690442578
     0.1020541224786768    0.8979456517450188    0.3166108718828013
     0.8979457520127525    0.1020539951781174    0.3166116306627345
     0.8407959940430487    0.1592035362748234    0.5661129987487641
     0.9965289588332240    0.5008436301494896    0.9986431272752512
     0.4968181654520478    0.9992215923483343    0.9998779280670078
     0.0021151522158718    0.4924507639934745    0.4947825653414029
     0.4965961752280563    0.9985148184625530    0.4899378240295604
     0.2185208587525267    0.2190431706617630    0.9886607917366490
     0.2865276691129210    0.7159092697578728    0.9839800202557996
     0.7206832159490588    0.2792363951130454    0.9843613593517446
     0.7791520802930023    0.7808274176059200    0.9967160252524820

  0.00000000E+00  0.00000000E+00  0.00000000E+00
  0.00000000E+00  0.00000000E+00  0.00000000E+00
  0.00000000E+00  0.00000000E+00  0.00000000E+00
  0.00000000E+00  0.00000000E+00  0.00000000E+00
  0.00000000E+00  0.00000000E+00  0.00000000E+00
  0.00000000E+00  0.00000000E+00  0.00000000E+00
  0.00000000E+00  0.00000000E+00  0.00000000E+00
  0.00000000E+00  0.00000000E+00  0.00000000E+00
  0.00000000E+00  0.00000000E+00  0.00000000E+00
  0.00000000E+00  0.00000000E+00  0.00000000E+00
  0.00000000E+00  0.00000000E+00  0.00000000E+00
  0.00000000E+00  0.00000000E+00  0.00000000E+00
  0.00000000E+00  0.00000000E+00  0.00000000E+00
  0.00000000E+00  0.00000000E+00  0.00000000E+00
  0.00000000E+00  0.00000000E+00  0.00000000E+00
  0.00000000E+00  0.00000000E+00  0.00000000E+00
  0.00000000E+00  0.00000000E+00  0.00000000E+00
  0.00000000E+00  0.00000000E+00  0.00000000E+00
  0.00000000E+00  0.00000000E+00  0.00000000E+00
  0.00000000E+00  0.00000000E+00  0.00000000E+00
  0.00000000E+00  0.00000000E+00  0.00000000E+00
  0.00000000E+00  0.00000000E+00  0.00000000E+00
  0.00000000E+00  0.00000000E+00  0.00000000E+00
  0.00000000E+00  0.00000000E+00  0.00000000E+00
