C  N  H  Pb I 
 1.0000000000000000
     9.0531376093352769   -0.0137926002517076   -0.0599356626471515
    -0.0137926002517076    9.0322955942816314   -0.0796074290030348
    -0.0423758697438511   -0.0562842536994258    6.3027394637884697
 C   N   H   Pb  I  
   2   4  10   2   6
Direct
  0.5000018554397698  0.5000022537173053  0.5710180843918636
  0.0000007410375673  0.9999987646105948  0.5710173459562401
  0.5923581034953976  0.5923585163879728  0.4765803103999294
  0.4076407503633792  0.4076411399921032  0.4765811169345089
  0.0923596624104001  0.9076399465760638  0.4765807909973081
  0.9076407520067939  0.0923588334847715  0.4765810251555297
  0.5000002811686741  0.5000006754111795  0.7434031870421925
  0.6592043223742974  0.6592047228670136  0.5661117567204834
  0.6020540182598020  0.6020543629609088  0.3166118097023156
  0.3979460835827361  0.3979464056777409  0.3166130108747678
  0.3407963330843803  0.3407967026589521  0.5661133888189648
  0.0000003891983269  0.9999991386351895  0.7434028011511009
  0.1592037642541199  0.8407958108961852  0.5661101690442603
  0.1020541224786791  0.8979456517450163  0.3166108718828011
  0.8979457520127502  0.1020539951781196  0.3166116306627342
  0.8407959940430519  0.1592035362748205  0.5661129987487663
  0.9965289588332276  0.5008436301494930  0.9986431272752485
  0.4968181654520500  0.9992215923483321  0.9998779280670097
  0.0021151522158721  0.4924507639934758  0.4947825653414038
  0.4965961752280590  0.9985148184625552  0.4899378240295591
  0.2185208587525299  0.2190431706617599  0.9886607917366499
  0.2865276691129185  0.7159092697578751  0.9839800202557960
  0.7206832159490576  0.2792363951130437  0.9843613593517441
  0.7791520802930010  0.7808274176059220  0.9967160252524836
Cartesian
  0.0000000000000000  0.0000000000000000  0.0000000000000000
  0.0000000000000000  0.0000000000000000  0.0000000000000000
  0.0000000000000000  0.0000000000000000  0.0000000000000000
  0.0000000000000000  0.0000000000000000  0.0000000000000000
  0.0000000000000000  0.0000000000000000  0.0000000000000000
  0.0000000000000000  0.0000000000000000  0.0000000000000000
  0.0000000000000000  0.0000000000000000  0.0000000000000000
  0.0000000000000000  0.0000000000000000  0.0000000000000000
  0.0000000000000000  0.0000000000000000  0.0000000000000000
  0.0000000000000000  0.0000000000000000  0.0000000000000000
  0.0000000000000000  0.0000000000000000  0.0000000000000000
  0.0000000000000000  0.0000000000000000  0.0000000000000000
  0.0000000000000000  0.0000000000000000  0.0000000000000000
  0.0000000000000000  0.0000000000000000  0.0000000000000000
  0.0000000000000000  0.0000000000000000  0.0000000000000000
  0.0000000000000000  0.0000000000000000  0.0000000000000000
  0.0000000000000000  0.0000000000000000  0.0000000000000000
  0.0000000000000000  0.0000000000000000  0.0000000000000000
  0.0000000000000000  0.0000000000000000  0.0000000000000000
  0.0000000000000000  0.0000000000000000  0.0000000000000000
  0.0000000000000000  0.0000000000000000  0.0000000000000000
  0.0000000000000000  0.0000000000000000  0.0000000000000000
  0.0000000000000000  0.0000000000000000  0.0000000000000000
  0.0000000000000000  0.0000000000000000  0.0000000000000000
